 Entering Gaussian System, Link 0=/applications/g16/g16/g16
 Initial command:
 /applications/g16/g16/l1.exe "/scratch/g98/Gau-64054.inp" -scrdir="/scratch/g98/"
 Entering Link 1 = /applications/g16/g16/l1.exe PID=     64055.
  
 Copyright (c) 1988,1990,1992,1993,1995,1998,2003,2009,2016,
            Gaussian, Inc.  All Rights Reserved.
  
 This is part of the Gaussian(R) 16 program.  It is based on
 the Gaussian(R) 09 system (copyright 2009, Gaussian, Inc.),
 the Gaussian(R) 03 system (copyright 2003, Gaussian, Inc.),
 the Gaussian(R) 98 system (copyright 1998, Gaussian, Inc.),
 the Gaussian(R) 94 system (copyright 1995, Gaussian, Inc.),
 the Gaussian 92(TM) system (copyright 1992, Gaussian, Inc.),
 the Gaussian 90(TM) system (copyright 1990, Gaussian, Inc.),
 the Gaussian 88(TM) system (copyright 1988, Gaussian, Inc.),
 the Gaussian 86(TM) system (copyright 1986, Carnegie Mellon
 University), and the Gaussian 82(TM) system (copyright 1983,
 Carnegie Mellon University). Gaussian is a federally registered
 trademark of Gaussian, Inc.
  
 This software contains proprietary and confidential information,
 including trade secrets, belonging to Gaussian, Inc.
  
 This software is provided under written license and may be
 used, copied, transmitted, or stored only in accord with that
 written license.
  
 The following legend is applicable only to US Government
 contracts under FAR:
  
                    RESTRICTED RIGHTS LEGEND
  
 Use, reproduction and disclosure by the US Government is
 subject to restrictions as set forth in subparagraphs (a)
 and (c) of the Commercial Computer Software - Restricted
 Rights clause in FAR 52.227-19.
  
 Gaussian, Inc.
 340 Quinnipiac St., Bldg. 40, Wallingford CT 06492
  
  
 ---------------------------------------------------------------
 Warning -- This program may not be used in any manner that
 competes with the business of Gaussian, Inc. or will provide
 assistance to any competitor of Gaussian, Inc.  The licensee
 of this program is prohibited from giving any competitor of
 Gaussian, Inc. access to this program.  By using this program,
 the user acknowledges that Gaussian, Inc. is engaged in the
 business of creating and licensing software in the field of
 computational chemistry and represents and warrants to the
 licensee that it is not a competitor of Gaussian, Inc. and that
 it will not use this program in any manner prohibited above.
 ---------------------------------------------------------------
  

 Cite this work as:
 Gaussian 16, Revision A.03,
 M. J. Frisch, G. W. Trucks, H. B. Schlegel, G. E. Scuseria, 
 M. A. Robb, J. R. Cheeseman, G. Scalmani, V. Barone, 
 G. A. Petersson, H. Nakatsuji, X. Li, M. Caricato, A. V. Marenich, 
 J. Bloino, B. G. Janesko, R. Gomperts, B. Mennucci, H. P. Hratchian, 
 J. V. Ortiz, A. F. Izmaylov, J. L. Sonnenberg, D. Williams-Young, 
 F. Ding, F. Lipparini, F. Egidi, J. Goings, B. Peng, A. Petrone, 
 T. Henderson, D. Ranasinghe, V. G. Zakrzewski, J. Gao, N. Rega, 
 G. Zheng, W. Liang, M. Hada, M. Ehara, K. Toyota, R. Fukuda, 
 J. Hasegawa, M. Ishida, T. Nakajima, Y. Honda, O. Kitao, H. Nakai, 
 T. Vreven, K. Throssell, J. A. Montgomery, Jr., J. E. Peralta, 
 F. Ogliaro, M. J. Bearpark, J. J. Heyd, E. N. Brothers, K. N. Kudin, 
 V. N. Staroverov, T. A. Keith, R. Kobayashi, J. Normand, 
 K. Raghavachari, A. P. Rendell, J. C. Burant, S. S. Iyengar, 
 J. Tomasi, M. Cossi, J. M. Millam, M. Klene, C. Adamo, R. Cammi, 
 J. W. Ochterski, R. L. Martin, K. Morokuma, O. Farkas, 
 J. B. Foresman, and D. J. Fox, Gaussian, Inc., Wallingford CT, 2016.
 
 ******************************************
 Gaussian 16:  EM64M-G16RevA.03 25-Dec-2016
                12-Jan-2021 
 ******************************************
 %mem=24GB
 %nprocshared=8
 Will use up to    8 processors via shared memory.
 %chk=1_pentane.chk
 ---------------------------------------------
 # opt wb97xd/6-311+g(2d,2p) geom=connectivity
 ---------------------------------------------
 1/18=20,19=15,26=3,38=1,57=2/1,3;
 2/9=110,12=2,17=6,18=5,40=1/2;
 3/5=4,6=6,7=212,11=2,25=1,30=1,71=1,74=-58/1,2,3;
 4//1;
 5/5=2,38=5/2;
 6/7=2,8=2,9=2,10=2,28=1/1;
 7//1,2,3,16;
 1/18=20,19=15,26=3/3(2);
 2/9=110/2;
 99//99;
 2/9=110/2;
 3/5=4,6=6,7=212,11=2,25=1,30=1,71=1,74=-58/1,2,3;
 4/5=5,16=3,69=1/1;
 5/5=2,38=5/2;
 7//1,2,3,16;
 1/18=20,19=15,26=3/3(-5);
 2/9=110/2;
 6/7=2,8=2,9=2,10=2,19=2,28=1/1;
 99/9=1/99;
 -------------------
 Title Card Required
 -------------------
 Symbolic Z-matrix:
 Charge =  0 Multiplicity = 1
 C                     0.87889   0.44239   0.1811 
 F                     0.94986   0.85953   1.45135 
 F                     0.75814   1.50417  -0.62516 
 C                     2.20134  -0.30609  -0.17717 
 F                     2.15076  -1.54871   0.31895 
 F                     2.30679  -0.37659  -1.51492 
 C                     3.48507   0.39456   0.36086 
 F                     3.60771   0.14822   1.67579 
 F                     3.37374   1.71225   0.17451 
 C                     4.75842  -0.0966   -0.37579 
 O                     5.40414   0.60157  -1.09038 
 O                     5.00317  -1.36867  -0.08435 
 H                     5.79965  -1.63395  -0.56532 
 C                    -0.39109  -0.45681   0.02746 
 F                    -0.45971  -1.27974   1.08108 
 F                    -0.27745  -1.18456  -1.09122 
 F                    -1.52154   0.24959  -0.04531 
 

 GradGradGradGradGradGradGradGradGradGradGradGradGradGradGradGradGradGrad
 Berny optimization.
 Initialization pass.
                           ----------------------------
                           !    Initial Parameters    !
                           ! (Angstroms and Degrees)  !
 --------------------------                            --------------------------
 ! Name  Definition              Value          Derivative Info.                !
 --------------------------------------------------------------------------------
 ! R1    R(1,2)                  1.3389         estimate D2E/DX2                !
 ! R2    R(1,3)                  1.3387         estimate D2E/DX2                !
 ! R3    R(1,4)                  1.5612         estimate D2E/DX2                !
 ! R4    R(1,14)                 1.5636         estimate D2E/DX2                !
 ! R5    R(4,5)                  1.339          estimate D2E/DX2                !
 ! R6    R(4,6)                  1.3437         estimate D2E/DX2                !
 ! R7    R(4,7)                  1.5583         estimate D2E/DX2                !
 ! R8    R(7,8)                  1.3434         estimate D2E/DX2                !
 ! R9    R(7,9)                  1.3354         estimate D2E/DX2                !
 ! R10   R(7,10)                 1.5509         estimate D2E/DX2                !
 ! R11   R(10,11)                1.1896         estimate D2E/DX2                !
 ! R12   R(10,12)                1.3278         estimate D2E/DX2                !
 ! R13   R(12,13)                0.9675         estimate D2E/DX2                !
 ! R14   R(14,15)                1.3387         estimate D2E/DX2                !
 ! R15   R(14,16)                1.3394         estimate D2E/DX2                !
 ! R16   R(14,17)                1.335          estimate D2E/DX2                !
 ! A1    A(2,1,3)              109.2132         estimate D2E/DX2                !
 ! A2    A(2,1,4)              108.795          estimate D2E/DX2                !
 ! A3    A(2,1,14)             108.3876         estimate D2E/DX2                !
 ! A4    A(3,1,4)              108.5688         estimate D2E/DX2                !
 ! A5    A(3,1,14)             108.8854         estimate D2E/DX2                !
 ! A6    A(4,1,14)             112.9375         estimate D2E/DX2                !
 ! A7    A(1,4,5)              109.141          estimate D2E/DX2                !
 ! A8    A(1,4,6)              108.6679         estimate D2E/DX2                !
 ! A9    A(1,4,7)              113.7668         estimate D2E/DX2                !
 ! A10   A(5,4,6)              108.8532         estimate D2E/DX2                !
 ! A11   A(5,4,7)              108.691          estimate D2E/DX2                !
 ! A12   A(6,4,7)              107.6175         estimate D2E/DX2                !
 ! A13   A(4,7,8)              109.3115         estimate D2E/DX2                !
 ! A14   A(4,7,9)              109.0737         estimate D2E/DX2                !
 ! A15   A(4,7,10)             111.7146         estimate D2E/DX2                !
 ! A16   A(8,7,9)              108.9729         estimate D2E/DX2                !
 ! A17   A(8,7,10)             109.3828         estimate D2E/DX2                !
 ! A18   A(9,7,10)             108.3396         estimate D2E/DX2                !
 ! A19   A(7,10,11)            123.0336         estimate D2E/DX2                !
 ! A20   A(7,10,12)            110.5173         estimate D2E/DX2                !
 ! A21   A(11,10,12)           126.4482         estimate D2E/DX2                !
 ! A22   A(10,12,13)           107.7769         estimate D2E/DX2                !
 ! A23   A(1,14,15)            108.5306         estimate D2E/DX2                !
 ! A24   A(1,14,16)            109.003          estimate D2E/DX2                !
 ! A25   A(1,14,17)            112.8811         estimate D2E/DX2                !
 ! A26   A(15,14,16)           109.129          estimate D2E/DX2                !
 ! A27   A(15,14,17)           108.9518         estimate D2E/DX2                !
 ! A28   A(16,14,17)           108.2896         estimate D2E/DX2                !
 ! D1    D(2,1,4,5)             79.3014         estimate D2E/DX2                !
 ! D2    D(2,1,4,6)           -162.1232         estimate D2E/DX2                !
 ! D3    D(2,1,4,7)            -42.2653         estimate D2E/DX2                !
 ! D4    D(3,1,4,5)           -161.9453         estimate D2E/DX2                !
 ! D5    D(3,1,4,6)            -43.37           estimate D2E/DX2                !
 ! D6    D(3,1,4,7)             76.4879         estimate D2E/DX2                !
 ! D7    D(14,1,4,5)           -41.086          estimate D2E/DX2                !
 ! D8    D(14,1,4,6)            77.4893         estimate D2E/DX2                !
 ! D9    D(14,1,4,7)          -162.6528         estimate D2E/DX2                !
 ! D10   D(2,1,14,15)          -43.493          estimate D2E/DX2                !
 ! D11   D(2,1,14,16)         -162.2418         estimate D2E/DX2                !
 ! D12   D(2,1,14,17)           77.3873         estimate D2E/DX2                !
 ! D13   D(3,1,14,15)         -162.1939         estimate D2E/DX2                !
 ! D14   D(3,1,14,16)           79.0573         estimate D2E/DX2                !
 ! D15   D(3,1,14,17)          -41.3137         estimate D2E/DX2                !
 ! D16   D(4,1,14,15)           77.1271         estimate D2E/DX2                !
 ! D17   D(4,1,14,16)          -41.6217         estimate D2E/DX2                !
 ! D18   D(4,1,14,17)         -161.9927         estimate D2E/DX2                !
 ! D19   D(1,4,7,8)             77.1114         estimate D2E/DX2                !
 ! D20   D(1,4,7,9)            -41.9457         estimate D2E/DX2                !
 ! D21   D(1,4,7,10)          -161.6852         estimate D2E/DX2                !
 ! D22   D(5,4,7,8)            -44.7051         estimate D2E/DX2                !
 ! D23   D(5,4,7,9)           -163.7623         estimate D2E/DX2                !
 ! D24   D(5,4,7,10)            76.4983         estimate D2E/DX2                !
 ! D25   D(6,4,7,8)           -162.4382         estimate D2E/DX2                !
 ! D26   D(6,4,7,9)             78.5047         estimate D2E/DX2                !
 ! D27   D(6,4,7,10)           -41.2348         estimate D2E/DX2                !
 ! D28   D(4,7,10,11)          112.8114         estimate D2E/DX2                !
 ! D29   D(4,7,10,12)          -67.5124         estimate D2E/DX2                !
 ! D30   D(8,7,10,11)         -126.0265         estimate D2E/DX2                !
 ! D31   D(8,7,10,12)           53.6496         estimate D2E/DX2                !
 ! D32   D(9,7,10,11)           -7.3593         estimate D2E/DX2                !
 ! D33   D(9,7,10,12)          172.3168         estimate D2E/DX2                !
 ! D34   D(7,10,12,13)         179.7689         estimate D2E/DX2                !
 ! D35   D(11,10,12,13)         -0.5686         estimate D2E/DX2                !
 --------------------------------------------------------------------------------
 Trust Radius=3.00D-01 FncErr=1.00D-07 GrdErr=1.00D-06 EigMax=2.50D+02 EigMin=1.00D-04
 Number of steps in this run=     89 maximum allowed number of steps=    102.
 GradGradGradGradGradGradGradGradGradGradGradGradGradGradGradGradGradGrad

                          Input orientation:                          
 ---------------------------------------------------------------------
 Center     Atomic      Atomic             Coordinates (Angstroms)
 Number     Number       Type             X           Y           Z
 ---------------------------------------------------------------------
      1          6           0        0.878889    0.442387    0.181103
      2          9           0        0.949861    0.859525    1.451345
      3          9           0        0.758141    1.504165   -0.625162
      4          6           0        2.201338   -0.306088   -0.177169
      5          9           0        2.150755   -1.548710    0.318946
      6          9           0        2.306792   -0.376588   -1.514917
      7          6           0        3.485068    0.394560    0.360859
      8          9           0        3.607714    0.148221    1.675794
      9          9           0        3.373737    1.712248    0.174509
     10          6           0        4.758423   -0.096602   -0.375786
     11          8           0        5.404136    0.601574   -1.090384
     12          8           0        5.003165   -1.368665   -0.084349
     13          1           0        5.799646   -1.633948   -0.565319
     14          6           0       -0.391085   -0.456805    0.027459
     15          9           0       -0.459709   -1.279744    1.081084
     16          9           0       -0.277449   -1.184559   -1.091217
     17          9           0       -1.521543    0.249590   -0.045309
 ---------------------------------------------------------------------
                    Distance matrix (angstroms):
                    1          2          3          4          5
     1  C    0.000000
     2  F    1.338864   0.000000
     3  F    1.338662   2.182704   0.000000
     4  C    1.561232   2.361547   2.358078   0.000000
     5  F    2.366667   2.919601   3.485794   1.338954   0.000000
     6  F    2.363495   3.488258   2.593688   1.343749   2.182034
     7  C    2.612809   2.798683   3.104769   1.558315   2.357636
     8  F    3.125239   2.760528   3.905515   2.370182   2.615978
     9  F    2.799439   2.869255   2.743012   2.360482   3.485742
    10  C    3.956187   4.331020   4.315889   2.573328   3.064507
    11  O    4.703178   5.134929   4.755667   3.451916   4.146616
    12  O    4.512209   4.873650   5.154208   2.997986   2.886400
    13  H    5.392788   5.814186   5.938696   3.855087   3.755475
    14  C    1.563645   2.357607   2.364749   2.604850   2.781757
    15  F    2.359565   2.588523   3.484908   3.100383   2.732713
    16  F    2.367038   3.485569   2.918714   2.784166   2.831491
    17  F    2.418783   2.952937   2.665924   3.766432   4.105160
                    6          7          8          9         10
     6  F    0.000000
     7  C    2.345536   0.000000
     8  F    3.485464   1.343421   0.000000
     9  F    2.890634   1.335448   2.180546   0.000000
    10  C    2.717813   1.550909   2.364963   2.343527   0.000000
    11  O    3.275755   2.414908   3.329325   2.637436   1.189557
    12  O    3.209543   2.368922   2.710411   3.494863   1.327772
    13  H    3.831804   3.214020   3.606006   4.198739   1.866414
    14  C    3.108681   3.982529   4.367317   4.347447   5.177817
    15  F    3.899800   4.345490   4.351631   4.946635   5.545376
    16  F    2.740555   4.331129   4.952489   4.829566   5.201490
    17  F    4.148252   5.025151   5.411262   5.113850   6.298178
                   11         12         13         14         15
    11  O    0.000000
    12  O    2.248272   0.000000
    13  H    2.330167   0.967517   0.000000
    14  C    5.996193   5.471921   6.329471   0.000000
    15  F    6.529878   5.586514   6.481946   1.338680   0.000000
    16  F    5.955727   5.378900   6.116339   1.339394   2.182011
    17  F    7.012924   6.722506   7.577463   1.335000   2.176032
                   16         17
    16  F    0.000000
    17  F    2.167597   0.000000
 Stoichiometry    C5HF9O2
 Framework group  C1[X(C5HF9O2)]
 Deg. of freedom    45
 Full point group                 C1      NOp   1
 Largest Abelian subgroup         C1      NOp   1
 Largest concise Abelian subgroup C1      NOp   1
                         Standard orientation:                         
 ---------------------------------------------------------------------
 Center     Atomic      Atomic             Coordinates (Angstroms)
 Number     Number       Type             X           Y           Z
 ---------------------------------------------------------------------
      1          6           0       -1.074787    0.561713   -0.037013
      2          9           0       -1.045275    1.281428    1.091569
      3          9           0       -1.102002    1.390826   -1.087654
      4          6           0        0.224145   -0.300667   -0.117751
      5          9           0        0.086544   -1.376276    0.667698
      6          9           0        0.391450   -0.708489   -1.387141
      7          6           0        1.513675    0.465064    0.305468
      8          9           0        1.559014    0.552324    1.645285
      9          9           0        1.478350    1.696965   -0.208919
     10          6           0        2.795213   -0.241588   -0.207974
     11          8           0        3.509681    0.230735   -1.033498
     12          8           0        2.960763   -1.407870    0.404692
     13          1           0        3.765473   -1.814383    0.053583
     14          6           0       -2.379498   -0.300096   -0.038452
     15          9           0       -2.541259   -0.829156    1.180561
     16          9           0       -2.247996   -1.288991   -0.932190
     17          9           0       -3.467881    0.406358   -0.352407
 ---------------------------------------------------------------------
 Rotational constants (GHZ):           1.0617654           0.3754877           0.3601218
 Standard basis: 6-311+G(2d,2p) (5D, 7F)
 There are   473 symmetry adapted cartesian basis functions of A   symmetry.
 There are   441 symmetry adapted basis functions of A   symmetry.
   441 basis functions,   683 primitive gaussians,   473 cartesian basis functions
    64 alpha electrons       64 beta electrons
       nuclear repulsion energy      1423.4755974502 Hartrees.
 NAtoms=   17 NActive=   17 NUniq=   17 SFac= 1.00D+00 NAtFMM=   60 NAOKFM=F Big=F
 Integral buffers will be    131072 words long.
 Raffenetti 2 integral format.
 Two-electron integral symmetry is turned on.
 Nuclear repulsion after empirical dispersion term =     1423.4651605325 Hartrees.
 One-electron integrals computed using PRISM.
 NBasis=   441 RedAO= T EigKep=  7.61D-06  NBF=   441
 NBsUse=   441 1.00D-06 EigRej= -1.00D+00 NBFU=   441
 ExpMin= 4.38D-02 ExpMax= 1.14D+04 ExpMxC= 1.72D+03 IAcc=3 IRadAn=         5 AccDes= 0.00D+00
 Harris functional with IExCor= 4639 and IRadAn=       5 diagonalized for initial guess.
 HarFok:  IExCor= 4639 AccDes= 0.00D+00 IRadAn=         5 IDoV= 1 UseB2=F ITyADJ=14
 ICtDFT=  3500011 ScaDFX=  1.000000  1.000000  1.000000  1.000000
 FoFCou: FMM=F IPFlag=           0 FMFlag=      100000 FMFlg1=           0
         NFxFlg=           0 DoJE=T BraDBF=F KetDBF=T FulRan=T
         wScrn=  0.000000 ICntrl=       500 IOpCl=  0 I1Cent=   200000004 NGrid=           0
         NMat0=    1 NMatS0=      1 NMatT0=    0 NMatD0=    1 NMtDS0=    0 NMtDT0=    0
 Petite list used in FoFCou.
 Requested convergence on RMS density matrix=1.00D-08 within 128 cycles.
 Requested convergence on MAX density matrix=1.00D-06.
 Requested convergence on             energy=1.00D-06.
 No special actions if energy rises.
 SCF Done:  E(RwB97XD) =  -1240.21723866     A.U. after   14 cycles
            NFock= 14  Conv=0.58D-08     -V/T= 2.0027

 **********************************************************************

            Population analysis using the SCF density.

 **********************************************************************

 Orbital symmetries:
       Occupied  (A) (A) (A) (A) (A) (A) (A) (A) (A) (A) (A) (A)
                 (A) (A) (A) (A) (A) (A) (A) (A) (A) (A) (A) (A)
                 (A) (A) (A) (A) (A) (A) (A) (A) (A) (A) (A) (A)
                 (A) (A) (A) (A) (A) (A) (A) (A) (A) (A) (A) (A)
                 (A) (A) (A) (A) (A) (A) (A) (A) (A) (A) (A) (A)
                 (A) (A) (A) (A)
       Virtual   (A) (A) (A) (A) (A) (A) (A) (A) (A) (A) (A) (A)
                 (A) (A) (A) (A) (A) (A) (A) (A) (A) (A) (A) (A)
                 (A) (A) (A) (A) (A) (A) (A) (A) (A) (A) (A) (A)
                 (A) (A) (A) (A) (A) (A) (A) (A) (A) (A) (A) (A)
                 (A) (A) (A) (A) (A) (A) (A) (A) (A) (A) (A) (A)
                 (A) (A) (A) (A) (A) (A) (A) (A) (A) (A) (A) (A)
                 (A) (A) (A) (A) (A) (A) (A) (A) (A) (A) (A) (A)
                 (A) (A) (A) (A) (A) (A) (A) (A) (A) (A) (A) (A)
                 (A) (A) (A) (A) (A) (A) (A) (A) (A) (A) (A) (A)
                 (A) (A) (A) (A) (A) (A) (A) (A) (A) (A) (A) (A)
                 (A) (A) (A) (A) (A) (A) (A) (A) (A) (A) (A) (A)
                 (A) (A) (A) (A) (A) (A) (A) (A) (A) (A) (A) (A)
                 (A) (A) (A) (A) (A) (A) (A) (A) (A) (A) (A) (A)
                 (A) (A) (A) (A) (A) (A) (A) (A) (A) (A) (A) (A)
                 (A) (A) (A) (A) (A) (A) (A) (A) (A) (A) (A) (A)
                 (A) (A) (A) (A) (A) (A) (A) (A) (A) (A) (A) (A)
                 (A) (A) (A) (A) (A) (A) (A) (A) (A) (A) (A) (A)
                 (A) (A) (A) (A) (A) (A) (A) (A) (A) (A) (A) (A)
                 (A) (A) (A) (A) (A) (A) (A) (A) (A) (A) (A) (A)
                 (A) (A) (A) (A) (A) (A) (A) (A) (A) (A) (A) (A)
                 (A) (A) (A) (A) (A) (A) (A) (A) (A) (A) (A) (A)
                 (A) (A) (A) (A) (A) (A) (A) (A) (A) (A) (A) (A)
                 (A) (A) (A) (A) (A) (A) (A) (A) (A) (A) (A) (A)
                 (A) (A) (A) (A) (A) (A) (A) (A) (A) (A) (A) (A)
                 (A) (A) (A) (A) (A) (A) (A) (A) (A) (A) (A) (A)
                 (A) (A) (A) (A) (A) (A) (A) (A) (A) (A) (A) (A)
                 (A) (A) (A) (A) (A) (A) (A) (A) (A) (A) (A) (A)
                 (A) (A) (A) (A) (A) (A) (A) (A) (A) (A) (A) (A)
                 (A) (A) (A) (A) (A) (A) (A) (A) (A) (A) (A) (A)
                 (A) (A) (A) (A) (A) (A) (A) (A) (A) (A) (A) (A)
                 (A) (A) (A) (A) (A) (A) (A) (A) (A) (A) (A) (A)
                 (A) (A) (A) (A) (A)
 The electronic state is 1-A.
 Alpha  occ. eigenvalues --  -24.88204 -24.87946 -24.87919 -24.87891 -24.87833
 Alpha  occ. eigenvalues --  -24.87774 -24.87712 -24.86905 -24.86873 -19.34686
 Alpha  occ. eigenvalues --  -19.28902 -10.58689 -10.53015 -10.52728 -10.51939
 Alpha  occ. eigenvalues --  -10.47150  -1.46799  -1.44350  -1.42605  -1.42006
 Alpha  occ. eigenvalues --   -1.38104  -1.37400  -1.37180  -1.36488  -1.35934
 Alpha  occ. eigenvalues --   -1.27023  -1.18077  -0.95293  -0.91588  -0.85694
 Alpha  occ. eigenvalues --   -0.80391  -0.77661  -0.75203  -0.74711  -0.73951
 Alpha  occ. eigenvalues --   -0.72511  -0.71864  -0.71404  -0.70006  -0.68548
 Alpha  occ. eigenvalues --   -0.68065  -0.62495  -0.61628  -0.61042  -0.60330
 Alpha  occ. eigenvalues --   -0.59956  -0.59595  -0.59050  -0.58600  -0.57789
 Alpha  occ. eigenvalues --   -0.57251  -0.56854  -0.56005  -0.55671  -0.54896
 Alpha  occ. eigenvalues --   -0.54561  -0.53961  -0.53892  -0.53583  -0.52902
 Alpha  occ. eigenvalues --   -0.50447  -0.46026  -0.45747  -0.41201
 Alpha virt. eigenvalues --    0.01521   0.04988   0.07247   0.08187   0.08510
 Alpha virt. eigenvalues --    0.09689   0.10682   0.10877   0.11488   0.12601
 Alpha virt. eigenvalues --    0.12888   0.13312   0.13860   0.14535   0.15270
 Alpha virt. eigenvalues --    0.16578   0.16727   0.17511   0.18062   0.18550
 Alpha virt. eigenvalues --    0.20312   0.21287   0.22105   0.22639   0.22976
 Alpha virt. eigenvalues --    0.23752   0.25267   0.25587   0.25873   0.26954
 Alpha virt. eigenvalues --    0.27500   0.28198   0.29733   0.30235   0.30883
 Alpha virt. eigenvalues --    0.30953   0.31857   0.32029   0.33021   0.33337
 Alpha virt. eigenvalues --    0.33734   0.33839   0.34595   0.34955   0.35740
 Alpha virt. eigenvalues --    0.36587   0.36851   0.37163   0.38286   0.39459
 Alpha virt. eigenvalues --    0.39958   0.40482   0.40931   0.41845   0.42239
 Alpha virt. eigenvalues --    0.42638   0.43578   0.43714   0.44008   0.44540
 Alpha virt. eigenvalues --    0.45143   0.46172   0.46299   0.47651   0.48179
 Alpha virt. eigenvalues --    0.48315   0.49388   0.49632   0.50605   0.50854
 Alpha virt. eigenvalues --    0.52243   0.52799   0.53973   0.54416   0.54779
 Alpha virt. eigenvalues --    0.56605   0.57020   0.58351   0.58752   0.59437
 Alpha virt. eigenvalues --    0.62301   0.63405   0.66387   0.67059   0.68846
 Alpha virt. eigenvalues --    0.70097   0.71171   0.71939   0.73200   0.73789
 Alpha virt. eigenvalues --    0.74057   0.76884   0.78995   0.80644   0.81144
 Alpha virt. eigenvalues --    0.81610   0.83814   0.85505   0.87566   0.89899
 Alpha virt. eigenvalues --    0.92050   0.94923   0.95835   0.98987   1.02085
 Alpha virt. eigenvalues --    1.03015   1.06129   1.09148   1.10144   1.10908
 Alpha virt. eigenvalues --    1.12311   1.13841   1.15626   1.15778   1.16986
 Alpha virt. eigenvalues --    1.18233   1.20088   1.21469   1.22877   1.25724
 Alpha virt. eigenvalues --    1.26964   1.27664   1.31318   1.32036   1.33580
 Alpha virt. eigenvalues --    1.34244   1.36331   1.37723   1.39324   1.40143
 Alpha virt. eigenvalues --    1.41114   1.42177   1.42645   1.43350   1.44288
 Alpha virt. eigenvalues --    1.45227   1.45337   1.46203   1.46456   1.47896
 Alpha virt. eigenvalues --    1.48208   1.49383   1.49702   1.50664   1.51972
 Alpha virt. eigenvalues --    1.52012   1.53285   1.53887   1.54019   1.54716
 Alpha virt. eigenvalues --    1.56719   1.57369   1.58328   1.59372   1.60172
 Alpha virt. eigenvalues --    1.61586   1.61753   1.63833   1.64992   1.66490
 Alpha virt. eigenvalues --    1.69098   1.70950   1.74866   1.75191   1.76404
 Alpha virt. eigenvalues --    1.82699   1.83817   1.86905   1.93260   1.94797
 Alpha virt. eigenvalues --    1.99278   2.00830   2.01906   2.02682   2.04843
 Alpha virt. eigenvalues --    2.06452   2.06798   2.07825   2.09623   2.11241
 Alpha virt. eigenvalues --    2.11917   2.12960   2.14146   2.14434   2.15088
 Alpha virt. eigenvalues --    2.17524   2.18262   2.19253   2.20486   2.25322
 Alpha virt. eigenvalues --    2.25608   2.26456   2.29662   2.32353   2.33938
 Alpha virt. eigenvalues --    2.34106   2.35135   2.36794   2.39556   2.40283
 Alpha virt. eigenvalues --    2.40620   2.44848   2.45871   2.47308   2.48647
 Alpha virt. eigenvalues --    2.54179   2.56417   2.57532   2.59889   2.61323
 Alpha virt. eigenvalues --    2.63797   2.64581   2.66371   2.68074   2.71733
 Alpha virt. eigenvalues --    2.74825   2.74901   2.76245   2.78809   2.83311
 Alpha virt. eigenvalues --    2.83640   2.87684   2.90602   2.90908   2.94340
 Alpha virt. eigenvalues --    2.99317   3.01016   3.06916   3.13025   3.14792
 Alpha virt. eigenvalues --    3.21504   3.23795   3.25324   3.35743   3.40684
 Alpha virt. eigenvalues --    3.41163   3.46879   3.48249   3.50600   3.51629
 Alpha virt. eigenvalues --    3.52926   3.54610   3.54956   3.57820   3.58936
 Alpha virt. eigenvalues --    3.60672   3.62278   3.63925   3.67100   3.70746
 Alpha virt. eigenvalues --    3.72700   3.74913   3.76375   3.77373   3.79595
 Alpha virt. eigenvalues --    3.81149   3.83027   3.86391   3.90609   3.96214
 Alpha virt. eigenvalues --    4.01694   4.06582   4.11545   4.25478   4.29719
 Alpha virt. eigenvalues --    4.31715   4.35071   4.36606   4.38402   4.39668
 Alpha virt. eigenvalues --    4.41896   4.45568   4.49302   5.10962   5.15330
 Alpha virt. eigenvalues --    5.32414   5.62885   5.98789   6.31429   6.40842
 Alpha virt. eigenvalues --    6.42324   6.42941   6.45107   6.46802   6.48316
 Alpha virt. eigenvalues --    6.48555   6.49262   6.50776   6.51268   6.52062
 Alpha virt. eigenvalues --    6.52402   6.54011   6.54985   6.55480   6.56549
 Alpha virt. eigenvalues --    6.58628   6.60905   6.66492   6.69634   6.71177
 Alpha virt. eigenvalues --    6.74155   6.82916   6.84659   6.87200   6.89578
 Alpha virt. eigenvalues --    6.91004   6.93524   6.94800   6.98646   7.05002
 Alpha virt. eigenvalues --    7.15245   7.18404   7.24782   7.29071   7.44802
 Alpha virt. eigenvalues --    7.52538   9.08708   9.09638   9.10208   9.10885
 Alpha virt. eigenvalues --    9.11728   9.12854   9.15137   9.17811   9.18632
 Alpha virt. eigenvalues --    9.19841   9.19955   9.20393   9.22217   9.22895
 Alpha virt. eigenvalues --    9.23907   9.25512   9.26372   9.27128   9.27484
 Alpha virt. eigenvalues --    9.28289   9.28865   9.29821   9.33185   9.35103
 Alpha virt. eigenvalues --    9.40829   9.42458   9.44415   9.46367   9.48732
 Alpha virt. eigenvalues --    9.54187   9.64172   9.65918   9.66894   9.67484
 Alpha virt. eigenvalues --    9.71612   9.72930   9.75882   9.77282   9.78235
 Alpha virt. eigenvalues --    9.80428   9.82518   9.84834   9.88342   9.89431
 Alpha virt. eigenvalues --    9.91139  23.94504  23.97726  24.01071  24.05044
 Alpha virt. eigenvalues --   24.20828  50.06057  50.14239  66.93335  66.93984
 Alpha virt. eigenvalues --   66.95408  66.97388  66.99721  67.00780  67.01169
 Alpha virt. eigenvalues --   67.04910  67.05855
          Condensed to atoms (all electrons):
               1          2          3          4          5          6
     1  C    9.306681   0.316269   0.349425  -3.826098  -0.178688  -0.103170
     2  F    0.316269   9.111590   0.000392  -0.102667   0.012123  -0.000506
     3  F    0.349425   0.000392   9.077207  -0.070186   0.000615   0.022377
     4  C   -3.826098  -0.102667  -0.070186  11.700937   0.367665   0.343109
     5  F   -0.178688   0.012123   0.000615   0.367665   9.102696   0.010430
     6  F   -0.103170  -0.000506   0.022377   0.343109   0.010430   9.106795
     7  C    1.813586  -0.019733  -0.025401  -3.996488  -0.113416  -0.185910
     8  F   -0.016371   0.007967  -0.001247  -0.094724   0.021536   0.000010
     9  F   -0.040476   0.017200   0.008729  -0.069152  -0.000369   0.010318
    10  C   -0.532159   0.028067  -0.009266   0.662199  -0.031143   0.062841
    11  O    0.009011   0.000132  -0.000240  -0.094290   0.000952   0.004225
    12  O    0.015612  -0.000065  -0.000074  -0.013386   0.004638   0.002983
    13  H   -0.002593   0.000003  -0.000008   0.008803   0.000139  -0.000548
    14  C   -1.351828  -0.134977  -0.133758   0.847020   0.036164  -0.023142
    15  F   -0.045204   0.022439  -0.002003  -0.001358   0.007265  -0.001612
    16  F   -0.055956   0.001774   0.011713  -0.036684   0.013966   0.005456
    17  F   -0.095691   0.009522   0.017570   0.036526  -0.000499  -0.001209
               7          8          9         10         11         12
     1  C    1.813586  -0.016371  -0.040476  -0.532159   0.009011   0.015612
     2  F   -0.019733   0.007967   0.017200   0.028067   0.000132  -0.000065
     3  F   -0.025401  -0.001247   0.008729  -0.009266  -0.000240  -0.000074
     4  C   -3.996488  -0.094724  -0.069152   0.662199  -0.094290  -0.013386
     5  F   -0.113416   0.021536  -0.000369  -0.031143   0.000952   0.004638
     6  F   -0.185910   0.000010   0.010318   0.062841   0.004225   0.002983
     7  C    9.497958   0.311058   0.284297  -1.306756   0.089597  -0.111288
     8  F    0.311058   9.095931  -0.003061  -0.068792  -0.005604   0.012159
     9  F    0.284297  -0.003061   9.137924  -0.109939  -0.000356   0.004995
    10  C   -1.306756  -0.068792  -0.109939   5.970816   0.405965   0.359767
    11  O    0.089597  -0.005604  -0.000356   0.405965   8.038998  -0.094812
    12  O   -0.111288   0.012159   0.004995   0.359767  -0.094812   7.920650
    13  H   -0.041892  -0.001240  -0.000095   0.030779   0.015627   0.236146
    14  C   -0.628238  -0.009216   0.028848  -0.012000  -0.000872   0.001311
    15  F   -0.011940  -0.000731   0.000095   0.002961  -0.000012   0.000054
    16  F    0.052405  -0.000001   0.000008   0.002879  -0.000006  -0.000019
    17  F    0.005834   0.000023   0.000034   0.000139   0.000001  -0.000009
              13         14         15         16         17
     1  C   -0.002593  -1.351828  -0.045204  -0.055956  -0.095691
     2  F    0.000003  -0.134977   0.022439   0.001774   0.009522
     3  F   -0.000008  -0.133758  -0.002003   0.011713   0.017570
     4  C    0.008803   0.847020  -0.001358  -0.036684   0.036526
     5  F    0.000139   0.036164   0.007265   0.013966  -0.000499
     6  F   -0.000548  -0.023142  -0.001612   0.005456  -0.001209
     7  C   -0.041892  -0.628238  -0.011940   0.052405   0.005834
     8  F   -0.001240  -0.009216  -0.000731  -0.000001   0.000023
     9  F   -0.000095   0.028848   0.000095   0.000008   0.000034
    10  C    0.030779  -0.012000   0.002961   0.002879   0.000139
    11  O    0.015627  -0.000872  -0.000012  -0.000006   0.000001
    12  O    0.236146   0.001311   0.000054  -0.000019  -0.000009
    13  H    0.465881  -0.000287  -0.000004  -0.000004  -0.000000
    14  C   -0.000287   5.617539   0.266102   0.194081   0.209483
    15  F   -0.000004   0.266102   9.033024   0.007690  -0.007535
    16  F   -0.000004   0.194081   0.007690   9.089208   0.003004
    17  F   -0.000000   0.209483  -0.007535   0.003004   9.107936
 Mulliken charges:
               1
     1  C    0.437650
     2  F   -0.269529
     3  F   -0.245845
     4  C    0.338772
     5  F   -0.254075
     6  F   -0.252447
     7  C    0.386329
     8  F   -0.247699
     9  F   -0.269000
    10  C    0.543641
    11  O   -0.368318
    12  O   -0.338662
    13  H    0.289292
    14  C    1.093767
    15  F   -0.269232
    16  F   -0.289517
    17  F   -0.285127
 Sum of Mulliken charges =  -0.00000
 Mulliken charges with hydrogens summed into heavy atoms:
               1
     1  C    0.437650
     2  F   -0.269529
     3  F   -0.245845
     4  C    0.338772
     5  F   -0.254075
     6  F   -0.252447
     7  C    0.386329
     8  F   -0.247699
     9  F   -0.269000
    10  C    0.543641
    11  O   -0.368318
    12  O   -0.049371
    14  C    1.093767
    15  F   -0.269232
    16  F   -0.289517
    17  F   -0.285127
 Electronic spatial extent (au):  <R**2>=           3006.1875
 Charge=             -0.0000 electrons
 Dipole moment (field-independent basis, Debye):
    X=              1.1143    Y=             -1.8645    Z=              0.4878  Tot=              2.2262
 Quadrupole moment (field-independent basis, Debye-Ang):
   XX=            -79.9657   YY=            -83.9020   ZZ=            -88.7159
   XY=             -8.6817   XZ=              3.1571   YZ=              1.7087
 Traceless Quadrupole moment (field-independent basis, Debye-Ang):
   XX=              4.2288   YY=              0.2925   ZZ=             -4.5214
   XY=             -8.6817   XZ=              3.1571   YZ=              1.7087
 Octapole moment (field-independent basis, Debye-Ang**2):
  XXX=              6.3663  YYY=             -6.0848  ZZZ=              2.4379  XYY=              6.1608
  XXY=            -35.7563  XXZ=             16.0173  XZZ=            -15.0270  YZZ=              0.5170
  YYZ=             -0.0481  XYZ=              4.7190
 Hexadecapole moment (field-independent basis, Debye-Ang**3):
 XXXX=          -2154.3673 YYYY=           -494.2032 ZZZZ=           -400.2729 XXXY=           -139.6346
 XXXZ=             70.5829 YYYX=            -26.2286 YYYZ=              3.6450 ZZZX=             11.3750
 ZZZY=              0.7965 XXYY=           -399.2250 XXZZ=           -474.5282 YYZZ=           -153.1232
 XXYZ=             16.8765 YYXZ=             -1.5442 ZZXY=              1.3808
 N-N= 1.423465160532D+03 E-N=-5.789735795170D+03  KE= 1.236882159552D+03
 Calling FoFJK, ICntrl=      2127 FMM=F ISym2X=0 I1Cent= 0 IOpClX= 0 NMat=1 NMatS=1 NMatT=0.
 ***** Axes restored to original set *****
 -------------------------------------------------------------------
 Center     Atomic                   Forces (Hartrees/Bohr)
 Number     Number              X              Y              Z
 -------------------------------------------------------------------
      1        6          -0.001871130    0.003676252   -0.001886123
      2        9          -0.001976859    0.000892742    0.000032329
      3        9          -0.001963170   -0.001790766    0.001084936
      4        6          -0.000271014   -0.000036577    0.000170153
      5        9           0.000287899   -0.000164940   -0.000007479
      6        9           0.000205168   -0.000066917    0.000110397
      7        6          -0.000171899    0.000270867   -0.000191973
      8        9           0.000068165    0.000012640    0.000047692
      9        9           0.000053187   -0.000048288    0.000025967
     10        6          -0.000110190    0.000583637   -0.000148229
     11        8          -0.000250171   -0.000138411    0.000281879
     12        8           0.002827144   -0.001066165   -0.001600289
     13        1          -0.002368127    0.000421753    0.001512907
     14        6          -0.001180164   -0.009553878    0.000427256
     15        9          -0.003150944    0.005875958   -0.009564823
     16        9          -0.003742647    0.004019022    0.007132769
     17        9           0.013614752   -0.002886930    0.002572631
 -------------------------------------------------------------------
 Cartesian Forces:  Max     0.013614752 RMS     0.003326623

 GradGradGradGradGradGradGradGradGradGradGradGradGradGradGradGradGradGrad
 Berny optimization.
 FormGI is forming the generalized inverse of G from B-inverse, IUseBI=4.
 Internal  Forces:  Max     0.013195882 RMS     0.002967150
 Search for a local minimum.
 Step number   1 out of a maximum of   89
 All quantities printed in internal units (Hartrees-Bohrs-Radians)
 Mixed Optimization -- RFO/linear search
 Second derivative matrix not updated -- first step.
 ITU=  0
     Eigenvalues ---    0.00230   0.00230   0.00230   0.00230   0.00873
     Eigenvalues ---    0.02647   0.05227   0.05371   0.06305   0.06958
     Eigenvalues ---    0.06986   0.07788   0.08293   0.08984   0.12770
     Eigenvalues ---    0.13004   0.14022   0.16000   0.18923   0.19095
     Eigenvalues ---    0.19712   0.25000   0.25000   0.25000   0.25000
     Eigenvalues ---    0.25000   0.25000   0.25000   0.25000   0.26523
     Eigenvalues ---    0.26718   0.26956   0.27574   0.53887   0.56373
     Eigenvalues ---    0.56445   0.57341   0.57440   0.57460   0.57502
     Eigenvalues ---    0.57506   0.58237   0.58340   0.60035   1.10251
 RFO step:  Lambda=-2.47382368D-03 EMin= 2.30000000D-03
 Linear search not attempted -- first point.
 Iteration  1 RMS(Cart)=  0.04206873 RMS(Int)=  0.00172644
 Iteration  2 RMS(Cart)=  0.00168258 RMS(Int)=  0.00021225
 Iteration  3 RMS(Cart)=  0.00000168 RMS(Int)=  0.00021225
 Iteration  4 RMS(Cart)=  0.00000000 RMS(Int)=  0.00021225
 Variable       Old X    -DE/DX   Delta X   Delta X   Delta X     New X
                                 (Linear)    (Quad)   (Total)
    R1        2.53009   0.00020   0.00000   0.00035   0.00035   2.53044
    R2        2.52970  -0.00190   0.00000  -0.00328  -0.00328   2.52642
    R3        2.95030   0.00030   0.00000   0.00110   0.00110   2.95140
    R4        2.95486  -0.00309   0.00000  -0.01156  -0.01156   2.94331
    R5        2.53026   0.00014   0.00000   0.00024   0.00024   2.53050
    R6        2.53932  -0.00009   0.00000  -0.00016  -0.00016   2.53916
    R7        2.94479   0.00003   0.00000   0.00011   0.00011   2.94490
    R8        2.53870   0.00005   0.00000   0.00009   0.00009   2.53879
    R9        2.52363  -0.00006   0.00000  -0.00010  -0.00010   2.52354
   R10        2.93079   0.00012   0.00000   0.00044   0.00044   2.93123
   R11        2.24794  -0.00039   0.00000  -0.00035  -0.00035   2.24759
   R12        2.50913   0.00069   0.00000   0.00114   0.00114   2.51026
   R13        1.82834  -0.00282   0.00000  -0.00520  -0.00520   1.82314
   R14        2.52974  -0.01098   0.00000  -0.01901  -0.01901   2.51072
   R15        2.53109  -0.00846   0.00000  -0.01469  -0.01469   2.51640
   R16        2.52278  -0.01320   0.00000  -0.02252  -0.02252   2.50026
    A1        1.90613   0.00011   0.00000  -0.00494  -0.00515   1.90098
    A2        1.89883   0.00063   0.00000   0.01015   0.01016   1.90899
    A3        1.89172  -0.00160   0.00000  -0.00872  -0.00887   1.88285
    A4        1.89488   0.00106   0.00000   0.00878   0.00885   1.90374
    A5        1.90041  -0.00262   0.00000  -0.01768  -0.01777   1.88264
    A6        1.97113   0.00238   0.00000   0.01193   0.01195   1.98308
    A7        1.90487   0.00029   0.00000   0.00215   0.00215   1.90702
    A8        1.89661   0.00019   0.00000   0.00113   0.00112   1.89774
    A9        1.98560  -0.00014   0.00000  -0.00048  -0.00048   1.98512
   A10        1.89985  -0.00008   0.00000  -0.00053  -0.00053   1.89931
   A11        1.89702  -0.00014   0.00000  -0.00092  -0.00092   1.89609
   A12        1.87828  -0.00013   0.00000  -0.00141  -0.00141   1.87687
   A13        1.90785   0.00005   0.00000   0.00029   0.00029   1.90813
   A14        1.90370   0.00005   0.00000   0.00041   0.00041   1.90411
   A15        1.94979  -0.00000   0.00000   0.00003   0.00003   1.94982
   A16        1.90194  -0.00002   0.00000  -0.00016  -0.00016   1.90177
   A17        1.90909  -0.00005   0.00000  -0.00037  -0.00037   1.90872
   A18        1.89088  -0.00003   0.00000  -0.00020  -0.00020   1.89069
   A19        2.14734  -0.00027   0.00000  -0.00105  -0.00105   2.14629
   A20        1.92889   0.00031   0.00000   0.00121   0.00121   1.93010
   A21        2.20694  -0.00004   0.00000  -0.00016  -0.00016   2.20678
   A22        1.88106   0.00068   0.00000   0.00417   0.00417   1.88523
   A23        1.89422   0.00778   0.00000   0.03356   0.03304   1.92726
   A24        1.90246   0.00647   0.00000   0.03099   0.03050   1.93297
   A25        1.97015  -0.01177   0.00000  -0.05509  -0.05476   1.91539
   A26        1.90466  -0.00363   0.00000   0.00360   0.00235   1.90701
   A27        1.90157  -0.00020   0.00000  -0.01151  -0.01121   1.89035
   A28        1.89001   0.00138   0.00000  -0.00038  -0.00004   1.88997
    D1        1.38407  -0.00049   0.00000  -0.00569  -0.00566   1.37841
    D2       -2.82958  -0.00031   0.00000  -0.00444  -0.00442  -2.83400
    D3       -0.73767  -0.00043   0.00000  -0.00575  -0.00572  -0.74339
    D4       -2.82648   0.00061   0.00000  -0.00081  -0.00082  -2.82730
    D5       -0.75695   0.00079   0.00000   0.00044   0.00043  -0.75652
    D6        1.33497   0.00067   0.00000  -0.00087  -0.00088   1.33409
    D7       -0.71709  -0.00044   0.00000  -0.00936  -0.00937  -0.72645
    D8        1.35244  -0.00025   0.00000  -0.00811  -0.00812   1.34432
    D9       -2.83883  -0.00037   0.00000  -0.00941  -0.00943  -2.84825
   D10       -0.75910   0.00057   0.00000  -0.06480  -0.06431  -0.82341
   D11       -2.83165  -0.00326   0.00000  -0.10618  -0.10653  -2.93819
   D12        1.35066  -0.00186   0.00000  -0.09150  -0.09141   1.25925
   D13       -2.83082   0.00283   0.00000  -0.04388  -0.04355  -2.87437
   D14        1.37981  -0.00099   0.00000  -0.08526  -0.08577   1.29404
   D15       -0.72106   0.00040   0.00000  -0.07058  -0.07065  -0.79171
   D16        1.34612   0.00177   0.00000  -0.05043  -0.05001   1.29611
   D17       -0.72644  -0.00205   0.00000  -0.09182  -0.09223  -0.81867
   D18       -2.82731  -0.00066   0.00000  -0.07713  -0.07711  -2.90442
   D19        1.34585   0.00006   0.00000   0.00131   0.00131   1.34716
   D20       -0.73209   0.00003   0.00000   0.00110   0.00110  -0.73099
   D21       -2.82194   0.00003   0.00000   0.00106   0.00106  -2.82088
   D22       -0.78025  -0.00011   0.00000  -0.00045  -0.00045  -0.78070
   D23       -2.85819  -0.00014   0.00000  -0.00066  -0.00066  -2.85885
   D24        1.33515  -0.00014   0.00000  -0.00070  -0.00070   1.33444
   D25       -2.83508   0.00012   0.00000   0.00145   0.00145  -2.83363
   D26        1.37016   0.00009   0.00000   0.00123   0.00123   1.37140
   D27       -0.71968   0.00009   0.00000   0.00119   0.00119  -0.71849
   D28        1.96893   0.00002   0.00000   0.00250   0.00250   1.97143
   D29       -1.17831   0.00001   0.00000   0.00200   0.00200  -1.17631
   D30       -2.19958   0.00005   0.00000   0.00262   0.00262  -2.19696
   D31        0.93636   0.00004   0.00000   0.00213   0.00213   0.93849
   D32       -0.12844  -0.00003   0.00000   0.00210   0.00210  -0.12635
   D33        3.00750  -0.00003   0.00000   0.00160   0.00160   3.00910
   D34        3.13756  -0.00003   0.00000  -0.00096  -0.00096   3.13660
   D35       -0.00992  -0.00004   0.00000  -0.00148  -0.00148  -0.01141
         Item               Value     Threshold  Converged?
 Maximum Force            0.013196     0.000450     NO 
 RMS     Force            0.002967     0.000300     NO 
 Maximum Displacement     0.173018     0.001800     NO 
 RMS     Displacement     0.041862     0.001200     NO 
 Predicted change in Energy=-1.326016D-03
 GradGradGradGradGradGradGradGradGradGradGradGradGradGradGradGradGradGrad

                          Input orientation:                          
 ---------------------------------------------------------------------
 Center     Atomic      Atomic             Coordinates (Angstroms)
 Number     Number       Type             X           Y           Z
 ---------------------------------------------------------------------
      1          6           0        0.880837    0.425053    0.173461
      2          9           0        0.932240    0.859452    1.439049
      3          9           0        0.743837    1.476706   -0.640556
      4          6           0        2.209411   -0.319186   -0.173317
      5          9           0        2.169740   -1.555794    0.338903
      6          9           0        2.318808   -0.406782   -1.509653
      7          6           0        3.487226    0.398544    0.356382
      8          9           0        3.611302    0.170304    1.674494
      9          9           0        3.366147    1.712804    0.153043
     10          6           0        4.765186   -0.092192   -0.373024
     11          8           0        5.406428    0.603245   -1.093981
     12          8           0        5.019750   -1.359657   -0.067565
     13          1           0        5.815772   -1.626984   -0.542594
     14          6           0       -0.389591   -0.463548    0.024120
     15          9           0       -0.468748   -1.331563    1.026872
     16          9           0       -0.368407   -1.126766   -1.130396
     17          9           0       -1.472060    0.296923    0.046248
 ---------------------------------------------------------------------
                    Distance matrix (angstroms):
                    1          2          3          4          5
     1  C    0.000000
     2  F    1.339051   0.000000
     3  F    1.336925   2.177442   0.000000
     4  C    1.561812   2.370670   2.364624   0.000000
     5  F    2.369049   2.928334   3.491216   1.339082   0.000000
     6  F    2.364864   3.495820   2.604494   1.343664   2.181653
     7  C    2.612934   2.812926   3.111672   1.558374   2.357013
     8  F    3.126250   2.776280   3.910051   2.370508   2.615592
     9  F    2.799194   2.882000   2.749918   2.360833   3.485637
    10  C    3.956558   4.345193   4.324842   2.573595   3.063545
    11  O    4.703099   5.147838   4.765321   3.452451   4.146173
    12  O    4.513744   4.888974   5.163013   2.998627   2.885523
    13  H    5.392326   5.827363   5.947017   3.853899   3.751754
    14  C    1.557530   2.345120   2.343296   2.610485   2.800404
    15  F    2.373897   2.633098   3.483827   3.104496   2.735909
    16  F    2.380923   3.498398   2.873168   2.865891   2.963966
    17  F    2.359814   2.834958   2.602649   3.739121   4.096451
                    6          7          8          9         10
     6  F    0.000000
     7  C    2.344320   0.000000
     8  F    3.484589   1.343468   0.000000
     9  F    2.890349   1.335397   2.180418   0.000000
    10  C    2.715816   1.551140   2.364885   2.343516   0.000000
    11  O    3.275108   2.414289   3.327818   2.636083   1.189371
    12  O    3.206661   2.370577   2.712799   3.496153   1.328373
    13  H    3.827905   3.214506   3.606302   4.199852   1.867638
    14  C    3.113055   3.985387   4.374088   4.342660   5.183372
    15  F    3.880676   4.369502   4.395660   4.973747   5.557860
    16  F    2.807728   4.404881   5.038639   4.863873   5.291288
    17  F    4.157728   4.970012   5.339268   5.042258   6.263420
                   11         12         13         14         15
    11  O    0.000000
    12  O    2.248563   0.000000
    13  H    2.333562   0.964763   0.000000
    14  C    5.998503   5.483830   6.338871   0.000000
    15  F    6.539051   5.596623   6.484264   1.328618   0.000000
    16  F    6.028514   5.496916   6.232158   1.331621   2.169289
    17  F    6.979079   6.700806   7.560466   1.323081   2.149471
                   16         17
    16  F    0.000000
    17  F    2.151611   0.000000
 Stoichiometry    C5HF9O2
 Framework group  C1[X(C5HF9O2)]
 Deg. of freedom    45
 Full point group                 C1      NOp   1
 Largest Abelian subgroup         C1      NOp   1
 Largest concise Abelian subgroup C1      NOp   1
                         Standard orientation:                         
 ---------------------------------------------------------------------
 Center     Atomic      Atomic             Coordinates (Angstroms)
 Number     Number       Type             X           Y           Z
 ---------------------------------------------------------------------
      1          6           0       -1.072133    0.542772   -0.032800
      2          9           0       -1.060271    1.269165    1.092043
      3          9           0       -1.117270    1.369704   -1.082330
      4          6           0        0.232966   -0.311473   -0.111785
      5          9           0        0.107210   -1.384484    0.679400
      6          9           0        0.402172   -0.724724   -1.379076
      7          6           0        1.517861    0.466112    0.304071
      8          9           0        1.566742    0.560224    1.643348
      9          9           0        1.472222    1.695248   -0.215955
     10          6           0        2.803518   -0.233398   -0.209550
     11          8           0        3.512557    0.242326   -1.037532
     12          8           0        2.979725   -1.397270    0.406022
     13          1           0        3.783447   -1.800834    0.056829
     14          6           0       -2.376492   -0.308411   -0.038622
     15          9           0       -2.546961   -0.903607    1.136924
     16          9           0       -2.332673   -1.232321   -0.996580
     17          9           0       -3.419617    0.473771   -0.263620
 ---------------------------------------------------------------------
 Rotational constants (GHZ):           1.0647833           0.3740666           0.3587198
 Standard basis: 6-311+G(2d,2p) (5D, 7F)
 There are   473 symmetry adapted cartesian basis functions of A   symmetry.
 There are   441 symmetry adapted basis functions of A   symmetry.
   441 basis functions,   683 primitive gaussians,   473 cartesian basis functions
    64 alpha electrons       64 beta electrons
       nuclear repulsion energy      1423.2960119412 Hartrees.
 NAtoms=   17 NActive=   17 NUniq=   17 SFac= 1.00D+00 NAtFMM=   60 NAOKFM=F Big=F
 Integral buffers will be    131072 words long.
 Raffenetti 2 integral format.
 Two-electron integral symmetry is turned on.
 Nuclear repulsion after empirical dispersion term =     1423.2855674588 Hartrees.
 One-electron integrals computed using PRISM.
 NBasis=   441 RedAO= T EigKep=  7.53D-06  NBF=   441
 NBsUse=   441 1.00D-06 EigRej= -1.00D+00 NBFU=   441
 Initial guess from the checkpoint file:  "1_pentane.chk"
 B after Tr=     0.000000   -0.000000    0.000000
         Rot=    0.999987   -0.005045   -0.001044    0.000291 Ang=  -0.59 deg.
 ExpMin= 4.38D-02 ExpMax= 1.14D+04 ExpMxC= 1.72D+03 IAcc=2 IRadAn=         4 AccDes= 0.00D+00
 Harris functional with IExCor= 4639 and IRadAn=       4 diagonalized for initial guess.
 HarFok:  IExCor= 4639 AccDes= 0.00D+00 IRadAn=         4 IDoV= 1 UseB2=F ITyADJ=14
 ICtDFT=  3500011 ScaDFX=  1.000000  1.000000  1.000000  1.000000
 FoFCou: FMM=F IPFlag=           0 FMFlag=      100000 FMFlg1=           0
         NFxFlg=           0 DoJE=T BraDBF=F KetDBF=T FulRan=T
         wScrn=  0.000000 ICntrl=       500 IOpCl=  0 I1Cent=   200000004 NGrid=           0
         NMat0=    1 NMatS0=      1 NMatT0=    0 NMatD0=    1 NMtDS0=    0 NMtDT0=    0
 Petite list used in FoFCou.
 Requested convergence on RMS density matrix=1.00D-08 within 128 cycles.
 Requested convergence on MAX density matrix=1.00D-06.
 Requested convergence on             energy=1.00D-06.
 No special actions if energy rises.
 SCF Done:  E(RwB97XD) =  -1240.21859921     A.U. after   11 cycles
            NFock= 11  Conv=0.97D-08     -V/T= 2.0026
 Calling FoFJK, ICntrl=      2127 FMM=F ISym2X=0 I1Cent= 0 IOpClX= 0 NMat=1 NMatS=1 NMatT=0.
 ***** Axes restored to original set *****
 -------------------------------------------------------------------
 Center     Atomic                   Forces (Hartrees/Bohr)
 Number     Number              X              Y              Z
 -------------------------------------------------------------------
      1        6           0.000554667   -0.000039371   -0.001818544
      2        9          -0.000340866   -0.000494119    0.000680039
      3        9           0.000252806   -0.000770257   -0.000631539
      4        6           0.000752344    0.001972450    0.001238759
      5        9          -0.000823690   -0.000006382   -0.000239452
      6        9          -0.000937617   -0.000271131   -0.000083534
      7        6           0.000204129   -0.000165160   -0.000245063
      8        9          -0.000145310    0.000024527    0.000128099
      9        9          -0.000118548   -0.000117693   -0.000015398
     10        6           0.000174959    0.000249709   -0.000064561
     11        8          -0.000088995   -0.000073952    0.000078491
     12        8           0.000162413   -0.000106271   -0.000095707
     13        1          -0.000198279    0.000047409    0.000116005
     14        6          -0.001650625   -0.004628232    0.000509871
     15        9           0.001111233    0.000513208   -0.002467195
     16        9           0.001552874    0.000789640    0.002288580
     17        9          -0.000461494    0.003075624    0.000621148
 -------------------------------------------------------------------
 Cartesian Forces:  Max     0.004628232 RMS     0.001119495

 GradGradGradGradGradGradGradGradGradGradGradGradGradGradGradGradGradGrad
 Berny optimization.
 Using GEDIIS/GDIIS optimizer.
 FormGI is forming the generalized inverse of G from B-inverse, IUseBI=4.
 Internal  Forces:  Max     0.003352830 RMS     0.000812827
 Search for a local minimum.
 Step number   2 out of a maximum of   89
 All quantities printed in internal units (Hartrees-Bohrs-Radians)
 Mixed Optimization -- En-DIIS/RFO-DIIS
 Update second derivatives using D2CorX and points    1    2
 DE= -1.36D-03 DEPred=-1.33D-03 R= 1.03D+00
 TightC=F SS=  1.41D+00  RLast= 2.50D-01 DXNew= 5.0454D-01 7.5058D-01
 Trust test= 1.03D+00 RLast= 2.50D-01 DXMaxT set to 5.05D-01
 ITU=  1  0
 Use linear search instead of GDIIS.
     Eigenvalues ---    0.00227   0.00230   0.00230   0.00231   0.00873
     Eigenvalues ---    0.02647   0.05229   0.05261   0.06304   0.06944
     Eigenvalues ---    0.06991   0.07784   0.08693   0.09351   0.12535
     Eigenvalues ---    0.13409   0.14034   0.15996   0.19089   0.19094
     Eigenvalues ---    0.19713   0.20428   0.25000   0.25000   0.25000
     Eigenvalues ---    0.25000   0.25000   0.25000   0.26275   0.26493
     Eigenvalues ---    0.26955   0.27573   0.28010   0.53690   0.54707
     Eigenvalues ---    0.56373   0.56446   0.57419   0.57440   0.57468
     Eigenvalues ---    0.57507   0.58237   0.60033   0.61882   1.10247
 RFO step:  Lambda=-3.52200166D-04 EMin= 2.26812147D-03
 Quartic linear search produced a step of  0.10053.
 Iteration  1 RMS(Cart)=  0.03821998 RMS(Int)=  0.00126073
 Iteration  2 RMS(Cart)=  0.00131510 RMS(Int)=  0.00002324
 Iteration  3 RMS(Cart)=  0.00000124 RMS(Int)=  0.00002323
 Iteration  4 RMS(Cart)=  0.00000000 RMS(Int)=  0.00002323
 Variable       Old X    -DE/DX   Delta X   Delta X   Delta X     New X
                                 (Linear)    (Quad)   (Total)
    R1        2.53044   0.00047   0.00004   0.00089   0.00093   2.53137
    R2        2.52642  -0.00025  -0.00033  -0.00048  -0.00081   2.52561
    R3        2.95140  -0.00179   0.00011  -0.00729  -0.00718   2.94422
    R4        2.94331  -0.00040  -0.00116  -0.00169  -0.00285   2.94046
    R5        2.53050  -0.00006   0.00002  -0.00012  -0.00009   2.53041
    R6        2.53916   0.00002  -0.00002   0.00005   0.00003   2.53919
    R7        2.94490  -0.00010   0.00001  -0.00042  -0.00041   2.94449
    R8        2.53879   0.00011   0.00001   0.00021   0.00022   2.53901
    R9        2.52354  -0.00010  -0.00001  -0.00019  -0.00020   2.52333
   R10        2.93123  -0.00001   0.00004  -0.00005  -0.00001   2.93122
   R11        2.24759  -0.00014  -0.00004  -0.00014  -0.00018   2.24741
   R12        2.51026   0.00006   0.00011   0.00011   0.00022   2.51048
   R13        1.82314  -0.00023  -0.00052  -0.00050  -0.00102   1.82211
   R14        2.51072  -0.00227  -0.00191  -0.00439  -0.00630   2.50443
   R15        2.51640  -0.00235  -0.00148  -0.00454  -0.00602   2.51038
   R16        2.50026   0.00216  -0.00226   0.00392   0.00166   2.50192
    A1        1.90098   0.00063  -0.00052   0.00700   0.00646   1.90744
    A2        1.90899  -0.00004   0.00102  -0.00026   0.00076   1.90975
    A3        1.88285  -0.00060  -0.00089  -0.00397  -0.00488   1.87797
    A4        1.90374  -0.00045   0.00089  -0.00223  -0.00133   1.90241
    A5        1.88264  -0.00014  -0.00179  -0.00099  -0.00278   1.87986
    A6        1.98308   0.00063   0.00120   0.00083   0.00203   1.98511
    A7        1.90702  -0.00081   0.00022  -0.00618  -0.00598   1.90104
    A8        1.89774  -0.00080   0.00011  -0.00558  -0.00549   1.89225
    A9        1.98512   0.00064  -0.00005   0.00408   0.00403   1.98916
   A10        1.89931  -0.00004  -0.00005  -0.00273  -0.00283   1.89648
   A11        1.89609   0.00046  -0.00009   0.00459   0.00450   1.90060
   A12        1.87687   0.00054  -0.00014   0.00571   0.00558   1.88245
   A13        1.90813  -0.00019   0.00003  -0.00099  -0.00096   1.90717
   A14        1.90411  -0.00021   0.00004  -0.00145  -0.00141   1.90269
   A15        1.94982   0.00033   0.00000   0.00176   0.00177   1.95158
   A16        1.90177   0.00006  -0.00002  -0.00040  -0.00042   1.90135
   A17        1.90872   0.00002  -0.00004   0.00080   0.00076   1.90948
   A18        1.89069  -0.00001  -0.00002   0.00024   0.00022   1.89091
   A19        2.14629   0.00003  -0.00011   0.00012   0.00002   2.14631
   A20        1.93010  -0.00009   0.00012  -0.00037  -0.00025   1.92985
   A21        2.20678   0.00006  -0.00002   0.00026   0.00024   2.20702
   A22        1.88523   0.00003   0.00042   0.00024   0.00066   1.88589
   A23        1.92726   0.00049   0.00332   0.00148   0.00477   1.93203
   A24        1.93297  -0.00163   0.00307  -0.00877  -0.00578   1.92719
   A25        1.91539  -0.00335  -0.00550  -0.01239  -0.01788   1.89751
   A26        1.90701  -0.00007   0.00024  -0.00479  -0.00467   1.90233
   A27        1.89035   0.00196  -0.00113   0.01193   0.01085   1.90121
   A28        1.88997   0.00273  -0.00000   0.01324   0.01321   1.90319
    D1        1.37841   0.00015  -0.00057  -0.01259  -0.01317   1.36524
    D2       -2.83400  -0.00082  -0.00044  -0.02270  -0.02313  -2.85713
    D3       -0.74339  -0.00028  -0.00058  -0.01675  -0.01732  -0.76072
    D4       -2.82730   0.00062  -0.00008  -0.00557  -0.00567  -2.83297
    D5       -0.75652  -0.00036   0.00004  -0.01569  -0.01563  -0.77215
    D6        1.33409   0.00019  -0.00009  -0.00973  -0.00982   1.32426
    D7       -0.72645   0.00053  -0.00094  -0.00787  -0.00882  -0.73528
    D8        1.34432  -0.00045  -0.00082  -0.01798  -0.01878   1.32554
    D9       -2.84825   0.00010  -0.00095  -0.01203  -0.01298  -2.86123
   D10       -0.82341  -0.00054  -0.00646  -0.07389  -0.08030  -0.90371
   D11       -2.93819   0.00030  -0.01071  -0.06303  -0.07376  -3.01194
   D12        1.25925   0.00008  -0.00919  -0.06604  -0.07524   1.18401
   D13       -2.87437  -0.00088  -0.00438  -0.07950  -0.08384  -2.95821
   D14        1.29404  -0.00005  -0.00862  -0.06864  -0.07730   1.21674
   D15       -0.79171  -0.00026  -0.00710  -0.07165  -0.07878  -0.87049
   D16        1.29611  -0.00061  -0.00503  -0.07652  -0.08149   1.21461
   D17       -0.81867   0.00023  -0.00927  -0.06565  -0.07495  -0.89362
   D18       -2.90442   0.00001  -0.00775  -0.06866  -0.07643  -2.98085
   D19        1.34716  -0.00013   0.00013  -0.00982  -0.00969   1.33747
   D20       -0.73099   0.00004   0.00011  -0.00788  -0.00778  -0.73877
   D21       -2.82088  -0.00002   0.00011  -0.00834  -0.00824  -2.82912
   D22       -0.78070   0.00014  -0.00005  -0.00798  -0.00803  -0.78872
   D23       -2.85885   0.00031  -0.00007  -0.00604  -0.00611  -2.86496
   D24        1.33444   0.00026  -0.00007  -0.00650  -0.00657   1.32787
   D25       -2.83363  -0.00036   0.00015  -0.01032  -0.01017  -2.84380
   D26        1.37140  -0.00018   0.00012  -0.00838  -0.00825   1.36314
   D27       -0.71849  -0.00024   0.00012  -0.00884  -0.00871  -0.72720
   D28        1.97143  -0.00002   0.00025   0.00040   0.00065   1.97208
   D29       -1.17631  -0.00001   0.00020   0.00249   0.00269  -1.17363
   D30       -2.19696  -0.00003   0.00026   0.00085   0.00111  -2.19584
   D31        0.93849  -0.00001   0.00021   0.00293   0.00314   0.94163
   D32       -0.12635   0.00004   0.00021   0.00096   0.00117  -0.12518
   D33        3.00910   0.00006   0.00016   0.00304   0.00320   3.01230
   D34        3.13660  -0.00001  -0.00010  -0.00129  -0.00139   3.13521
   D35       -0.01141   0.00000  -0.00015   0.00088   0.00073  -0.01068
         Item               Value     Threshold  Converged?
 Maximum Force            0.003353     0.000450     NO 
 RMS     Force            0.000813     0.000300     NO 
 Maximum Displacement     0.165231     0.001800     NO 
 RMS     Displacement     0.038234     0.001200     NO 
 Predicted change in Energy=-2.004433D-04
 GradGradGradGradGradGradGradGradGradGradGradGradGradGradGradGradGradGrad

                          Input orientation:                          
 ---------------------------------------------------------------------
 Center     Atomic      Atomic             Coordinates (Angstroms)
 Number     Number       Type             X           Y           Z
 ---------------------------------------------------------------------
      1          6           0        0.880504    0.421732    0.171574
      2          9           0        0.922402    0.854036    1.438747
      3          9           0        0.744159    1.468754   -0.647798
      4          6           0        2.209025   -0.318143   -0.167572
      5          9           0        2.167293   -1.548690    0.358759
      6          9           0        2.306349   -0.425005   -1.503456
      7          6           0        3.487501    0.408144    0.348042
      8          9           0        3.609504    0.205801    1.670689
      9          9           0        3.365823    1.718075    0.119410
     10          6           0        4.766335   -0.096044   -0.370567
     11          8           0        5.408567    0.585896   -1.103288
     12          8           0        5.018686   -1.358616   -0.043279
     13          1           0        5.814117   -1.635703   -0.512571
     14          6           0       -0.387796   -0.466763    0.019268
     15          9           0       -0.423070   -1.398198    0.961375
     16          9           0       -0.401019   -1.055465   -1.171529
     17          9           0       -1.460501    0.300749    0.133684
 ---------------------------------------------------------------------
                    Distance matrix (angstroms):
                    1          2          3          4          5
     1  C    0.000000
     2  F    1.339541   0.000000
     3  F    1.336494   2.182503   0.000000
     4  C    1.558012   2.368472   2.359968   0.000000
     5  F    2.360810   2.913627   3.484743   1.339034   0.000000
     6  F    2.357058   3.493968   2.599790   1.343680   2.179415
     7  C    2.612998   2.822798   3.105240   1.558157   2.360564
     8  F    3.121124   2.773900   3.896233   2.369612   2.622856
     9  F    2.803576   2.908181   2.742971   2.359391   3.487910
    10  C    3.957486   4.353400   4.324737   2.574951   3.065472
    11  O    4.706971   5.163285   4.769026   3.453972   4.147276
    12  O    4.510028   4.885874   5.160528   2.998705   2.885864
    13  H    5.389029   5.825403   5.946462   3.853788   3.750482
    14  C    1.556022   2.340096   2.339343   2.607772   2.795407
    15  F    2.373864   2.666596   3.488735   3.060876   2.663790
    16  F    2.372411   3.494449   2.820887   2.892040   3.030062
    17  F    2.344435   2.772642   2.614474   3.733524   4.078232
                    6          7          8          9         10
     6  F    0.000000
     7  C    2.348894   0.000000
     8  F    3.488743   1.343585   0.000000
     9  F    2.889458   1.335290   2.180096   0.000000
    10  C    2.728221   1.551135   2.365607   2.343616   0.000000
    11  O    3.287219   2.414218   3.328070   2.636213   1.189278
    12  O    3.218777   2.370464   2.714936   3.496348   1.328490
    13  H    3.840844   3.214204   3.608058   4.200163   1.867770
    14  C    3.094971   3.986412   4.376978   4.344330   5.182130
    15  F    3.804237   4.351047   4.397453   4.977527   5.513584
    16  F    2.799552   4.424006   5.074769   4.852643   5.316350
    17  F    4.170864   4.953808   5.298712   5.030151   6.259809
                   11         12         13         14         15
    11  O    0.000000
    12  O    2.248722   0.000000
    13  H    2.334292   0.964221   0.000000
    14  C    5.997170   5.479905   6.333482   0.000000
    15  F    6.496726   5.533860   6.413379   1.325285   0.000000
    16  F    6.037384   5.544191   6.276848   1.328436   2.160378
    17  F    6.985378   6.690641   7.555632   1.323958   2.155866
                   16         17
    16  F    0.000000
    17  F    2.159954   0.000000
 Stoichiometry    C5HF9O2
 Framework group  C1[X(C5HF9O2)]
 Deg. of freedom    45
 Full point group                 C1      NOp   1
 Largest Abelian subgroup         C1      NOp   1
 Largest concise Abelian subgroup C1      NOp   1
                         Standard orientation:                         
 ---------------------------------------------------------------------
 Center     Atomic      Atomic             Coordinates (Angstroms)
 Number     Number       Type             X           Y           Z
 ---------------------------------------------------------------------
      1          6           0       -1.072593    0.539467   -0.025261
      2          9           0       -1.069182    1.252676    1.108622
      3          9           0       -1.117811    1.371630   -1.070094
      4          6           0        0.232025   -0.308191   -0.108019
      5          9           0        0.104308   -1.380186    0.684148
      6          9           0        0.386944   -0.726300   -1.375561
      7          6           0        1.519244    0.469688    0.299197
      8          9           0        1.568381    0.576000    1.637668
      9          9           0        1.473814    1.694170   -0.231442
     10          6           0        2.803950   -0.235282   -0.209298
     11          8           0        3.513219    0.233066   -1.041147
     12          8           0        2.977438   -1.395690    0.413791
     13          1           0        3.779393   -1.803880    0.067421
     14          6           0       -2.374898   -0.311965   -0.041619
     15          9           0       -2.500947   -0.996830    1.085968
     16          9           0       -2.361090   -1.160487   -1.063657
     17          9           0       -3.412308    0.500724   -0.168827
 ---------------------------------------------------------------------
 Rotational constants (GHZ):           1.0655550           0.3748705           0.3594335
 Standard basis: 6-311+G(2d,2p) (5D, 7F)
 There are   473 symmetry adapted cartesian basis functions of A   symmetry.
 There are   441 symmetry adapted basis functions of A   symmetry.
   441 basis functions,   683 primitive gaussians,   473 cartesian basis functions
    64 alpha electrons       64 beta electrons
       nuclear repulsion energy      1424.3883146444 Hartrees.
 NAtoms=   17 NActive=   17 NUniq=   17 SFac= 1.00D+00 NAtFMM=   60 NAOKFM=F Big=F
 Integral buffers will be    131072 words long.
 Raffenetti 2 integral format.
 Two-electron integral symmetry is turned on.
 Nuclear repulsion after empirical dispersion term =     1424.3778840090 Hartrees.
 One-electron integrals computed using PRISM.
 NBasis=   441 RedAO= T EigKep=  7.28D-06  NBF=   441
 NBsUse=   441 1.00D-06 EigRej= -1.00D+00 NBFU=   441
 Initial guess from the checkpoint file:  "1_pentane.chk"
 B after Tr=     0.000000    0.000000   -0.000000
         Rot=    0.999979   -0.006409   -0.001220    0.000057 Ang=  -0.75 deg.
 ExpMin= 4.38D-02 ExpMax= 1.14D+04 ExpMxC= 1.72D+03 IAcc=2 IRadAn=         4 AccDes= 0.00D+00
 Harris functional with IExCor= 4639 and IRadAn=       4 diagonalized for initial guess.
 HarFok:  IExCor= 4639 AccDes= 0.00D+00 IRadAn=         4 IDoV= 1 UseB2=F ITyADJ=14
 ICtDFT=  3500011 ScaDFX=  1.000000  1.000000  1.000000  1.000000
 FoFCou: FMM=F IPFlag=           0 FMFlag=      100000 FMFlg1=           0
         NFxFlg=           0 DoJE=T BraDBF=F KetDBF=T FulRan=T
         wScrn=  0.000000 ICntrl=       500 IOpCl=  0 I1Cent=   200000004 NGrid=           0
         NMat0=    1 NMatS0=      1 NMatT0=    0 NMatD0=    1 NMtDS0=    0 NMtDT0=    0
 Petite list used in FoFCou.
 Requested convergence on RMS density matrix=1.00D-08 within 128 cycles.
 Requested convergence on MAX density matrix=1.00D-06.
 Requested convergence on             energy=1.00D-06.
 No special actions if energy rises.
 SCF Done:  E(RwB97XD) =  -1240.21871237     A.U. after   11 cycles
            NFock= 11  Conv=0.72D-08     -V/T= 2.0026
 Calling FoFJK, ICntrl=      2127 FMM=F ISym2X=0 I1Cent= 0 IOpClX= 0 NMat=1 NMatS=1 NMatT=0.
 ***** Axes restored to original set *****
 -------------------------------------------------------------------
 Center     Atomic                   Forces (Hartrees/Bohr)
 Number     Number              X              Y              Z
 -------------------------------------------------------------------
      1        6           0.000501024   -0.000613800   -0.000884023
      2        9           0.000000652    0.000306681    0.000487026
      3        9          -0.000089065    0.000365642    0.000020774
      4        6          -0.000301731    0.000744358    0.000660221
      5        9           0.001125397   -0.000289364    0.000037102
      6        9           0.000428533    0.000010317   -0.000369058
      7        6           0.000029041   -0.000360414   -0.000387591
      8        9          -0.000044748   -0.000122458    0.000027348
      9        9          -0.000061479   -0.000030629    0.000011681
     10        6          -0.000083226   -0.000023239   -0.000134922
     11        8           0.000009900    0.000006262    0.000070385
     12        8          -0.000276930    0.000139063    0.000209966
     13        1           0.000251289   -0.000064035   -0.000147076
     14        6           0.002510089   -0.001078376    0.000121942
     15        9          -0.001519131    0.000389565    0.000314042
     16        9          -0.000647957    0.000353277   -0.000130167
     17        9          -0.001831658    0.000267150    0.000092351
 -------------------------------------------------------------------
 Cartesian Forces:  Max     0.002510089 RMS     0.000614073

 GradGradGradGradGradGradGradGradGradGradGradGradGradGradGradGradGradGrad
 Berny optimization.
 Using GEDIIS/GDIIS optimizer.
 FormGI is forming the generalized inverse of G from B-inverse, IUseBI=4.
 Internal  Forces:  Max     0.002404959 RMS     0.000579910
 Search for a local minimum.
 Step number   3 out of a maximum of   89
 All quantities printed in internal units (Hartrees-Bohrs-Radians)
 Mixed Optimization -- En-DIIS/RFO-DIIS
 Swapping is turned off.
 Update second derivatives using D2CorX and points    1    2    3
 DE= -1.13D-04 DEPred=-2.00D-04 R= 5.65D-01
 TightC=F SS=  1.41D+00  RLast= 2.42D-01 DXNew= 8.4853D-01 7.2591D-01
 Trust test= 5.65D-01 RLast= 2.42D-01 DXMaxT set to 7.26D-01
 ITU=  1  1  0
     Eigenvalues ---    0.00225   0.00230   0.00230   0.00308   0.00875
     Eigenvalues ---    0.02647   0.05195   0.05254   0.06287   0.06858
     Eigenvalues ---    0.07150   0.07779   0.08815   0.09164   0.12289
     Eigenvalues ---    0.14024   0.14126   0.15948   0.16555   0.19114
     Eigenvalues ---    0.19431   0.19731   0.24999   0.25000   0.25000
     Eigenvalues ---    0.25000   0.25000   0.25970   0.26359   0.26901
     Eigenvalues ---    0.27253   0.27579   0.32690   0.53030   0.54059
     Eigenvalues ---    0.56428   0.56447   0.57420   0.57449   0.57494
     Eigenvalues ---    0.57597   0.58237   0.60032   0.62551   1.10244
 En-DIIS/RFO-DIIS/Sim-DIIS IScMMF=       -3 using points:     3    2
 RFO step:  Lambda=-1.14128699D-04.
 DidBck=T Rises=F RFO-DIIS coefs:    0.74997    0.25003
 Iteration  1 RMS(Cart)=  0.01606797 RMS(Int)=  0.00015798
 Iteration  2 RMS(Cart)=  0.00017280 RMS(Int)=  0.00000482
 Iteration  3 RMS(Cart)=  0.00000001 RMS(Int)=  0.00000482
 Variable       Old X    -DE/DX   Delta X   Delta X   Delta X     New X
                                 (Linear)    (Quad)   (Total)
    R1        2.53137   0.00056  -0.00023   0.00111   0.00088   2.53225
    R2        2.52561   0.00028   0.00020  -0.00001   0.00019   2.52580
    R3        2.94422   0.00092   0.00180  -0.00064   0.00115   2.94537
    R4        2.94046   0.00121   0.00071   0.00204   0.00275   2.94321
    R5        2.53041   0.00025   0.00002   0.00027   0.00029   2.53070
    R6        2.53919   0.00040  -0.00001   0.00053   0.00052   2.53971
    R7        2.94449  -0.00047   0.00010  -0.00145  -0.00135   2.94314
    R8        2.53901   0.00004  -0.00006   0.00015   0.00010   2.53910
    R9        2.52333  -0.00003   0.00005  -0.00012  -0.00007   2.52326
   R10        2.93122  -0.00010   0.00000  -0.00027  -0.00027   2.93095
   R11        2.24741  -0.00004   0.00004  -0.00010  -0.00006   2.24735
   R12        2.51048  -0.00006  -0.00006   0.00003  -0.00003   2.51046
   R13        1.82211   0.00030   0.00026  -0.00007   0.00019   1.82230
   R14        2.50443  -0.00001   0.00158  -0.00284  -0.00126   2.50316
   R15        2.51038  -0.00003   0.00151  -0.00273  -0.00122   2.50916
   R16        2.50192   0.00165  -0.00041   0.00270   0.00228   2.50420
    A1        1.90744   0.00023  -0.00161   0.00011  -0.00151   1.90593
    A2        1.90975  -0.00053  -0.00019  -0.00009  -0.00028   1.90947
    A3        1.87797  -0.00069   0.00122  -0.00311  -0.00190   1.87607
    A4        1.90241  -0.00071   0.00033  -0.00296  -0.00263   1.89978
    A5        1.87986  -0.00074   0.00070  -0.00368  -0.00298   1.87688
    A6        1.98511   0.00240  -0.00051   0.00948   0.00897   1.99408
    A7        1.90104   0.00111   0.00150   0.00341   0.00491   1.90595
    A8        1.89225   0.00014   0.00137  -0.00176  -0.00038   1.89187
    A9        1.98916  -0.00018  -0.00101   0.00121   0.00020   1.98936
   A10        1.89648  -0.00007   0.00071  -0.00146  -0.00075   1.89573
   A11        1.90060  -0.00082  -0.00113  -0.00134  -0.00247   1.89813
   A12        1.88245  -0.00019  -0.00140  -0.00024  -0.00164   1.88081
   A13        1.90717  -0.00013   0.00024  -0.00106  -0.00082   1.90635
   A14        1.90269  -0.00006   0.00035  -0.00076  -0.00040   1.90229
   A15        1.95158   0.00011  -0.00044   0.00106   0.00061   1.95220
   A16        1.90135   0.00006   0.00011   0.00009   0.00019   1.90155
   A17        1.90948   0.00001  -0.00019   0.00031   0.00012   1.90960
   A18        1.89091   0.00001  -0.00006   0.00036   0.00030   1.89121
   A19        2.14631   0.00002  -0.00000   0.00006   0.00005   2.14636
   A20        1.92985  -0.00007   0.00006  -0.00030  -0.00025   1.92960
   A21        2.20702   0.00004  -0.00006   0.00022   0.00016   2.20718
   A22        1.88589  -0.00004  -0.00016   0.00014  -0.00003   1.88586
   A23        1.93203   0.00169  -0.00119   0.00798   0.00677   1.93880
   A24        1.92719   0.00031   0.00144  -0.00069   0.00075   1.92794
   A25        1.89751   0.00082   0.00447  -0.00734  -0.00287   1.89464
   A26        1.90233  -0.00032   0.00117   0.00025   0.00140   1.90373
   A27        1.90121  -0.00162  -0.00271  -0.00164  -0.00435   1.89686
   A28        1.90319  -0.00095  -0.00330   0.00134  -0.00195   1.90124
    D1        1.36524  -0.00009   0.00329  -0.01196  -0.00866   1.35657
    D2       -2.85713   0.00054   0.00578  -0.01280  -0.00702  -2.86414
    D3       -0.76072   0.00028   0.00433  -0.01357  -0.00924  -0.76995
    D4       -2.83297  -0.00055   0.00142  -0.01365  -0.01223  -2.84520
    D5       -0.77215   0.00007   0.00391  -0.01449  -0.01058  -0.78273
    D6        1.32426  -0.00019   0.00246  -0.01526  -0.01281   1.31146
    D7       -0.73528  -0.00043   0.00221  -0.01424  -0.01203  -0.74731
    D8        1.32554   0.00020   0.00470  -0.01507  -0.01038   1.31516
    D9       -2.86123  -0.00006   0.00324  -0.01584  -0.01260  -2.87383
   D10       -0.90371   0.00029   0.02008   0.00208   0.02217  -0.88154
   D11       -3.01194  -0.00063   0.01844  -0.00303   0.01540  -2.99654
   D12        1.18401  -0.00016   0.01881   0.00029   0.01911   1.20312
   D13       -2.95821   0.00078   0.02096   0.00552   0.02649  -2.93172
   D14        1.21674  -0.00014   0.01933   0.00041   0.01972   1.23646
   D15       -0.87049   0.00033   0.01970   0.00373   0.02343  -0.84706
   D16        1.21461   0.00067   0.02038   0.00583   0.02622   1.24083
   D17       -0.89362  -0.00024   0.01874   0.00072   0.01945  -0.87417
   D18       -2.98085   0.00022   0.01911   0.00404   0.02316  -2.95769
   D19        1.33747   0.00028   0.00242   0.00629   0.00871   1.34618
   D20       -0.73877   0.00031   0.00194   0.00725   0.00920  -0.72957
   D21       -2.82912   0.00027   0.00206   0.00665   0.00871  -2.82041
   D22       -0.78872  -0.00043   0.00201   0.00206   0.00407  -0.78465
   D23       -2.86496  -0.00039   0.00153   0.00303   0.00456  -2.86041
   D24        1.32787  -0.00043   0.00164   0.00242   0.00407   1.33194
   D25       -2.84380   0.00021   0.00254   0.00466   0.00721  -2.83660
   D26        1.36314   0.00024   0.00206   0.00563   0.00769   1.37083
   D27       -0.72720   0.00020   0.00218   0.00502   0.00720  -0.72001
   D28        1.97208   0.00006  -0.00016   0.00253   0.00236   1.97444
   D29       -1.17363  -0.00001  -0.00067  -0.00211  -0.00278  -1.17641
   D30       -2.19584  -0.00003  -0.00028   0.00209   0.00181  -2.19403
   D31        0.94163  -0.00009  -0.00079  -0.00254  -0.00333   0.93830
   D32       -0.12518   0.00006  -0.00029   0.00258   0.00229  -0.12289
   D33        3.01230  -0.00001  -0.00080  -0.00205  -0.00285   3.00945
   D34        3.13521   0.00004   0.00035   0.00249   0.00283   3.13804
   D35       -0.01068  -0.00003  -0.00018  -0.00235  -0.00253  -0.01321
         Item               Value     Threshold  Converged?
 Maximum Force            0.002405     0.000450     NO 
 RMS     Force            0.000580     0.000300     NO 
 Maximum Displacement     0.080189     0.001800     NO 
 RMS     Displacement     0.016064     0.001200     NO 
 Predicted change in Energy=-5.741634D-05
 GradGradGradGradGradGradGradGradGradGradGradGradGradGradGradGradGradGrad

                          Input orientation:                          
 ---------------------------------------------------------------------
 Center     Atomic      Atomic             Coordinates (Angstroms)
 Number     Number       Type             X           Y           Z
 ---------------------------------------------------------------------
      1          6           0        0.882074    0.413312    0.176183
      2          9           0        0.920428    0.842433    1.445043
      3          9           0        0.753587    1.464252   -0.639603
      4          6           0        2.212106   -0.326109   -0.160822
      5          9           0        2.179108   -1.555504    0.369203
      6          9           0        2.308862   -0.437252   -1.496674
      7          6           0        3.489432    0.404825    0.348892
      8          9           0        3.618672    0.200085    1.670533
      9          9           0        3.359726    1.714531    0.123626
     10          6           0        4.767046   -0.091526   -0.376999
     11          8           0        5.403482    0.595658   -1.109828
     12          8           0        5.029064   -1.352316   -0.050496
     13          1           0        5.824976   -1.623969   -0.522349
     14          6           0       -0.395354   -0.463360    0.016931
     15          9           0       -0.465504   -1.380837    0.969781
     16          9           0       -0.400567   -1.065477   -1.166476
     17          9           0       -1.459260    0.321812    0.104543
 ---------------------------------------------------------------------
                    Distance matrix (angstroms):
                    1          2          3          4          5
     1  C    0.000000
     2  F    1.340008   0.000000
     3  F    1.336597   2.181799   0.000000
     4  C    1.558622   2.369119   2.358369   0.000000
     5  F    2.365543   2.914071   3.488371   1.339190   0.000000
     6  F    2.357463   3.495574   2.601763   1.343954   2.179179
     7  C    2.613085   2.827159   3.095861   1.557445   2.358019
     8  F    3.125303   2.782800   3.891473   2.368369   2.616849
     9  F    2.799052   2.908070   2.727109   2.358422   3.485297
    10  C    3.956499   4.357590   4.312455   2.574778   3.065530
    11  O    4.704276   5.165853   4.753640   3.454728   4.148689
    12  O    4.512910   4.892285   5.153621   3.000087   2.887851
    13  H    5.391730   5.831669   5.938842   3.855901   3.753919
    14  C    1.557478   2.340060   2.338117   2.617114   2.818640
    15  F    2.380070   2.662632   3.488672   3.091975   2.717568
    16  F    2.373756   3.493591   2.830052   2.895525   3.041901
    17  F    2.344215   2.780449   2.599156   3.737532   4.102692
                    6          7          8          9         10
     6  F    0.000000
     7  C    2.347115   0.000000
     8  F    3.486115   1.343636   0.000000
     9  F    2.891342   1.335252   2.180257   0.000000
    10  C    2.723209   1.550994   2.365626   2.343718   0.000000
    11  O    3.285305   2.414098   3.327527   2.636328   1.189248
    12  O    3.213763   2.370132   2.713134   3.496077   1.328476
    13  H    3.836751   3.214006   3.606062   4.200038   1.867813
    14  C    3.099108   3.994434   4.391693   4.342260   5.190744
    15  F    3.830256   4.383561   4.435185   4.992962   5.554793
    16  F    2.800840   4.426084   5.079818   4.851042   5.317526
    17  F    4.163991   4.955415   5.315311   5.016239   6.258564
                   11         12         13         14         15
    11  O    0.000000
    12  O    2.248772   0.000000
    13  H    2.334423   0.964322   0.000000
    14  C    6.001468   5.497191   6.350618   0.000000
    15  F    6.532711   5.588565   6.469599   1.324616   0.000000
    16  F    6.037348   5.550548   6.283645   1.327789   2.160385
    17  F    6.974734   6.702618   7.565656   1.325166   2.152951
                   16         17
    16  F    0.000000
    17  F    2.158910   0.000000
 Stoichiometry    C5HF9O2
 Framework group  C1[X(C5HF9O2)]
 Deg. of freedom    45
 Full point group                 C1      NOp   1
 Largest Abelian subgroup         C1      NOp   1
 Largest concise Abelian subgroup C1      NOp   1
                         Standard orientation:                         
 ---------------------------------------------------------------------
 Center     Atomic      Atomic             Coordinates (Angstroms)
 Number     Number       Type             X           Y           Z
 ---------------------------------------------------------------------
      1          6           0       -1.071169    0.532060   -0.021360
      2          9           0       -1.072034    1.246470    1.112324
      3          9           0       -1.108841    1.365084   -1.065937
      4          6           0        0.235331   -0.314296   -0.099093
      5          9           0        0.116680   -1.382050    0.700439
      6          9           0        0.389835   -0.740662   -1.364223
      7          6           0        1.521457    0.468772    0.298802
      8          9           0        1.577535    0.576725    1.636920
      9          9           0        1.467267    1.692329   -0.233051
     10          6           0        2.806106   -0.231272   -0.216170
     11          8           0        3.509706    0.239961   -1.051154
     12          8           0        2.989899   -1.388322    0.410171
     13          1           0        3.792976   -1.792585    0.061523
     14          6           0       -2.381221   -0.309925   -0.045063
     15          9           0       -2.541656   -0.973737    1.089936
     16          9           0       -2.359871   -1.173412   -1.053507
     17          9           0       -3.408119    0.512301   -0.204719
 ---------------------------------------------------------------------
 Rotational constants (GHZ):           1.0669463           0.3735335           0.3584131
 Standard basis: 6-311+G(2d,2p) (5D, 7F)
 There are   473 symmetry adapted cartesian basis functions of A   symmetry.
 There are   441 symmetry adapted basis functions of A   symmetry.
   441 basis functions,   683 primitive gaussians,   473 cartesian basis functions
    64 alpha electrons       64 beta electrons
       nuclear repulsion energy      1423.4614857583 Hartrees.
 NAtoms=   17 NActive=   17 NUniq=   17 SFac= 1.00D+00 NAtFMM=   60 NAOKFM=F Big=F
 Integral buffers will be    131072 words long.
 Raffenetti 2 integral format.
 Two-electron integral symmetry is turned on.
 Nuclear repulsion after empirical dispersion term =     1423.4510521913 Hartrees.
 One-electron integrals computed using PRISM.
 NBasis=   441 RedAO= T EigKep=  7.27D-06  NBF=   441
 NBsUse=   441 1.00D-06 EigRej= -1.00D+00 NBFU=   441
 Initial guess from the checkpoint file:  "1_pentane.chk"
 B after Tr=    -0.000000   -0.000000   -0.000000
         Rot=    0.999998    0.002086    0.000408    0.000093 Ang=   0.24 deg.
 ExpMin= 4.38D-02 ExpMax= 1.14D+04 ExpMxC= 1.72D+03 IAcc=2 IRadAn=         4 AccDes= 0.00D+00
 Harris functional with IExCor= 4639 and IRadAn=       4 diagonalized for initial guess.
 HarFok:  IExCor= 4639 AccDes= 0.00D+00 IRadAn=         4 IDoV= 1 UseB2=F ITyADJ=14
 ICtDFT=  3500011 ScaDFX=  1.000000  1.000000  1.000000  1.000000
 FoFCou: FMM=F IPFlag=           0 FMFlag=      100000 FMFlg1=           0
         NFxFlg=           0 DoJE=T BraDBF=F KetDBF=T FulRan=T
         wScrn=  0.000000 ICntrl=       500 IOpCl=  0 I1Cent=   200000004 NGrid=           0
         NMat0=    1 NMatS0=      1 NMatT0=    0 NMatD0=    1 NMtDS0=    0 NMtDT0=    0
 Petite list used in FoFCou.
 Requested convergence on RMS density matrix=1.00D-08 within 128 cycles.
 Requested convergence on MAX density matrix=1.00D-06.
 Requested convergence on             energy=1.00D-06.
 No special actions if energy rises.
 SCF Done:  E(RwB97XD) =  -1240.21874618     A.U. after   10 cycles
            NFock= 10  Conv=0.79D-08     -V/T= 2.0026
 Calling FoFJK, ICntrl=      2127 FMM=F ISym2X=0 I1Cent= 0 IOpClX= 0 NMat=1 NMatS=1 NMatT=0.
 ***** Axes restored to original set *****
 -------------------------------------------------------------------
 Center     Atomic                   Forces (Hartrees/Bohr)
 Number     Number              X              Y              Z
 -------------------------------------------------------------------
      1        6           0.000249662   -0.000400747   -0.000088922
      2        9           0.000266401    0.000071001    0.000365328
      3        9          -0.000004618    0.000183617   -0.000218958
      4        6          -0.000338071    0.000124460    0.000257656
      5        9          -0.000374242   -0.000114221    0.000243534
      6        9           0.000112948    0.000024742   -0.000428727
      7        6          -0.000321185    0.000047542   -0.000138393
      8        9           0.000060432    0.000014910    0.000023043
      9        9           0.000258833    0.000058398    0.000089056
     10        6           0.000302415    0.000098131    0.000367346
     11        8          -0.000123930   -0.000058248   -0.000120242
     12        8          -0.000280731    0.000037371   -0.000019856
     13        1           0.000163797   -0.000039898   -0.000102763
     14        6           0.001283680   -0.000292885   -0.000022060
     15        9           0.000307865   -0.000024219    0.000260827
     16        9          -0.000255941   -0.000071910   -0.000459860
     17        9          -0.001307315    0.000341957   -0.000007009
 -------------------------------------------------------------------
 Cartesian Forces:  Max     0.001307315 RMS     0.000335179

 GradGradGradGradGradGradGradGradGradGradGradGradGradGradGradGradGradGrad
 Berny optimization.
 Using GEDIIS/GDIIS optimizer.
 FormGI is forming the generalized inverse of G from B-inverse, IUseBI=4.
 Internal  Forces:  Max     0.001251321 RMS     0.000299705
 Search for a local minimum.
 Step number   4 out of a maximum of   89
 All quantities printed in internal units (Hartrees-Bohrs-Radians)
 Mixed Optimization -- En-DIIS/RFO-DIIS
 Swapping is turned off.
 Update second derivatives using D2CorX and points    1    2    3    4
 DE= -3.38D-05 DEPred=-5.74D-05 R= 5.89D-01
 TightC=F SS=  1.41D+00  RLast= 7.83D-02 DXNew= 1.2208D+00 2.3483D-01
 Trust test= 5.89D-01 RLast= 7.83D-02 DXMaxT set to 7.26D-01
 ITU=  1  1  1  0
     Eigenvalues ---    0.00228   0.00230   0.00248   0.00310   0.00900
     Eigenvalues ---    0.02647   0.05185   0.05381   0.06268   0.06905
     Eigenvalues ---    0.07197   0.07784   0.08910   0.09086   0.12932
     Eigenvalues ---    0.14014   0.14260   0.15998   0.19047   0.19373
     Eigenvalues ---    0.19507   0.21158   0.24995   0.24999   0.25000
     Eigenvalues ---    0.25000   0.25167   0.25931   0.26614   0.26921
     Eigenvalues ---    0.27547   0.27597   0.33555   0.52494   0.53937
     Eigenvalues ---    0.56446   0.56534   0.57437   0.57463   0.57493
     Eigenvalues ---    0.57745   0.58239   0.60030   0.60853   1.10240
 En-DIIS/RFO-DIIS/Sim-DIIS IScMMF=       -3 using points:     4    3    2
 RFO step:  Lambda=-3.22428858D-05.
 DidBck=T Rises=F RFO-DIIS coefs:    0.14826    0.73104    0.12070
 Iteration  1 RMS(Cart)=  0.00971376 RMS(Int)=  0.00003832
 Iteration  2 RMS(Cart)=  0.00005586 RMS(Int)=  0.00000485
 Iteration  3 RMS(Cart)=  0.00000000 RMS(Int)=  0.00000485
 Variable       Old X    -DE/DX   Delta X   Delta X   Delta X     New X
                                 (Linear)    (Quad)   (Total)
    R1        2.53225   0.00038  -0.00086   0.00140   0.00053   2.53278
    R2        2.52580   0.00028  -0.00007   0.00046   0.00039   2.52619
    R3        2.94537  -0.00059  -0.00011  -0.00070  -0.00081   2.94456
    R4        2.94321   0.00003  -0.00200   0.00284   0.00084   2.94405
    R5        2.53070   0.00021  -0.00024   0.00052   0.00028   2.53098
    R6        2.53971   0.00043  -0.00044   0.00101   0.00057   2.54027
    R7        2.94314   0.00016   0.00120  -0.00110   0.00009   2.94324
    R8        2.53910   0.00003  -0.00011   0.00015   0.00004   2.53914
    R9        2.52326   0.00002   0.00009  -0.00007   0.00001   2.52327
   R10        2.93095  -0.00002   0.00023  -0.00034  -0.00011   2.93085
   R11        2.24735  -0.00003   0.00007  -0.00009  -0.00002   2.24734
   R12        2.51046  -0.00005  -0.00000  -0.00007  -0.00008   2.51038
   R13        1.82230   0.00020  -0.00004   0.00038   0.00034   1.82265
   R14        2.50316   0.00019   0.00184  -0.00148   0.00035   2.50351
   R15        2.50916   0.00044   0.00177  -0.00118   0.00058   2.50974
   R16        2.50420   0.00125  -0.00215   0.00403   0.00188   2.50608
    A1        1.90593  -0.00008   0.00051  -0.00023   0.00029   1.90622
    A2        1.90947  -0.00006   0.00015  -0.00157  -0.00142   1.90806
    A3        1.87607   0.00042   0.00221  -0.00185   0.00037   1.87644
    A4        1.89978   0.00035   0.00240  -0.00166   0.00074   1.90052
    A5        1.87688   0.00031   0.00287  -0.00179   0.00108   1.87796
    A6        1.99408  -0.00091  -0.00789   0.00690  -0.00098   1.99310
    A7        1.90595  -0.00050  -0.00346   0.00239  -0.00106   1.90488
    A8        1.89187   0.00008   0.00099  -0.00004   0.00094   1.89281
    A9        1.98936   0.00030  -0.00066   0.00116   0.00050   1.98986
   A10        1.89573   0.00013   0.00098  -0.00048   0.00051   1.89624
   A11        1.89813   0.00012   0.00156  -0.00231  -0.00074   1.89739
   A12        1.88081  -0.00013   0.00073  -0.00083  -0.00010   1.88071
   A13        1.90635   0.00002   0.00081  -0.00099  -0.00017   1.90618
   A14        1.90229   0.00034   0.00051   0.00084   0.00136   1.90365
   A15        1.95220  -0.00012  -0.00074   0.00052  -0.00022   1.95198
   A16        1.90155  -0.00009  -0.00011  -0.00009  -0.00020   1.90134
   A17        1.90960  -0.00000  -0.00019  -0.00026  -0.00046   1.90914
   A18        1.89121  -0.00014  -0.00028  -0.00002  -0.00030   1.89091
   A19        2.14636  -0.00002  -0.00005   0.00006  -0.00000   2.14636
   A20        1.92960  -0.00001   0.00024  -0.00027  -0.00005   1.92956
   A21        2.20718   0.00002  -0.00016   0.00027   0.00009   2.20727
   A22        1.88586  -0.00003  -0.00005  -0.00013  -0.00018   1.88568
   A23        1.93880  -0.00082  -0.00635   0.00519  -0.00115   1.93765
   A24        1.92794   0.00024   0.00006   0.00069   0.00076   1.92870
   A25        1.89464   0.00097   0.00460  -0.00157   0.00302   1.89767
   A26        1.90373   0.00022  -0.00063   0.00135   0.00074   1.90447
   A27        1.89686  -0.00009   0.00239  -0.00388  -0.00150   1.89536
   A28        1.90124  -0.00052   0.00006  -0.00201  -0.00193   1.89931
    D1        1.35657   0.00002   0.00897   0.00375   0.01271   1.36929
    D2       -2.86414  -0.00005   0.00877   0.00450   0.01326  -2.85089
    D3       -0.76995   0.00003   0.00996   0.00416   0.01412  -0.75584
    D4       -2.84520   0.00009   0.01110   0.00156   0.01267  -2.83253
    D5       -0.78273   0.00001   0.01090   0.00231   0.01321  -0.76952
    D6        1.31146   0.00009   0.01209   0.00198   0.01407   1.32553
    D7       -0.74731   0.00014   0.01131   0.00262   0.01393  -0.73338
    D8        1.31516   0.00006   0.01111   0.00337   0.01448   1.32964
    D9       -2.87383   0.00014   0.01230   0.00303   0.01533  -2.85850
   D10       -0.88154   0.00011  -0.00919   0.00052  -0.00868  -0.89022
   D11       -2.99654   0.00022  -0.00421  -0.00514  -0.00935  -3.00589
   D12        1.20312   0.00012  -0.00719  -0.00212  -0.00931   1.19381
   D13       -2.93172  -0.00017  -0.01244   0.00267  -0.00977  -2.94149
   D14        1.23646  -0.00006  -0.00747  -0.00298  -0.01044   1.22602
   D15       -0.84706  -0.00016  -0.01045   0.00004  -0.01040  -0.85746
   D16        1.24083  -0.00025  -0.01249   0.00165  -0.01085   1.22998
   D17       -0.87417  -0.00014  -0.00752  -0.00400  -0.01152  -0.88569
   D18       -2.95769  -0.00025  -0.01050  -0.00099  -0.01148  -2.96917
   D19        1.34618  -0.00013  -0.00625   0.00568  -0.00057   1.34561
   D20       -0.72957  -0.00023  -0.00690   0.00587  -0.00102  -0.73059
   D21       -2.82041  -0.00020  -0.00642   0.00502  -0.00141  -2.82181
   D22       -0.78465   0.00022  -0.00250   0.00351   0.00101  -0.78364
   D23       -2.86041   0.00011  -0.00314   0.00370   0.00056  -2.85985
   D24        1.33194   0.00014  -0.00267   0.00285   0.00017   1.33211
   D25       -2.83660   0.00007  -0.00491   0.00577   0.00086  -2.83573
   D26        1.37083  -0.00004  -0.00555   0.00597   0.00041   1.37125
   D27       -0.72001  -0.00000  -0.00508   0.00511   0.00003  -0.71998
   D28        1.97444   0.00002  -0.00209  -0.00122  -0.00331   1.97113
   D29       -1.17641   0.00019   0.00205   0.00524   0.00728  -1.16913
   D30       -2.19403  -0.00004  -0.00168  -0.00231  -0.00399  -2.19802
   D31        0.93830   0.00013   0.00246   0.00415   0.00661   0.94492
   D32       -0.12289  -0.00023  -0.00209  -0.00258  -0.00467  -0.12755
   D33        3.00945  -0.00005   0.00205   0.00388   0.00593   3.01538
   D34        3.13804  -0.00009  -0.00225  -0.00318  -0.00542   3.13262
   D35       -0.01321   0.00009   0.00207   0.00356   0.00563  -0.00758
         Item               Value     Threshold  Converged?
 Maximum Force            0.001251     0.000450     NO 
 RMS     Force            0.000300     0.000300     YES
 Maximum Displacement     0.031049     0.001800     NO 
 RMS     Displacement     0.009712     0.001200     NO 
 Predicted change in Energy=-1.616375D-05
 GradGradGradGradGradGradGradGradGradGradGradGradGradGradGradGradGradGrad

                          Input orientation:                          
 ---------------------------------------------------------------------
 Center     Atomic      Atomic             Coordinates (Angstroms)
 Number     Number       Type             X           Y           Z
 ---------------------------------------------------------------------
      1          6           0        0.882192    0.416806    0.168695
      2          9           0        0.924498    0.855344    1.434504
      3          9           0        0.748377    1.461423   -0.654660
      4          6           0        2.212709   -0.321994   -0.165766
      5          9           0        2.176017   -1.552828    0.361047
      6          9           0        2.315561   -0.429207   -1.501785
      7          6           0        3.488918    0.405302    0.352037
      8          9           0        3.612154    0.195311    1.673448
      9          9           0        3.363801    1.716242    0.131367
     10          6           0        4.768801   -0.091120   -0.369678
     11          8           0        5.407853    0.596131   -1.100150
     12          8           0        5.022037   -1.356117   -0.052822
     13          1           0        5.817092   -1.629102   -0.525722
     14          6           0       -0.392956   -0.465939    0.020768
     15          9           0       -0.449074   -1.383377    0.974843
     16          9           0       -0.407303   -1.067952   -1.162964
     17          9           0       -1.462797    0.311639    0.118324
 ---------------------------------------------------------------------
                    Distance matrix (angstroms):
                    1          2          3          4          5
     1  C    0.000000
     2  F    1.340291   0.000000
     3  F    1.336804   2.182421   0.000000
     4  C    1.558193   2.367800   2.358785   0.000000
     5  F    2.364411   2.918544   3.486477   1.339339   0.000000
     6  F    2.358132   3.493840   2.597723   1.344255   2.179940
     7  C    2.613191   2.819667   3.104738   1.557494   2.357555
     8  F    3.125065   2.777810   3.901839   2.368282   2.615507
     9  F    2.801483   2.896465   2.742848   2.359599   3.485743
    10  C    3.956458   4.350808   4.319191   2.574585   3.064813
    11  O    4.703587   5.156756   4.760033   3.453255   4.147034
    12  O    4.508951   4.887998   5.154116   2.995745   2.882675
    13  H    5.387131   5.826871   5.938000   3.850931   3.748280
    14  C    1.557923   2.340967   2.339565   2.616296   2.810114
    15  F    2.379665   2.666432   3.490280   3.084252   2.701214
    16  F    2.374999   3.495655   2.826960   2.900917   3.038298
    17  F    2.347887   2.779771   2.609368   3.740528   4.095866
                    6          7          8          9         10
     6  F    0.000000
     7  C    2.347302   0.000000
     8  F    3.486156   1.343656   0.000000
     9  F    2.892913   1.335258   2.180121   0.000000
    10  C    2.722932   1.550938   2.365215   2.343423   0.000000
    11  O    3.282515   2.414037   3.328370   2.636178   1.189240
    12  O    3.206816   2.370013   2.715641   3.496150   1.328437
    13  H    3.827945   3.213978   3.609236   4.200206   1.867794
    14  C    3.107343   3.992211   4.382865   4.345960   5.190055
    15  F    3.832406   4.369787   4.412921   4.985690   5.541109
    16  F    2.817230   4.432408   5.079084   4.862947   5.326871
    17  F    4.177271   4.958113   5.309150   5.026841   6.263639
                   11         12         13         14         15
    11  O    0.000000
    12  O    2.248782   0.000000
    13  H    2.334332   0.964504   0.000000
    14  C    6.002819   5.488168   6.341632   0.000000
    15  F    6.521322   5.566857   6.448016   1.324803   0.000000
    16  F    6.048898   5.549161   6.282042   1.328098   2.161355
    17  F    6.983656   6.698043   7.561617   1.326162   2.152752
                   16         17
    16  F    0.000000
    17  F    2.158480   0.000000
 Stoichiometry    C5HF9O2
 Framework group  C1[X(C5HF9O2)]
 Deg. of freedom    45
 Full point group                 C1      NOp   1
 Largest Abelian subgroup         C1      NOp   1
 Largest concise Abelian subgroup C1      NOp   1
                         Standard orientation:                         
 ---------------------------------------------------------------------
 Center     Atomic      Atomic             Coordinates (Angstroms)
 Number     Number       Type             X           Y           Z
 ---------------------------------------------------------------------
      1          6           0       -1.070595    0.534221   -0.028361
      2          9           0       -1.066250    1.254841    1.101713
      3          9           0       -1.113173    1.361467   -1.077596
      4          6           0        0.235735   -0.311661   -0.105509
      5          9           0        0.112914   -1.382811    0.689087
      6          9           0        0.396034   -0.732259   -1.372167
      7          6           0        1.520759    0.468238    0.302238
      8          9           0        1.570889    0.568773    1.641190
      9          9           0        1.471700    1.694906   -0.222922
     10          6           0        2.806928   -0.230875   -0.210030
     11          8           0        3.513198    0.241947   -1.041843
     12          8           0        2.981556   -1.395205    0.405262
     13          1           0        3.783439   -1.800859    0.054981
     14          6           0       -2.379762   -0.310201   -0.040852
     15          9           0       -2.526498   -0.976188    1.094944
     16          9           0       -2.368236   -1.171486   -1.051743
     17          9           0       -3.412920    0.508156   -0.187755
 ---------------------------------------------------------------------
 Rotational constants (GHZ):           1.0663870           0.3737517           0.3585322
 Standard basis: 6-311+G(2d,2p) (5D, 7F)
 There are   473 symmetry adapted cartesian basis functions of A   symmetry.
 There are   441 symmetry adapted basis functions of A   symmetry.
   441 basis functions,   683 primitive gaussians,   473 cartesian basis functions
    64 alpha electrons       64 beta electrons
       nuclear repulsion energy      1423.4526104316 Hartrees.
 NAtoms=   17 NActive=   17 NUniq=   17 SFac= 1.00D+00 NAtFMM=   60 NAOKFM=F Big=F
 Integral buffers will be    131072 words long.
 Raffenetti 2 integral format.
 Two-electron integral symmetry is turned on.
 Nuclear repulsion after empirical dispersion term =     1423.4421732737 Hartrees.
 One-electron integrals computed using PRISM.
 NBasis=   441 RedAO= T EigKep=  7.34D-06  NBF=   441
 NBsUse=   441 1.00D-06 EigRej= -1.00D+00 NBFU=   441
 Initial guess from the checkpoint file:  "1_pentane.chk"
 B after Tr=     0.000000    0.000000   -0.000000
         Rot=    1.000000   -0.000836   -0.000104    0.000139 Ang=  -0.10 deg.
 ExpMin= 4.38D-02 ExpMax= 1.14D+04 ExpMxC= 1.72D+03 IAcc=2 IRadAn=         4 AccDes= 0.00D+00
 Harris functional with IExCor= 4639 and IRadAn=       4 diagonalized for initial guess.
 HarFok:  IExCor= 4639 AccDes= 0.00D+00 IRadAn=         4 IDoV= 1 UseB2=F ITyADJ=14
 ICtDFT=  3500011 ScaDFX=  1.000000  1.000000  1.000000  1.000000
 FoFCou: FMM=F IPFlag=           0 FMFlag=      100000 FMFlg1=           0
         NFxFlg=           0 DoJE=T BraDBF=F KetDBF=T FulRan=T
         wScrn=  0.000000 ICntrl=       500 IOpCl=  0 I1Cent=   200000004 NGrid=           0
         NMat0=    1 NMatS0=      1 NMatT0=    0 NMatD0=    1 NMtDS0=    0 NMtDT0=    0
 Petite list used in FoFCou.
 Requested convergence on RMS density matrix=1.00D-08 within 128 cycles.
 Requested convergence on MAX density matrix=1.00D-06.
 Requested convergence on             energy=1.00D-06.
 No special actions if energy rises.
 SCF Done:  E(RwB97XD) =  -1240.21875608     A.U. after   10 cycles
            NFock= 10  Conv=0.85D-08     -V/T= 2.0026
 Calling FoFJK, ICntrl=      2127 FMM=F ISym2X=0 I1Cent= 0 IOpClX= 0 NMat=1 NMatS=1 NMatT=0.
 ***** Axes restored to original set *****
 -------------------------------------------------------------------
 Center     Atomic                   Forces (Hartrees/Bohr)
 Number     Number              X              Y              Z
 -------------------------------------------------------------------
      1        6          -0.000113560   -0.000095557   -0.000104183
      2        9          -0.000033013    0.000001635    0.000131551
      3        9          -0.000022983    0.000013352    0.000055662
      4        6          -0.000047025   -0.000123044   -0.000018830
      5        9          -0.000104276   -0.000067615    0.000008257
      6        9          -0.000096839   -0.000065612   -0.000099580
      7        6           0.000182007    0.000231737    0.000205752
      8        9          -0.000009365   -0.000010428    0.000137089
      9        9          -0.000017361    0.000018633   -0.000027581
     10        6          -0.000570421   -0.000322891   -0.000775564
     11        8           0.000207869    0.000109559    0.000284144
     12        8           0.000183590    0.000110953    0.000240764
     13        1           0.000020450   -0.000006946   -0.000009343
     14        6           0.000339202   -0.000262624    0.000025107
     15        9           0.000214874    0.000062591    0.000081725
     16        9           0.000191089    0.000049195   -0.000111561
     17        9          -0.000324237    0.000357062   -0.000023410
 -------------------------------------------------------------------
 Cartesian Forces:  Max     0.000775564 RMS     0.000200933

 GradGradGradGradGradGradGradGradGradGradGradGradGradGradGradGradGradGrad
 Berny optimization.
 Using GEDIIS/GDIIS optimizer.
 FormGI is forming the generalized inverse of G from B-inverse, IUseBI=4.
 Internal  Forces:  Max     0.000469252 RMS     0.000140800
 Search for a local minimum.
 Step number   5 out of a maximum of   89
 All quantities printed in internal units (Hartrees-Bohrs-Radians)
 Mixed Optimization -- En-DIIS/RFO-DIIS
 Swapping is turned off.
 Update second derivatives using D2CorX and points    1    2    3    4    5
 DE= -9.91D-06 DEPred=-1.62D-05 R= 6.13D-01
 TightC=F SS=  1.41D+00  RLast= 5.42D-02 DXNew= 1.2208D+00 1.6251D-01
 Trust test= 6.13D-01 RLast= 5.42D-02 DXMaxT set to 7.26D-01
 ITU=  1  1  1  1  0
     Eigenvalues ---    0.00227   0.00231   0.00251   0.00299   0.01946
     Eigenvalues ---    0.02647   0.05187   0.05479   0.06323   0.06898
     Eigenvalues ---    0.07148   0.07788   0.08863   0.09013   0.12998
     Eigenvalues ---    0.14014   0.14292   0.15999   0.19086   0.19497
     Eigenvalues ---    0.19553   0.21017   0.24657   0.25000   0.25000
     Eigenvalues ---    0.25000   0.25335   0.25505   0.26892   0.27283
     Eigenvalues ---    0.27572   0.28301   0.36372   0.48925   0.53788
     Eigenvalues ---    0.55421   0.56536   0.56720   0.57439   0.57476
     Eigenvalues ---    0.57553   0.58239   0.58438   0.60034   1.10237
 En-DIIS/RFO-DIIS/Sim-DIIS IScMMF=       -3 using points:     5    4    3    2
 RFO step:  Lambda=-1.44558990D-05.
 DidBck=T Rises=F RFO-DIIS coefs:    0.59676    0.12672    0.25232    0.02420
 Iteration  1 RMS(Cart)=  0.00384182 RMS(Int)=  0.00001612
 Iteration  2 RMS(Cart)=  0.00001978 RMS(Int)=  0.00000835
 Iteration  3 RMS(Cart)=  0.00000000 RMS(Int)=  0.00000835
 Variable       Old X    -DE/DX   Delta X   Delta X   Delta X     New X
                                 (Linear)    (Quad)   (Total)
    R1        2.53278   0.00012  -0.00048   0.00093   0.00045   2.53323
    R2        2.52619  -0.00002  -0.00019   0.00037   0.00017   2.52637
    R3        2.94456  -0.00014   0.00018  -0.00080  -0.00062   2.94394
    R4        2.94405  -0.00046  -0.00103   0.00067  -0.00036   2.94369
    R5        2.53098   0.00007  -0.00019   0.00042   0.00023   2.53121
    R6        2.54027   0.00010  -0.00037   0.00079   0.00041   2.54069
    R7        2.94324   0.00008   0.00034  -0.00024   0.00011   2.94334
    R8        2.53914   0.00014  -0.00005   0.00020   0.00016   2.53930
    R9        2.52327   0.00002   0.00002   0.00000   0.00002   2.52329
   R10        2.93085   0.00002   0.00012  -0.00014  -0.00003   2.93082
   R11        2.24734  -0.00000   0.00003  -0.00004  -0.00001   2.24732
   R12        2.51038  -0.00000   0.00003  -0.00007  -0.00004   2.51034
   R13        1.82265   0.00002  -0.00017   0.00035   0.00018   1.82283
   R14        2.50351   0.00000   0.00036  -0.00038  -0.00002   2.50349
   R15        2.50974   0.00008   0.00025  -0.00006   0.00019   2.50993
   R16        2.50608   0.00047  -0.00143   0.00286   0.00143   2.50751
    A1        1.90622  -0.00007   0.00015   0.00006   0.00021   1.90642
    A2        1.90806   0.00016   0.00063  -0.00093  -0.00030   1.90776
    A3        1.87644   0.00012   0.00049  -0.00032   0.00017   1.87661
    A4        1.90052   0.00015   0.00046   0.00009   0.00055   1.90106
    A5        1.87796   0.00011   0.00046  -0.00011   0.00035   1.87831
    A6        1.99310  -0.00047  -0.00213   0.00120  -0.00094   1.99216
    A7        1.90488  -0.00005  -0.00078   0.00037  -0.00041   1.90447
    A8        1.89281  -0.00002  -0.00014   0.00036   0.00022   1.89303
    A9        1.98986  -0.00012  -0.00036   0.00039   0.00004   1.98989
   A10        1.89624  -0.00004   0.00007   0.00001   0.00008   1.89632
   A11        1.89739   0.00014   0.00087  -0.00092  -0.00004   1.89734
   A12        1.88071   0.00009   0.00036  -0.00023   0.00013   1.88083
   A13        1.90618   0.00003   0.00032  -0.00035  -0.00003   1.90615
   A14        1.90365  -0.00001  -0.00040   0.00090   0.00050   1.90415
   A15        1.95198  -0.00009  -0.00013  -0.00015  -0.00028   1.95171
   A16        1.90134  -0.00000   0.00004  -0.00007  -0.00003   1.90131
   A17        1.90914   0.00005   0.00013  -0.00013   0.00000   1.90914
   A18        1.89091   0.00003   0.00003  -0.00020  -0.00017   1.89074
   A19        2.14636  -0.00002  -0.00001  -0.00003  -0.00008   2.14628
   A20        1.92956   0.00004   0.00009  -0.00004   0.00001   1.92957
   A21        2.20727  -0.00003  -0.00009   0.00009  -0.00004   2.20723
   A22        1.88568   0.00000   0.00007  -0.00012  -0.00006   1.88562
   A23        1.93765  -0.00033  -0.00152   0.00093  -0.00059   1.93706
   A24        1.92870  -0.00031  -0.00037   0.00022  -0.00015   1.92855
   A25        1.89767  -0.00002   0.00001   0.00101   0.00102   1.89869
   A26        1.90447   0.00028  -0.00057   0.00148   0.00091   1.90538
   A27        1.89536   0.00023   0.00155  -0.00199  -0.00045   1.89491
   A28        1.89931   0.00016   0.00100  -0.00176  -0.00076   1.89855
    D1        1.36929  -0.00002  -0.00241   0.00124  -0.00118   1.36811
    D2       -2.85089  -0.00011  -0.00285   0.00166  -0.00118  -2.85207
    D3       -0.75584  -0.00009  -0.00272   0.00188  -0.00084  -0.75668
    D4       -2.83253   0.00007  -0.00159   0.00081  -0.00078  -2.83331
    D5       -0.76952  -0.00002  -0.00202   0.00124  -0.00078  -0.77030
    D6        1.32553   0.00001  -0.00189   0.00145  -0.00044   1.32509
    D7       -0.73338   0.00002  -0.00208   0.00152  -0.00056  -0.73393
    D8        1.32964  -0.00007  -0.00251   0.00195  -0.00056   1.32907
    D9       -2.85850  -0.00005  -0.00238   0.00216  -0.00022  -2.85872
   D10       -0.89022  -0.00001  -0.00069   0.00042  -0.00027  -0.89049
   D11       -3.00589   0.00005   0.00130  -0.00222  -0.00092  -3.00682
   D12        1.19381   0.00005   0.00029  -0.00083  -0.00054   1.19327
   D13       -2.94149  -0.00005  -0.00136   0.00058  -0.00078  -2.94227
   D14        1.22602   0.00002   0.00063  -0.00206  -0.00143   1.22459
   D15       -0.85746   0.00002  -0.00038  -0.00067  -0.00105  -0.85851
   D16        1.22998  -0.00003  -0.00090  -0.00022  -0.00112   1.22886
   D17       -0.88569   0.00004   0.00108  -0.00286  -0.00178  -0.88747
   D18       -2.96917   0.00004   0.00008  -0.00147  -0.00139  -2.97057
   D19        1.34561  -0.00001  -0.00194   0.00204   0.00010   1.34571
   D20       -0.73059  -0.00001  -0.00194   0.00179  -0.00015  -0.73074
   D21       -2.82181   0.00002  -0.00164   0.00155  -0.00010  -2.82191
   D22       -0.78364   0.00003  -0.00134   0.00197   0.00064  -0.78301
   D23       -2.85985   0.00003  -0.00134   0.00173   0.00039  -2.85946
   D24        1.33211   0.00006  -0.00104   0.00148   0.00044   1.33256
   D25       -2.83573  -0.00005  -0.00209   0.00259   0.00049  -2.83524
   D26        1.37125  -0.00005  -0.00209   0.00234   0.00024   1.37149
   D27       -0.71998  -0.00002  -0.00179   0.00209   0.00030  -0.71968
   D28        1.97113   0.00015   0.00067   0.00604   0.00671   1.97784
   D29       -1.16913  -0.00021  -0.00223  -0.00793  -0.01016  -1.17928
   D30       -2.19802   0.00016   0.00108   0.00542   0.00650  -2.19152
   D31        0.94492  -0.00020  -0.00182  -0.00855  -0.01037   0.93455
   D32       -0.12755   0.00020   0.00122   0.00515   0.00637  -0.12119
   D33        3.01538  -0.00016  -0.00168  -0.00882  -0.01050   3.00488
   D34        3.13262   0.00019   0.00144   0.00748   0.00891   3.14153
   D35       -0.00758  -0.00018  -0.00159  -0.00709  -0.00868  -0.01626
         Item               Value     Threshold  Converged?
 Maximum Force            0.000469     0.000450     NO 
 RMS     Force            0.000141     0.000300     YES
 Maximum Displacement     0.016485     0.001800     NO 
 RMS     Displacement     0.003839     0.001200     NO 
 Predicted change in Energy=-7.228374D-06
 GradGradGradGradGradGradGradGradGradGradGradGradGradGradGradGradGradGrad

                          Input orientation:                          
 ---------------------------------------------------------------------
 Center     Atomic      Atomic             Coordinates (Angstroms)
 Number     Number       Type             X           Y           Z
 ---------------------------------------------------------------------
      1          6           0        0.881558    0.417370    0.168907
      2          9           0        0.925627    0.854085    1.435539
      3          9           0        0.747224    1.463174   -0.653004
      4          6           0        2.210828   -0.322099   -0.167493
      5          9           0        2.173454   -1.553096    0.359196
      6          9           0        2.312110   -0.429094   -1.503871
      7          6           0        3.488283    0.403864    0.349276
      8          9           0        3.612956    0.192807    1.670467
      9          9           0        3.364648    1.715137    0.129681
     10          6           0        4.766678   -0.093502   -0.374393
     11          8           0        5.409120    0.595559   -1.100158
     12          8           0        5.026067   -1.355007   -0.048796
     13          1           0        5.824628   -1.626184   -0.516999
     14          6           0       -0.393492   -0.465220    0.021222
     15          9           0       -0.447410   -1.384125    0.973998
     16          9           0       -0.409663   -1.064413   -1.164028
     17          9           0       -1.464739    0.311305    0.121942
 ---------------------------------------------------------------------
                    Distance matrix (angstroms):
                    1          2          3          4          5
     1  C    0.000000
     2  F    1.340529   0.000000
     3  F    1.336896   2.182849   0.000000
     4  C    1.557864   2.367460   2.359037   0.000000
     5  F    2.363883   2.917210   3.486627   1.339460   0.000000
     6  F    2.358212   3.494140   2.598753   1.344474   2.180281
     7  C    2.612992   2.819552   3.104852   1.557551   2.357661
     8  F    3.125003   2.777448   3.901893   2.368372   2.615296
     9  F    2.802048   2.897499   2.743536   2.360073   3.486111
    10  C    3.956048   4.350569   4.319360   2.574380   3.064862
    11  O    4.705433   5.157355   4.762980   3.455580   4.149213
    12  O    4.512834   4.888451   5.159041   3.001093   2.888442
    13  H    5.392636   5.827895   5.944969   3.857764   3.755547
    14  C    1.557732   2.341139   2.339769   2.615068   2.808365
    15  F    2.379014   2.666052   3.490185   3.081741   2.697306
    16  F    2.374795   3.495909   2.826346   2.900187   3.038341
    17  F    2.349163   2.781006   2.611537   3.740958   4.094964
                    6          7          8          9         10
     6  F    0.000000
     7  C    2.347627   0.000000
     8  F    3.486456   1.343739   0.000000
     9  F    2.893796   1.335270   2.180176   0.000000
    10  C    2.722727   1.550923   2.365270   2.343278   0.000000
    11  O    3.287000   2.413964   3.326377   2.635493   1.189232
    12  O    3.215606   2.369993   2.710807   3.495419   1.328417
    13  H    3.839886   3.214037   3.603502   4.199300   1.867809
    14  C    3.106041   3.991378   4.382308   4.346187   5.188645
    15  F    3.829734   4.367706   4.411161   4.984985   5.538102
    16  F    2.815523   4.431694   5.079018   4.862613   5.325476
    17  F    4.178043   4.959100   5.309892   5.029293   6.264245
                   11         12         13         14         15
    11  O    0.000000
    12  O    2.248733   0.000000
    13  H    2.334280   0.964599   0.000000
    14  C    6.004420   5.492562   6.348428   0.000000
    15  F    6.520752   5.568294   6.451366   1.324792   0.000000
    16  F    6.051267   5.556559   6.292903   1.328198   2.162127
    17  F    6.987436   6.703455   7.569477   1.326916   2.153007
                   16         17
    16  F    0.000000
    17  F    2.158588   0.000000
 Stoichiometry    C5HF9O2
 Framework group  C1[X(C5HF9O2)]
 Deg. of freedom    45
 Full point group                 C1      NOp   1
 Largest Abelian subgroup         C1      NOp   1
 Largest concise Abelian subgroup C1      NOp   1
                         Standard orientation:                         
 ---------------------------------------------------------------------
 Center     Atomic      Atomic             Coordinates (Angstroms)
 Number     Number       Type             X           Y           Z
 ---------------------------------------------------------------------
      1          6           0       -1.071059    0.534687   -0.026449
      2          9           0       -1.065376    1.250451    1.106983
      3          9           0       -1.114490    1.366399   -1.072231
      4          6           0        0.234423   -0.311504   -0.107796
      5          9           0        0.111346   -1.385116    0.683634
      6          9           0        0.393355   -0.728252   -1.376129
      7          6           0        1.520361    0.466167    0.301540
      8          9           0        1.571838    0.561780    1.640884
      9          9           0        1.472259    1.694817   -0.219083
     10          6           0        2.805371   -0.232290   -0.214473
     11          8           0        3.514704    0.245894   -1.040583
     12          8           0        2.986360   -1.393106    0.405561
     13          1           0        3.791772   -1.794730    0.058485
     14          6           0       -2.379795   -0.310016   -0.041136
     15          9           0       -2.524084   -0.981090    1.091963
     16          9           0       -2.369531   -1.165964   -1.056694
     17          9           0       -3.414883    0.508103   -0.182485
 ---------------------------------------------------------------------
 Rotational constants (GHZ):           1.0668861           0.3735265           0.3584003
 Standard basis: 6-311+G(2d,2p) (5D, 7F)
 There are   473 symmetry adapted cartesian basis functions of A   symmetry.
 There are   441 symmetry adapted basis functions of A   symmetry.
   441 basis functions,   683 primitive gaussians,   473 cartesian basis functions
    64 alpha electrons       64 beta electrons
       nuclear repulsion energy      1423.3333380656 Hartrees.
 NAtoms=   17 NActive=   17 NUniq=   17 SFac= 1.00D+00 NAtFMM=   60 NAOKFM=F Big=F
 Integral buffers will be    131072 words long.
 Raffenetti 2 integral format.
 Two-electron integral symmetry is turned on.
 Nuclear repulsion after empirical dispersion term =     1423.3229040769 Hartrees.
 One-electron integrals computed using PRISM.
 NBasis=   441 RedAO= T EigKep=  7.32D-06  NBF=   441
 NBsUse=   441 1.00D-06 EigRej= -1.00D+00 NBFU=   441
 Initial guess from the checkpoint file:  "1_pentane.chk"
 B after Tr=     0.000000    0.000000   -0.000000
         Rot=    0.999999   -0.001697   -0.000155   -0.000052 Ang=  -0.20 deg.
 Requested convergence on RMS density matrix=1.00D-08 within 128 cycles.
 Requested convergence on MAX density matrix=1.00D-06.
 Requested convergence on             energy=1.00D-06.
 No special actions if energy rises.
 SCF Done:  E(RwB97XD) =  -1240.21875453     A.U. after    9 cycles
            NFock=  9  Conv=0.97D-08     -V/T= 2.0026
 Calling FoFJK, ICntrl=      2127 FMM=F ISym2X=0 I1Cent= 0 IOpClX= 0 NMat=1 NMatS=1 NMatT=0.
 ***** Axes restored to original set *****
 -------------------------------------------------------------------
 Center     Atomic                   Forces (Hartrees/Bohr)
 Number     Number              X              Y              Z
 -------------------------------------------------------------------
      1        6          -0.000268389    0.000046615   -0.000027681
      2        9          -0.000063067   -0.000022422   -0.000075943
      3        9           0.000010015   -0.000079566    0.000151753
      4        6          -0.000028981   -0.000050104    0.000001853
      5        9           0.000050174   -0.000009373   -0.000097459
      6        9          -0.000049871   -0.000050207    0.000086258
      7        6          -0.000282411   -0.000024393   -0.000183794
      8        9           0.000063298    0.000028650   -0.000088996
      9        9          -0.000056118   -0.000053852   -0.000041796
     10        6           0.000769908    0.000322202    0.000986979
     11        8          -0.000262394   -0.000136658   -0.000389773
     12        8          -0.000157957   -0.000157562   -0.000377328
     13        1          -0.000062642    0.000019252    0.000033330
     14        6          -0.000244193   -0.000010608    0.000026257
     15        9           0.000141141    0.000027341   -0.000067757
     16        9           0.000227129    0.000003580    0.000095867
     17        9           0.000214356    0.000147104   -0.000031769
 -------------------------------------------------------------------
 Cartesian Forces:  Max     0.000986979 RMS     0.000225790

 GradGradGradGradGradGradGradGradGradGradGradGradGradGradGradGradGradGrad
 Berny optimization.
 Using GEDIIS/GDIIS optimizer.
 FormGI is forming the generalized inverse of G from B-inverse, IUseBI=4.
 Internal  Forces:  Max     0.000373744 RMS     0.000121162
 Search for a local minimum.
 Step number   6 out of a maximum of   89
 All quantities printed in internal units (Hartrees-Bohrs-Radians)
 Mixed Optimization -- En-DIIS/RFO-DIIS
 Swapping is turned off.
 Update second derivatives using D2CorX and points    1    2    3    4    5
                                                      6
 DE=  1.55D-06 DEPred=-7.23D-06 R=-2.15D-01
 Trust test=-2.15D-01 RLast= 2.51D-02 DXMaxT set to 3.63D-01
 ITU= -1  1  1  1  1  0
     Eigenvalues ---    0.00229   0.00232   0.00253   0.00477   0.02646
     Eigenvalues ---    0.04567   0.05159   0.05431   0.06191   0.06815
     Eigenvalues ---    0.07168   0.07787   0.08501   0.08962   0.12980
     Eigenvalues ---    0.13637   0.14296   0.15998   0.18849   0.19492
     Eigenvalues ---    0.19587   0.21092   0.23180   0.24998   0.25000
     Eigenvalues ---    0.25034   0.25194   0.25441   0.26878   0.27500
     Eigenvalues ---    0.27603   0.29057   0.35742   0.42848   0.53833
     Eigenvalues ---    0.54978   0.56559   0.56662   0.57439   0.57480
     Eigenvalues ---    0.57657   0.58234   0.58397   0.60034   1.10236
 En-DIIS/RFO-DIIS/Sim-DIIS IScMMF=       -3 using points:     6    5    4    3    2
 RFO step:  Lambda=-1.36734972D-05.
 EnCoef did   100 forward-backward iterations
 EnCoef did     3 forward-backward iterations
 DidBck=T Rises=T En-DIIS coefs:    0.22202    0.17151    0.32215    0.28433    0.00000
 Iteration  1 RMS(Cart)=  0.00471736 RMS(Int)=  0.00000882
 Iteration  2 RMS(Cart)=  0.00001267 RMS(Int)=  0.00000107
 Iteration  3 RMS(Cart)=  0.00000000 RMS(Int)=  0.00000107
 Variable       Old X    -DE/DX   Delta X   Delta X   Delta X     New X
                                 (Linear)    (Quad)   (Total)
    R1        2.53323  -0.00008  -0.00092   0.00120   0.00028   2.53351
    R2        2.52637  -0.00016  -0.00043   0.00042  -0.00001   2.52636
    R3        2.94394   0.00005   0.00065  -0.00101  -0.00036   2.94358
    R4        2.94369  -0.00037  -0.00101   0.00016  -0.00085   2.94284
    R5        2.53121  -0.00003  -0.00043   0.00058   0.00014   2.53135
    R6        2.54069  -0.00009  -0.00081   0.00105   0.00024   2.54092
    R7        2.94334  -0.00001   0.00024  -0.00020   0.00004   2.94338
    R8        2.53930  -0.00009  -0.00017   0.00022   0.00005   2.53935
    R9        2.52329  -0.00004  -0.00000  -0.00001  -0.00002   2.52328
   R10        2.93082   0.00010   0.00016  -0.00003   0.00013   2.93095
   R11        2.24732   0.00002   0.00004  -0.00005  -0.00001   2.24731
   R12        2.51034   0.00001   0.00008  -0.00010  -0.00002   2.51033
   R13        1.82283  -0.00007  -0.00040   0.00045   0.00004   1.82287
   R14        2.50349  -0.00007   0.00016  -0.00037  -0.00021   2.50329
   R15        2.50993  -0.00009  -0.00015   0.00011  -0.00005   2.50988
   R16        2.50751  -0.00009  -0.00290   0.00376   0.00087   2.50837
    A1        1.90642  -0.00005   0.00010  -0.00007   0.00003   1.90645
    A2        1.90776   0.00012   0.00117  -0.00097   0.00020   1.90795
    A3        1.87661   0.00001   0.00018  -0.00006   0.00012   1.87673
    A4        1.90106   0.00002  -0.00013   0.00045   0.00032   1.90139
    A5        1.87831   0.00003  -0.00008   0.00008   0.00000   1.87831
    A6        1.99216  -0.00014  -0.00123   0.00057  -0.00066   1.99150
    A7        1.90447   0.00007  -0.00043   0.00052   0.00009   1.90456
    A8        1.89303  -0.00003  -0.00064   0.00057  -0.00006   1.89297
    A9        1.98989  -0.00004  -0.00039   0.00044   0.00005   1.98995
   A10        1.89632  -0.00006  -0.00016  -0.00007  -0.00023   1.89610
   A11        1.89734   0.00003   0.00119  -0.00103   0.00016   1.89750
   A12        1.88083   0.00002   0.00043  -0.00046  -0.00003   1.88080
   A13        1.90615   0.00007   0.00036  -0.00021   0.00015   1.90630
   A14        1.90415  -0.00010  -0.00110   0.00122   0.00013   1.90427
   A15        1.95171   0.00006   0.00017  -0.00026  -0.00009   1.95162
   A16        1.90131   0.00002   0.00009  -0.00005   0.00004   1.90135
   A17        1.90914  -0.00009   0.00024  -0.00038  -0.00014   1.90900
   A18        1.89074   0.00003   0.00023  -0.00031  -0.00008   1.89066
   A19        2.14628  -0.00002   0.00005  -0.00009  -0.00004   2.14624
   A20        1.92957   0.00004   0.00009   0.00004   0.00012   1.92969
   A21        2.20723  -0.00001  -0.00007   0.00009   0.00002   2.20724
   A22        1.88562   0.00000   0.00016  -0.00018  -0.00001   1.88561
   A23        1.93706  -0.00007  -0.00077   0.00051  -0.00025   1.93680
   A24        1.92855  -0.00025  -0.00056   0.00011  -0.00044   1.92811
   A25        1.89869  -0.00032  -0.00181   0.00171  -0.00010   1.89859
   A26        1.90538   0.00010  -0.00155   0.00219   0.00064   1.90602
   A27        1.89491   0.00027   0.00250  -0.00231   0.00019   1.89510
   A28        1.89855   0.00029   0.00232  -0.00234  -0.00003   1.89852
    D1        1.36811  -0.00000  -0.00433  -0.00185  -0.00618   1.36193
    D2       -2.85207  -0.00004  -0.00513  -0.00132  -0.00644  -2.85851
    D3       -0.75668  -0.00006  -0.00528  -0.00121  -0.00649  -0.76317
    D4       -2.83331   0.00002  -0.00360  -0.00224  -0.00584  -2.83915
    D5       -0.77030  -0.00002  -0.00439  -0.00170  -0.00610  -0.77640
    D6        1.32509  -0.00004  -0.00455  -0.00160  -0.00614   1.31894
    D7       -0.73393  -0.00001  -0.00460  -0.00144  -0.00604  -0.73997
    D8        1.32907  -0.00005  -0.00539  -0.00091  -0.00630   1.32278
    D9       -2.85872  -0.00007  -0.00554  -0.00080  -0.00634  -2.86506
   D10       -0.89049  -0.00006  -0.00083   0.00492   0.00409  -0.88640
   D11       -3.00682   0.00003   0.00201   0.00174   0.00375  -3.00307
   D12        1.19327   0.00002   0.00063   0.00347   0.00411   1.19738
   D13       -2.94227  -0.00003  -0.00100   0.00499   0.00399  -2.93828
   D14        1.22459   0.00006   0.00184   0.00181   0.00365   1.22824
   D15       -0.85851   0.00005   0.00046   0.00355   0.00401  -0.85450
   D16        1.22886   0.00001   0.00000   0.00400   0.00400   1.23285
   D17       -0.88747   0.00010   0.00284   0.00082   0.00366  -0.88381
   D18       -2.97057   0.00009   0.00146   0.00255   0.00402  -2.96655
   D19        1.34571   0.00005  -0.00221   0.00176  -0.00044   1.34527
   D20       -0.73074   0.00004  -0.00188   0.00123  -0.00065  -0.73139
   D21       -2.82191   0.00003  -0.00155   0.00097  -0.00058  -2.82249
   D22       -0.78301  -0.00004  -0.00226   0.00155  -0.00071  -0.78372
   D23       -2.85946  -0.00005  -0.00193   0.00102  -0.00092  -2.86038
   D24        1.33256  -0.00006  -0.00160   0.00076  -0.00084   1.33171
   D25       -2.83524   0.00000  -0.00295   0.00244  -0.00051  -2.83575
   D26        1.37149  -0.00001  -0.00263   0.00191  -0.00072   1.37077
   D27       -0.71968  -0.00002  -0.00230   0.00165  -0.00064  -0.72032
   D28        1.97784  -0.00026  -0.00388  -0.00002  -0.00390   1.97393
   D29       -1.17928   0.00021   0.00428   0.00236   0.00664  -1.17265
   D30       -2.19152  -0.00020  -0.00315  -0.00071  -0.00387  -2.19539
   D31        0.93455   0.00027   0.00500   0.00167   0.00667   0.94122
   D32       -0.12119  -0.00020  -0.00277  -0.00118  -0.00395  -0.12514
   D33        3.00488   0.00027   0.00538   0.00120   0.00659   3.01146
   D34        3.14153  -0.00025  -0.00445  -0.00099  -0.00544   3.13609
   D35       -0.01626   0.00024   0.00406   0.00149   0.00555  -0.01071
         Item               Value     Threshold  Converged?
 Maximum Force            0.000374     0.000450     YES
 RMS     Force            0.000121     0.000300     YES
 Maximum Displacement     0.014388     0.001800     NO 
 RMS     Displacement     0.004718     0.001200     NO 
 Predicted change in Energy=-6.271383D-06
 GradGradGradGradGradGradGradGradGradGradGradGradGradGradGradGradGradGrad

                          Input orientation:                          
 ---------------------------------------------------------------------
 Center     Atomic      Atomic             Coordinates (Angstroms)
 Number     Number       Type             X           Y           Z
 ---------------------------------------------------------------------
      1          6           0        0.882003    0.416598    0.171914
      2          9           0        0.923247    0.849434    1.440126
      3          9           0        0.749299    1.464901   -0.647069
      4          6           0        2.211542   -0.322262   -0.163885
      5          9           0        2.175811   -1.552269    0.365416
      6          9           0        2.311694   -0.432243   -1.500231
      7          6           0        3.488803    0.406137    0.349988
      8          9           0        3.614759    0.198896    1.671687
      9          9           0        3.364227    1.716695    0.126738
     10          6           0        4.767082   -0.092428   -0.373208
     11          8           0        5.406333    0.593854   -1.104398
     12          8           0        5.023112   -1.355390   -0.050651
     13          1           0        5.818918   -1.628694   -0.522342
     14          6           0       -0.392109   -0.465597    0.018609
     15          9           0       -0.450204   -1.384135    0.971339
     16          9           0       -0.402644   -1.064398   -1.166874
     17          9           0       -1.463994    0.311463    0.114329
 ---------------------------------------------------------------------
                    Distance matrix (angstroms):
                    1          2          3          4          5
     1  C    0.000000
     2  F    1.340675   0.000000
     3  F    1.336893   2.182988   0.000000
     4  C    1.557673   2.367578   2.359146   0.000000
     5  F    2.363856   2.914120   3.487603   1.339535   0.000000
     6  F    2.358095   3.495165   2.601561   1.344599   2.180266
     7  C    2.612896   2.822586   3.101610   1.557571   2.357868
     8  F    3.124846   2.778679   3.897468   2.368533   2.616007
     9  F    2.802450   2.904396   2.738617   2.360188   3.486463
    10  C    3.956020   4.353200   4.317736   2.574378   3.064537
    11  O    4.704248   5.161199   4.759814   3.454058   4.147585
    12  O    4.509795   4.888002   5.155117   2.997516   2.884267
    13  H    5.388723   5.827521   5.940280   3.853365   3.750491
    14  C    1.557284   2.340978   2.339394   2.613972   2.809866
    15  F    2.378339   2.663637   3.489278   3.082402   2.700253
    16  F    2.374031   3.495310   2.827460   2.896675   3.038809
    17  F    2.349058   2.783176   2.609370   3.740130   4.096916
                    6          7          8          9         10
     6  F    0.000000
     7  C    2.347717   0.000000
     8  F    3.486743   1.343765   0.000000
     9  F    2.893577   1.335261   2.180218   0.000000
    10  C    2.722973   1.550991   2.365230   2.343261   0.000000
    11  O    3.284258   2.414000   3.327518   2.635652   1.189228
    12  O    3.210182   2.370146   2.713985   3.495865   1.328409
    13  H    3.832543   3.214177   3.607238   4.199814   1.867810
    14  C    3.101377   3.991393   4.385112   4.345590   5.187488
    15  F    3.826596   4.371148   4.418190   4.987824   5.540432
    16  F    2.806845   4.427946   5.078668   4.857698   5.319840
    17  F    4.173215   4.959304   5.313357   5.028573   6.263156
                   11         12         13         14         15
    11  O    0.000000
    12  O    2.248731   0.000000
    13  H    2.334253   0.964622   0.000000
    14  C    6.000459   5.488274   6.342104   0.000000
    15  F    6.520748   5.567987   6.449247   1.324682   0.000000
    16  F    6.041351   5.547022   6.280262   1.328173   2.162510
    17  F    6.983296   6.699863   7.563754   1.327374   2.153437
                   16         17
    16  F    0.000000
    17  F    2.158921   0.000000
 Stoichiometry    C5HF9O2
 Framework group  C1[X(C5HF9O2)]
 Deg. of freedom    45
 Full point group                 C1      NOp   1
 Largest Abelian subgroup         C1      NOp   1
 Largest concise Abelian subgroup C1      NOp   1
                         Standard orientation:                         
 ---------------------------------------------------------------------
 Center     Atomic      Atomic             Coordinates (Angstroms)
 Number     Number       Type             X           Y           Z
 ---------------------------------------------------------------------
      1          6           0       -1.070985    0.534601   -0.025653
      2          9           0       -1.068231    1.251504    1.107243
      3          9           0       -1.112602    1.365278   -1.072327
      4          6           0        0.234570   -0.311481   -0.103217
      5          9           0        0.112802   -1.380445    0.694807
      6          9           0        0.392141   -0.736080   -1.369248
      7          6           0        1.520750    0.469179    0.299695
      8          9           0        1.573684    0.573801    1.638334
      9          9           0        1.472136    1.694275   -0.229171
     10          6           0        2.805405   -0.232639   -0.212837
     11          8           0        3.511790    0.238287   -1.045609
     12          8           0        2.982839   -1.393067    0.408931
     13          1           0        3.785471   -1.799015    0.060389
     14          6           0       -2.378697   -0.310821   -0.042540
     15          9           0       -2.527299   -0.976921    1.092806
     16          9           0       -2.362969   -1.170624   -1.054733
     17          9           0       -3.413967    0.506348   -0.192117
 ---------------------------------------------------------------------
 Rotational constants (GHZ):           1.0662540           0.3737891           0.3586112
 Standard basis: 6-311+G(2d,2p) (5D, 7F)
 There are   473 symmetry adapted cartesian basis functions of A   symmetry.
 There are   441 symmetry adapted basis functions of A   symmetry.
   441 basis functions,   683 primitive gaussians,   473 cartesian basis functions
    64 alpha electrons       64 beta electrons
       nuclear repulsion energy      1423.4679366109 Hartrees.
 NAtoms=   17 NActive=   17 NUniq=   17 SFac= 1.00D+00 NAtFMM=   60 NAOKFM=F Big=F
 Integral buffers will be    131072 words long.
 Raffenetti 2 integral format.
 Two-electron integral symmetry is turned on.
 Nuclear repulsion after empirical dispersion term =     1423.4575010342 Hartrees.
 One-electron integrals computed using PRISM.
 NBasis=   441 RedAO= T EigKep=  7.29D-06  NBF=   441
 NBsUse=   441 1.00D-06 EigRej= -1.00D+00 NBFU=   441
 Initial guess from the checkpoint file:  "1_pentane.chk"
 B after Tr=    -0.000000   -0.000000    0.000000
         Rot=    0.999998    0.002120    0.000117   -0.000006 Ang=   0.24 deg.
 Requested convergence on RMS density matrix=1.00D-08 within 128 cycles.
 Requested convergence on MAX density matrix=1.00D-06.
 Requested convergence on             energy=1.00D-06.
 No special actions if energy rises.
 SCF Done:  E(RwB97XD) =  -1240.21876055     A.U. after    9 cycles
            NFock=  9  Conv=0.93D-08     -V/T= 2.0026
 Calling FoFJK, ICntrl=      2127 FMM=F ISym2X=0 I1Cent= 0 IOpClX= 0 NMat=1 NMatS=1 NMatT=0.
 ***** Axes restored to original set *****
 -------------------------------------------------------------------
 Center     Atomic                   Forces (Hartrees/Bohr)
 Number     Number              X              Y              Z
 -------------------------------------------------------------------
      1        6          -0.000218414    0.000170805    0.000101508
      2        9           0.000011908   -0.000018979   -0.000200170
      3        9           0.000044139   -0.000120286    0.000131026
      4        6           0.000114494   -0.000129627   -0.000122154
      5        9          -0.000046105    0.000105941   -0.000063511
      6        9          -0.000027021    0.000031220    0.000166204
      7        6           0.000127000    0.000069198    0.000052125
      8        9          -0.000027521    0.000019116   -0.000008332
      9        9          -0.000070408   -0.000069860    0.000012213
     10        6          -0.000079641   -0.000072269   -0.000111022
     11        8           0.000045051    0.000026907    0.000020279
     12        8           0.000119825   -0.000018456   -0.000018958
     13        1          -0.000078808    0.000024319    0.000045083
     14        6          -0.000522961    0.000230389   -0.000007166
     15        9           0.000098717   -0.000048402   -0.000146087
     16        9           0.000072310   -0.000082654    0.000174545
     17        9           0.000437435   -0.000117363   -0.000025583
 -------------------------------------------------------------------
 Cartesian Forces:  Max     0.000522961 RMS     0.000136266

 GradGradGradGradGradGradGradGradGradGradGradGradGradGradGradGradGradGrad
 Berny optimization.
 Using GEDIIS/GDIIS optimizer.
 FormGI is forming the generalized inverse of G from B-inverse, IUseBI=4.
 Internal  Forces:  Max     0.000423870 RMS     0.000081093
 Search for a local minimum.
 Step number   7 out of a maximum of   89
 All quantities printed in internal units (Hartrees-Bohrs-Radians)
 Mixed Optimization -- En-DIIS/RFO-DIIS
 Swapping is turned off.
 Update second derivatives using D2CorX and points    1    2    3    4    5
                                                      6    7
 DE= -6.02D-06 DEPred=-6.27D-06 R= 9.60D-01
 TightC=F SS=  1.41D+00  RLast= 2.70D-02 DXNew= 6.1041D-01 8.1125D-02
 Trust test= 9.60D-01 RLast= 2.70D-02 DXMaxT set to 3.63D-01
 ITU=  1 -1  1  1  1  1  0
     Eigenvalues ---    0.00229   0.00232   0.00272   0.00481   0.02647
     Eigenvalues ---    0.04730   0.05165   0.05505   0.06341   0.06908
     Eigenvalues ---    0.07304   0.07806   0.08844   0.09128   0.12943
     Eigenvalues ---    0.14293   0.14339   0.15998   0.18873   0.19501
     Eigenvalues ---    0.19693   0.21953   0.24583   0.25000   0.25034
     Eigenvalues ---    0.25077   0.25242   0.25828   0.26859   0.27487
     Eigenvalues ---    0.27611   0.29491   0.37312   0.39534   0.53956
     Eigenvalues ---    0.56291   0.56557   0.56686   0.57453   0.57495
     Eigenvalues ---    0.57990   0.58184   0.59365   0.60036   1.10248
 En-DIIS/RFO-DIIS/Sim-DIIS IScMMF=       -3 using points:     7    6    5    4    3    2
 RFO step:  Lambda=-2.00940767D-06.
 DidBck=F Rises=F RFO-DIIS coefs:    0.47106    0.13929    0.18886    0.13616    0.02618
                  RFO-DIIS coefs:    0.03845
 Iteration  1 RMS(Cart)=  0.00171001 RMS(Int)=  0.00000199
 Iteration  2 RMS(Cart)=  0.00000194 RMS(Int)=  0.00000098
 Iteration  3 RMS(Cart)=  0.00000000 RMS(Int)=  0.00000098
 Variable       Old X    -DE/DX   Delta X   Delta X   Delta X     New X
                                 (Linear)    (Quad)   (Total)
    R1        2.53351  -0.00020  -0.00052   0.00007  -0.00045   2.53306
    R2        2.52636  -0.00018  -0.00012  -0.00012  -0.00024   2.52612
    R3        2.94358   0.00008   0.00080  -0.00033   0.00047   2.94405
    R4        2.94284  -0.00006   0.00035  -0.00043  -0.00008   2.94276
    R5        2.53135  -0.00012  -0.00024   0.00000  -0.00023   2.53112
    R6        2.54092  -0.00017  -0.00043   0.00005  -0.00038   2.54054
    R7        2.94338   0.00002   0.00002   0.00005   0.00007   2.94346
    R8        2.53935  -0.00001  -0.00011   0.00004  -0.00007   2.53928
    R9        2.52328  -0.00006   0.00001  -0.00007  -0.00006   2.52322
   R10        2.93095   0.00005  -0.00002   0.00012   0.00010   2.93105
   R11        2.24731   0.00003   0.00002   0.00000   0.00002   2.24734
   R12        2.51033   0.00001   0.00003  -0.00001   0.00002   2.51035
   R13        1.82287  -0.00009  -0.00013  -0.00003  -0.00017   1.82270
   R14        2.50329  -0.00008   0.00037  -0.00027   0.00010   2.50339
   R15        2.50988  -0.00012   0.00014  -0.00019  -0.00005   2.50984
   R16        2.50837  -0.00042  -0.00160   0.00043  -0.00118   2.50720
    A1        1.90645  -0.00003  -0.00030   0.00005  -0.00025   1.90620
    A2        1.90795   0.00001   0.00029  -0.00009   0.00020   1.90815
    A3        1.87673   0.00002   0.00011   0.00009   0.00020   1.87693
    A4        1.90139  -0.00002  -0.00031   0.00011  -0.00021   1.90118
    A5        1.87831   0.00003  -0.00005   0.00018   0.00013   1.87844
    A6        1.99150  -0.00002   0.00025  -0.00033  -0.00008   1.99143
    A7        1.90456  -0.00003   0.00024  -0.00031  -0.00007   1.90449
    A8        1.89297  -0.00002  -0.00001  -0.00016  -0.00017   1.89280
    A9        1.98995   0.00001  -0.00031   0.00020  -0.00011   1.98984
   A10        1.89610   0.00000   0.00014  -0.00009   0.00005   1.89614
   A11        1.89750   0.00004   0.00007   0.00026   0.00033   1.89783
   A12        1.88080  -0.00000  -0.00012   0.00010  -0.00002   1.88078
   A13        1.90630  -0.00000   0.00006   0.00000   0.00006   1.90636
   A14        1.90427  -0.00009  -0.00045  -0.00010  -0.00055   1.90372
   A15        1.95162   0.00001   0.00009   0.00002   0.00010   1.95173
   A16        1.90135   0.00000   0.00004  -0.00007  -0.00003   1.90132
   A17        1.90900   0.00002   0.00013   0.00008   0.00021   1.90921
   A18        1.89066   0.00005   0.00014   0.00007   0.00021   1.89086
   A19        2.14624  -0.00000   0.00005  -0.00004   0.00001   2.14625
   A20        1.92969   0.00002  -0.00003   0.00007   0.00004   1.92973
   A21        2.20724  -0.00002  -0.00003  -0.00003  -0.00005   2.20719
   A22        1.88561   0.00000   0.00004  -0.00001   0.00004   1.88565
   A23        1.93680  -0.00000  -0.00003  -0.00022  -0.00025   1.93655
   A24        1.92811   0.00004   0.00031  -0.00027   0.00004   1.92815
   A25        1.89859  -0.00024  -0.00008  -0.00035  -0.00043   1.89816
   A26        1.90602  -0.00011  -0.00075  -0.00020  -0.00095   1.90507
   A27        1.89510   0.00017   0.00024   0.00063   0.00086   1.89596
   A28        1.89852   0.00015   0.00031   0.00045   0.00077   1.89929
    D1        1.36193   0.00005   0.00224   0.00014   0.00238   1.36431
    D2       -2.85851   0.00002   0.00255  -0.00025   0.00230  -2.85621
    D3       -0.76317   0.00001   0.00219  -0.00011   0.00208  -0.76109
    D4       -2.83915   0.00001   0.00186   0.00021   0.00207  -2.83708
    D5       -0.77640  -0.00002   0.00216  -0.00017   0.00199  -0.77441
    D6        1.31894  -0.00003   0.00180  -0.00003   0.00177   1.32071
    D7       -0.73997   0.00003   0.00173   0.00031   0.00204  -0.73793
    D8        1.32278  -0.00000   0.00204  -0.00008   0.00196   1.32473
    D9       -2.86506  -0.00001   0.00168   0.00006   0.00174  -2.86333
   D10       -0.88640  -0.00006   0.00134  -0.00015   0.00119  -0.88521
   D11       -3.00307   0.00006   0.00210   0.00044   0.00253  -3.00054
   D12        1.19738   0.00000   0.00157   0.00026   0.00183   1.19921
   D13       -2.93828  -0.00006   0.00167  -0.00036   0.00131  -2.93697
   D14        1.22824   0.00006   0.00242   0.00023   0.00265   1.23089
   D15       -0.85450   0.00000   0.00189   0.00006   0.00195  -0.85255
   D16        1.23285  -0.00004   0.00194  -0.00041   0.00153   1.23438
   D17       -0.88381   0.00007   0.00270   0.00018   0.00287  -0.88094
   D18       -2.96655   0.00002   0.00217   0.00000   0.00217  -2.96438
   D19        1.34527  -0.00002   0.00012   0.00017   0.00029   1.34556
   D20       -0.73139   0.00003   0.00031   0.00031   0.00062  -0.73077
   D21       -2.82249   0.00001   0.00038   0.00028   0.00066  -2.82183
   D22       -0.78372  -0.00001  -0.00003   0.00024   0.00021  -0.78351
   D23       -2.86038   0.00004   0.00016   0.00038   0.00054  -2.85984
   D24        1.33171   0.00002   0.00023   0.00035   0.00058   1.33229
   D25       -2.83575  -0.00004  -0.00017   0.00016  -0.00001  -2.83576
   D26        1.37077   0.00001   0.00002   0.00030   0.00032   1.37109
   D27       -0.72032  -0.00001   0.00009   0.00027   0.00036  -0.71996
   D28        1.97393  -0.00000  -0.00006  -0.00016  -0.00022   1.97371
   D29       -1.17265  -0.00005  -0.00094  -0.00013  -0.00107  -1.17372
   D30       -2.19539   0.00001   0.00015  -0.00009   0.00006  -2.19533
   D31        0.94122  -0.00004  -0.00072  -0.00006  -0.00078   0.94043
   D32       -0.12514   0.00006   0.00035  -0.00009   0.00026  -0.12488
   D33        3.01146   0.00001  -0.00052  -0.00006  -0.00058   3.01088
   D34        3.13609   0.00003   0.00037   0.00001   0.00038   3.13647
   D35       -0.01071  -0.00003  -0.00055   0.00005  -0.00050  -0.01121
         Item               Value     Threshold  Converged?
 Maximum Force            0.000424     0.000450     YES
 RMS     Force            0.000081     0.000300     YES
 Maximum Displacement     0.006163     0.001800     NO 
 RMS     Displacement     0.001710     0.001200     NO 
 Predicted change in Energy=-1.003431D-06
 GradGradGradGradGradGradGradGradGradGradGradGradGradGradGradGradGradGrad

                          Input orientation:                          
 ---------------------------------------------------------------------
 Center     Atomic      Atomic             Coordinates (Angstroms)
 Number     Number       Type             X           Y           Z
 ---------------------------------------------------------------------
      1          6           0        0.881794    0.416944    0.171487
      2          9           0        0.923588    0.850957    1.439029
      3          9           0        0.748990    1.464562   -0.648147
      4          6           0        2.211345   -0.322313   -0.164543
      5          9           0        2.174660   -1.552765    0.363345
      6          9           0        2.311837   -0.430807   -1.500781
      7          6           0        3.488677    0.405228    0.350488
      8          9           0        3.614289    0.196551    1.671956
      9          9           0        3.363642    1.715963    0.128723
     10          6           0        4.767099   -0.092390   -0.373220
     11          8           0        5.406398    0.594826   -1.103511
     12          8           0        5.023797   -1.355421   -0.051411
     13          1           0        5.819767   -1.627979   -0.523074
     14          6           0       -0.392339   -0.465345    0.019298
     15          9           0       -0.450667   -1.382026    0.973874
     16          9           0       -0.401689   -1.067660   -1.164387
     17          9           0       -1.463310    0.312235    0.112360
 ---------------------------------------------------------------------
                    Distance matrix (angstroms):
                    1          2          3          4          5
     1  C    0.000000
     2  F    1.340439   0.000000
     3  F    1.336765   2.182498   0.000000
     4  C    1.557923   2.367768   2.359084   0.000000
     5  F    2.363909   2.915503   3.487107   1.339412   0.000000
     6  F    2.358004   3.494658   2.600365   1.344397   2.180041
     7  C    2.613048   2.821928   3.102474   1.557610   2.358081
     8  F    3.125141   2.778916   3.898803   2.368586   2.616315
     9  F    2.801580   2.901551   2.739185   2.359738   3.486160
    10  C    3.956226   4.352784   4.317972   2.574546   3.065284
    11  O    4.704180   5.160010   4.759753   3.454153   4.148247
    12  O    4.510782   4.888889   5.155810   2.998332   2.885923
    13  H    5.389592   5.828168   5.940726   3.854091   3.752094
    14  C    1.557244   2.340929   2.339370   2.614082   2.808974
    15  F    2.378144   2.662923   3.489010   3.083065   2.700784
    16  F    2.374013   3.495029   2.828907   2.895372   3.034282
    17  F    2.348185   2.783442   2.607776   3.739307   4.095857
                    6          7          8          9         10
     6  F    0.000000
     7  C    2.347575   0.000000
     8  F    3.486578   1.343727   0.000000
     9  F    2.893130   1.335231   2.180139   0.000000
    10  C    2.722909   1.551045   2.365419   2.343455   0.000000
    11  O    3.284214   2.414066   3.327686   2.635945   1.189241
    12  O    3.210968   2.370233   2.713914   3.495994   1.328421
    13  H    3.833368   3.214191   3.607105   4.199922   1.867779
    14  C    3.102321   3.991224   4.384341   4.344821   5.187771
    15  F    3.828859   4.370505   4.416230   4.986057   5.541020
    16  F    2.807484   4.427098   5.076530   4.857820   5.319161
    17  F    4.172058   4.958581   5.312978   5.026946   6.262388
                   11         12         13         14         15
    11  O    0.000000
    12  O    2.248725   0.000000
    13  H    2.334233   0.964532   0.000000
    14  C    6.000834   5.489241   6.343197   0.000000
    15  F    6.521402   5.569710   6.451332   1.324735   0.000000
    16  F    6.041643   5.545938   6.279472   1.328149   2.161802
    17  F    6.982198   6.700034   7.563823   1.326752   2.153642
                   16         17
    16  F    0.000000
    17  F    2.158989   0.000000
 Stoichiometry    C5HF9O2
 Framework group  C1[X(C5HF9O2)]
 Deg. of freedom    45
 Full point group                 C1      NOp   1
 Largest Abelian subgroup         C1      NOp   1
 Largest concise Abelian subgroup C1      NOp   1
                         Standard orientation:                         
 ---------------------------------------------------------------------
 Center     Atomic      Atomic             Coordinates (Angstroms)
 Number     Number       Type             X           Y           Z
 ---------------------------------------------------------------------
      1          6           0       -1.071165    0.534775   -0.026083
      2          9           0       -1.067883    1.252301    1.106137
      3          9           0       -1.112934    1.364949   -1.072987
      4          6           0        0.234483   -0.311591   -0.103990
      5          9           0        0.111889   -1.381537    0.692383
      6          9           0        0.392547   -0.734333   -1.370366
      7          6           0        1.520544    0.468514    0.300528
      8          9           0        1.573018    0.571300    1.639290
      9          9           0        1.471302    1.694303   -0.226594
     10          6           0        2.805501   -0.232225   -0.212882
     11          8           0        3.511919    0.240143   -1.044829
     12          8           0        2.983730   -1.393089    0.407870
     13          1           0        3.786615   -1.798126    0.059094
     14          6           0       -2.378867   -0.310603   -0.042167
     15          9           0       -2.527667   -0.974815    1.094321
     16          9           0       -2.362096   -1.173134   -1.051989
     17          9           0       -3.413153    0.506352   -0.194179
 ---------------------------------------------------------------------
 Rotational constants (GHZ):           1.0663385           0.3738345           0.3586362
 Standard basis: 6-311+G(2d,2p) (5D, 7F)
 There are   473 symmetry adapted cartesian basis functions of A   symmetry.
 There are   441 symmetry adapted basis functions of A   symmetry.
   441 basis functions,   683 primitive gaussians,   473 cartesian basis functions
    64 alpha electrons       64 beta electrons
       nuclear repulsion energy      1423.5374476189 Hartrees.
 NAtoms=   17 NActive=   17 NUniq=   17 SFac= 1.00D+00 NAtFMM=   60 NAOKFM=F Big=F
 Integral buffers will be    131072 words long.
 Raffenetti 2 integral format.
 Two-electron integral symmetry is turned on.
 Nuclear repulsion after empirical dispersion term =     1423.5270124314 Hartrees.
 One-electron integrals computed using PRISM.
 NBasis=   441 RedAO= T EigKep=  7.31D-06  NBF=   441
 NBsUse=   441 1.00D-06 EigRej= -1.00D+00 NBFU=   441
 Initial guess from the checkpoint file:  "1_pentane.chk"
 B after Tr=    -0.000000   -0.000000    0.000000
         Rot=    1.000000   -0.000118    0.000036   -0.000032 Ang=  -0.01 deg.
 Requested convergence on RMS density matrix=1.00D-08 within 128 cycles.
 Requested convergence on MAX density matrix=1.00D-06.
 Requested convergence on             energy=1.00D-06.
 No special actions if energy rises.
 SCF Done:  E(RwB97XD) =  -1240.21876156     A.U. after    8 cycles
            NFock=  8  Conv=0.41D-08     -V/T= 2.0026
 Calling FoFJK, ICntrl=      2127 FMM=F ISym2X=0 I1Cent= 0 IOpClX= 0 NMat=1 NMatS=1 NMatT=0.
 ***** Axes restored to original set *****
 -------------------------------------------------------------------
 Center     Atomic                   Forces (Hartrees/Bohr)
 Number     Number              X              Y              Z
 -------------------------------------------------------------------
      1        6          -0.000025929    0.000061650   -0.000008705
      2        9          -0.000001491    0.000000841    0.000006098
      3        9           0.000013768   -0.000020773    0.000018780
      4        6           0.000017465   -0.000024682   -0.000013767
      5        9          -0.000003625    0.000002569   -0.000003604
      6        9          -0.000001160    0.000000667    0.000004119
      7        6           0.000008668    0.000016965    0.000009054
      8        9           0.000001222   -0.000002304   -0.000001671
      9        9          -0.000000721   -0.000010236   -0.000009118
     10        6          -0.000006743   -0.000011797   -0.000009494
     11        8           0.000000580    0.000006140    0.000000258
     12        8          -0.000000531    0.000003618    0.000001159
     13        1          -0.000006414    0.000002044    0.000000983
     14        6          -0.000007714   -0.000030035    0.000008397
     15        9          -0.000000327    0.000018660   -0.000015704
     16        9          -0.000008561    0.000004464    0.000012300
     17        9           0.000021512   -0.000017793    0.000000916
 -------------------------------------------------------------------
 Cartesian Forces:  Max     0.000061650 RMS     0.000014271

 GradGradGradGradGradGradGradGradGradGradGradGradGradGradGradGradGradGrad
 Berny optimization.
 Using GEDIIS/GDIIS optimizer.
 FormGI is forming the generalized inverse of G from B-inverse, IUseBI=4.
 Internal  Forces:  Max     0.000033148 RMS     0.000008659
 Search for a local minimum.
 Step number   8 out of a maximum of   89
 All quantities printed in internal units (Hartrees-Bohrs-Radians)
 Mixed Optimization -- En-DIIS/RFO-DIIS
 Swapping is turned off.
 Update second derivatives using D2CorX and points    1    2    3    4    5
                                                      6    7    8
 DE= -1.00D-06 DEPred=-1.00D-06 R= 1.00D+00
 TightC=F SS=  1.41D+00  RLast= 9.30D-03 DXNew= 6.1041D-01 2.7901D-02
 Trust test= 1.00D+00 RLast= 9.30D-03 DXMaxT set to 3.63D-01
 ITU=  1  1 -1  1  1  1  1  0
     Eigenvalues ---    0.00227   0.00232   0.00295   0.00475   0.02647
     Eigenvalues ---    0.04729   0.05172   0.05496   0.06328   0.06910
     Eigenvalues ---    0.07371   0.07827   0.08842   0.09218   0.13081
     Eigenvalues ---    0.14240   0.14283   0.16000   0.18794   0.19502
     Eigenvalues ---    0.19702   0.21876   0.24434   0.24996   0.25033
     Eigenvalues ---    0.25179   0.25212   0.25781   0.26711   0.27120
     Eigenvalues ---    0.27680   0.29759   0.37581   0.40354   0.53882
     Eigenvalues ---    0.56046   0.56555   0.56751   0.57331   0.57459
     Eigenvalues ---    0.57524   0.58281   0.58757   0.60043   1.10241
 En-DIIS/RFO-DIIS/Sim-DIIS IScMMF=       -3 using points:     8    7    6    5    4    3    2
 RFO step:  Lambda=-3.82805376D-08.
 DidBck=T Rises=F RFO-DIIS coefs:    0.53302    0.21412    0.04916    0.06178    0.07173
                  RFO-DIIS coefs:    0.04805    0.02214
 Iteration  1 RMS(Cart)=  0.00030901 RMS(Int)=  0.00000045
 Iteration  2 RMS(Cart)=  0.00000004 RMS(Int)=  0.00000045
 Variable       Old X    -DE/DX   Delta X   Delta X   Delta X     New X
                                 (Linear)    (Quad)   (Total)
    R1        2.53306   0.00001  -0.00011   0.00011   0.00000   2.53306
    R2        2.52612  -0.00003   0.00003  -0.00006  -0.00003   2.52609
    R3        2.94405   0.00002   0.00019  -0.00014   0.00005   2.94409
    R4        2.94276   0.00001   0.00007  -0.00006   0.00002   2.94278
    R5        2.53112  -0.00000  -0.00003   0.00003  -0.00001   2.53112
    R6        2.54054  -0.00000  -0.00008   0.00008  -0.00001   2.54053
    R7        2.94346  -0.00000   0.00002  -0.00003  -0.00000   2.94345
    R8        2.53928  -0.00000  -0.00003   0.00003  -0.00000   2.53927
    R9        2.52322  -0.00001   0.00003  -0.00004  -0.00001   2.52321
   R10        2.93105  -0.00001  -0.00004   0.00002  -0.00002   2.93103
   R11        2.24734   0.00000   0.00000  -0.00000   0.00000   2.24734
   R12        2.51035  -0.00001   0.00001  -0.00001  -0.00000   2.51035
   R13        1.82270  -0.00001  -0.00001  -0.00000  -0.00001   1.82269
   R14        2.50339  -0.00003   0.00019  -0.00022  -0.00003   2.50336
   R15        2.50984  -0.00001   0.00013  -0.00015  -0.00002   2.50982
   R16        2.50720  -0.00003  -0.00042   0.00038  -0.00004   2.50716
    A1        1.90620  -0.00000  -0.00001   0.00001   0.00000   1.90620
    A2        1.90815   0.00001   0.00012  -0.00010   0.00002   1.90817
    A3        1.87693   0.00001   0.00003  -0.00003  -0.00000   1.87693
    A4        1.90118   0.00000   0.00001  -0.00002  -0.00001   1.90118
    A5        1.87844   0.00002  -0.00001   0.00007   0.00005   1.87849
    A6        1.99143  -0.00003  -0.00014   0.00008  -0.00006   1.99136
    A7        1.90449  -0.00000   0.00003  -0.00004  -0.00000   1.90448
    A8        1.89280   0.00000   0.00006  -0.00006   0.00000   1.89280
    A9        1.98984  -0.00000  -0.00015   0.00014  -0.00000   1.98984
   A10        1.89614  -0.00000   0.00006  -0.00007  -0.00001   1.89614
   A11        1.89783   0.00001  -0.00001   0.00002   0.00002   1.89785
   A12        1.88078  -0.00000  -0.00000  -0.00001  -0.00001   1.88077
   A13        1.90636   0.00000   0.00004  -0.00004   0.00001   1.90636
   A14        1.90372  -0.00000  -0.00001  -0.00001  -0.00002   1.90370
   A15        1.95173  -0.00001  -0.00002  -0.00001  -0.00003   1.95169
   A16        1.90132   0.00000   0.00004  -0.00000   0.00003   1.90135
   A17        1.90921   0.00000  -0.00002   0.00003   0.00000   1.90921
   A18        1.89086   0.00000  -0.00002   0.00003   0.00001   1.89087
   A19        2.14625   0.00000   0.00002  -0.00002  -0.00000   2.14625
   A20        1.92973  -0.00001  -0.00002  -0.00000  -0.00002   1.92971
   A21        2.20719   0.00001  -0.00000   0.00002   0.00002   2.20721
   A22        1.88565  -0.00000   0.00001  -0.00001  -0.00000   1.88565
   A23        1.93655   0.00000  -0.00012   0.00013   0.00002   1.93657
   A24        1.92815   0.00001   0.00009  -0.00005   0.00004   1.92819
   A25        1.89816  -0.00000   0.00018  -0.00022  -0.00003   1.89813
   A26        1.90507  -0.00000  -0.00000  -0.00000  -0.00001   1.90506
   A27        1.89596  -0.00000  -0.00008   0.00007  -0.00001   1.89595
   A28        1.89929  -0.00001  -0.00008   0.00007  -0.00001   1.89928
    D1        1.36431  -0.00000  -0.00021   0.00011  -0.00010   1.36420
    D2       -2.85621  -0.00000  -0.00008  -0.00003  -0.00011  -2.85632
    D3       -0.76109  -0.00000  -0.00013   0.00001  -0.00012  -0.76121
    D4       -2.83708  -0.00000  -0.00015   0.00005  -0.00010  -2.83717
    D5       -0.77441  -0.00000  -0.00001  -0.00009  -0.00010  -0.77451
    D6        1.32071  -0.00000  -0.00006  -0.00005  -0.00011   1.32060
    D7       -0.73793   0.00001  -0.00025   0.00018  -0.00007  -0.73801
    D8        1.32473   0.00000  -0.00012   0.00004  -0.00008   1.32466
    D9       -2.86333   0.00000  -0.00017   0.00008  -0.00009  -2.86342
   D10       -0.88521   0.00001  -0.00008   0.00008  -0.00000  -0.88522
   D11       -3.00054   0.00000  -0.00006   0.00003  -0.00003  -3.00057
   D12        1.19921   0.00000  -0.00014   0.00011  -0.00003   1.19918
   D13       -2.93697  -0.00000  -0.00008   0.00005  -0.00003  -2.93700
   D14        1.23089  -0.00001  -0.00006  -0.00001  -0.00007   1.23083
   D15       -0.85255  -0.00001  -0.00014   0.00007  -0.00006  -0.85261
   D16        1.23438   0.00000   0.00001  -0.00003  -0.00002   1.23436
   D17       -0.88094  -0.00000   0.00003  -0.00008  -0.00005  -0.88099
   D18       -2.96438  -0.00000  -0.00005   0.00000  -0.00005  -2.96443
   D19        1.34556  -0.00000  -0.00036  -0.00006  -0.00042   1.34514
   D20       -0.73077  -0.00001  -0.00042  -0.00003  -0.00045  -0.73122
   D21       -2.82183  -0.00000  -0.00037  -0.00006  -0.00043  -2.82226
   D22       -0.78351   0.00000  -0.00030  -0.00012  -0.00042  -0.78393
   D23       -2.85984  -0.00000  -0.00036  -0.00009  -0.00046  -2.86029
   D24        1.33229  -0.00000  -0.00031  -0.00012  -0.00043   1.33186
   D25       -2.83576   0.00000  -0.00037  -0.00005  -0.00042  -2.83618
   D26        1.37109  -0.00000  -0.00043  -0.00002  -0.00045   1.37064
   D27       -0.71996  -0.00000  -0.00038  -0.00005  -0.00043  -0.72039
   D28        1.97371   0.00000   0.00001   0.00017   0.00019   1.97390
   D29       -1.17372  -0.00000  -0.00001   0.00012   0.00011  -1.17361
   D30       -2.19533  -0.00000   0.00004   0.00014   0.00018  -2.19515
   D31        0.94043  -0.00000   0.00002   0.00008   0.00010   0.94053
   D32       -0.12488   0.00001   0.00006   0.00017   0.00022  -0.12465
   D33        3.01088   0.00000   0.00003   0.00011   0.00015   3.01103
   D34        3.13647   0.00000  -0.00001   0.00004   0.00003   3.13650
   D35       -0.01121  -0.00000  -0.00004  -0.00001  -0.00005  -0.01127
         Item               Value     Threshold  Converged?
 Maximum Force            0.000033     0.000450     YES
 RMS     Force            0.000009     0.000300     YES
 Maximum Displacement     0.000996     0.001800     YES
 RMS     Displacement     0.000309     0.001200     YES
 Predicted change in Energy=-1.468536D-08
 Optimization completed.
    -- Stationary point found.
                           ----------------------------
                           !   Optimized Parameters   !
                           ! (Angstroms and Degrees)  !
 --------------------------                            --------------------------
 ! Name  Definition              Value          Derivative Info.                !
 --------------------------------------------------------------------------------
 ! R1    R(1,2)                  1.3404         -DE/DX =    0.0                 !
 ! R2    R(1,3)                  1.3368         -DE/DX =    0.0                 !
 ! R3    R(1,4)                  1.5579         -DE/DX =    0.0                 !
 ! R4    R(1,14)                 1.5572         -DE/DX =    0.0                 !
 ! R5    R(4,5)                  1.3394         -DE/DX =    0.0                 !
 ! R6    R(4,6)                  1.3444         -DE/DX =    0.0                 !
 ! R7    R(4,7)                  1.5576         -DE/DX =    0.0                 !
 ! R8    R(7,8)                  1.3437         -DE/DX =    0.0                 !
 ! R9    R(7,9)                  1.3352         -DE/DX =    0.0                 !
 ! R10   R(7,10)                 1.551          -DE/DX =    0.0                 !
 ! R11   R(10,11)                1.1892         -DE/DX =    0.0                 !
 ! R12   R(10,12)                1.3284         -DE/DX =    0.0                 !
 ! R13   R(12,13)                0.9645         -DE/DX =    0.0                 !
 ! R14   R(14,15)                1.3247         -DE/DX =    0.0                 !
 ! R15   R(14,16)                1.3281         -DE/DX =    0.0                 !
 ! R16   R(14,17)                1.3268         -DE/DX =    0.0                 !
 ! A1    A(2,1,3)              109.2173         -DE/DX =    0.0                 !
 ! A2    A(2,1,4)              109.329          -DE/DX =    0.0                 !
 ! A3    A(2,1,14)             107.5401         -DE/DX =    0.0                 !
 ! A4    A(3,1,4)              108.9298         -DE/DX =    0.0                 !
 ! A5    A(3,1,14)             107.6265         -DE/DX =    0.0                 !
 ! A6    A(4,1,14)             114.1003         -DE/DX =    0.0                 !
 ! A7    A(1,4,5)              109.119          -DE/DX =    0.0                 !
 ! A8    A(1,4,6)              108.4494         -DE/DX =    0.0                 !
 ! A9    A(1,4,7)              114.0096         -DE/DX =    0.0                 !
 ! A10   A(5,4,6)              108.6411         -DE/DX =    0.0                 !
 ! A11   A(5,4,7)              108.7376         -DE/DX =    0.0                 !
 ! A12   A(6,4,7)              107.7608         -DE/DX =    0.0                 !
 ! A13   A(4,7,8)              109.2262         -DE/DX =    0.0                 !
 ! A14   A(4,7,9)              109.0752         -DE/DX =    0.0                 !
 ! A15   A(4,7,10)             111.8256         -DE/DX =    0.0                 !
 ! A16   A(8,7,9)              108.9376         -DE/DX =    0.0                 !
 ! A17   A(8,7,10)             109.3898         -DE/DX =    0.0                 !
 ! A18   A(9,7,10)             108.3385         -DE/DX =    0.0                 !
 ! A19   A(7,10,11)            122.971          -DE/DX =    0.0                 !
 ! A20   A(7,10,12)            110.5653         -DE/DX =    0.0                 !
 ! A21   A(11,10,12)           126.4628         -DE/DX =    0.0                 !
 ! A22   A(10,12,13)           108.0396         -DE/DX =    0.0                 !
 ! A23   A(1,14,15)            110.9562         -DE/DX =    0.0                 !
 ! A24   A(1,14,16)            110.475          -DE/DX =    0.0                 !
 ! A25   A(1,14,17)            108.7567         -DE/DX =    0.0                 !
 ! A26   A(15,14,16)           109.1524         -DE/DX =    0.0                 !
 ! A27   A(15,14,17)           108.6306         -DE/DX =    0.0                 !
 ! A28   A(16,14,17)           108.8212         -DE/DX =    0.0                 !
 ! D1    D(2,1,4,5)             78.169          -DE/DX =    0.0                 !
 ! D2    D(2,1,4,6)           -163.6488         -DE/DX =    0.0                 !
 ! D3    D(2,1,4,7)            -43.607          -DE/DX =    0.0                 !
 ! D4    D(3,1,4,5)           -162.5526         -DE/DX =    0.0                 !
 ! D5    D(3,1,4,6)            -44.3704         -DE/DX =    0.0                 !
 ! D6    D(3,1,4,7)             75.6714         -DE/DX =    0.0                 !
 ! D7    D(14,1,4,5)           -42.2805         -DE/DX =    0.0                 !
 ! D8    D(14,1,4,6)            75.9017         -DE/DX =    0.0                 !
 ! D9    D(14,1,4,7)          -164.0565         -DE/DX =    0.0                 !
 ! D10   D(2,1,14,15)          -50.719          -DE/DX =    0.0                 !
 ! D11   D(2,1,14,16)         -171.9182         -DE/DX =    0.0                 !
 ! D12   D(2,1,14,17)           68.7094         -DE/DX =    0.0                 !
 ! D13   D(3,1,14,15)         -168.276          -DE/DX =    0.0                 !
 ! D14   D(3,1,14,16)           70.5249         -DE/DX =    0.0                 !
 ! D15   D(3,1,14,17)          -48.8475         -DE/DX =    0.0                 !
 ! D16   D(4,1,14,15)           70.725          -DE/DX =    0.0                 !
 ! D17   D(4,1,14,16)          -50.4741         -DE/DX =    0.0                 !
 ! D18   D(4,1,14,17)         -169.8465         -DE/DX =    0.0                 !
 ! D19   D(1,4,7,8)             77.0946         -DE/DX =    0.0                 !
 ! D20   D(1,4,7,9)            -41.8703         -DE/DX =    0.0                 !
 ! D21   D(1,4,7,10)          -161.6789         -DE/DX =    0.0                 !
 ! D22   D(5,4,7,8)            -44.8917         -DE/DX =    0.0                 !
 ! D23   D(5,4,7,9)           -163.8566         -DE/DX =    0.0                 !
 ! D24   D(5,4,7,10)            76.3348         -DE/DX =    0.0                 !
 ! D25   D(6,4,7,8)           -162.4773         -DE/DX =    0.0                 !
 ! D26   D(6,4,7,9)             78.5578         -DE/DX =    0.0                 !
 ! D27   D(6,4,7,10)           -41.2508         -DE/DX =    0.0                 !
 ! D28   D(4,7,10,11)          113.0853         -DE/DX =    0.0                 !
 ! D29   D(4,7,10,12)          -67.2489         -DE/DX =    0.0                 !
 ! D30   D(8,7,10,11)         -125.7829         -DE/DX =    0.0                 !
 ! D31   D(8,7,10,12)           53.8829         -DE/DX =    0.0                 !
 ! D32   D(9,7,10,11)           -7.1549         -DE/DX =    0.0                 !
 ! D33   D(9,7,10,12)          172.5108         -DE/DX =    0.0                 !
 ! D34   D(7,10,12,13)         179.7063         -DE/DX =    0.0                 !
 ! D35   D(11,10,12,13)         -0.6424         -DE/DX =    0.0                 !
 --------------------------------------------------------------------------------
 GradGradGradGradGradGradGradGradGradGradGradGradGradGradGradGradGradGrad

                          Input orientation:                          
 ---------------------------------------------------------------------
 Center     Atomic      Atomic             Coordinates (Angstroms)
 Number     Number       Type             X           Y           Z
 ---------------------------------------------------------------------
      1          6           0        0.881794    0.416944    0.171487
      2          9           0        0.923588    0.850957    1.439029
      3          9           0        0.748990    1.464562   -0.648147
      4          6           0        2.211345   -0.322313   -0.164543
      5          9           0        2.174660   -1.552765    0.363345
      6          9           0        2.311837   -0.430807   -1.500781
      7          6           0        3.488677    0.405228    0.350488
      8          9           0        3.614289    0.196551    1.671956
      9          9           0        3.363642    1.715963    0.128723
     10          6           0        4.767099   -0.092390   -0.373220
     11          8           0        5.406398    0.594826   -1.103511
     12          8           0        5.023797   -1.355421   -0.051411
     13          1           0        5.819767   -1.627979   -0.523074
     14          6           0       -0.392339   -0.465345    0.019298
     15          9           0       -0.450667   -1.382026    0.973874
     16          9           0       -0.401689   -1.067660   -1.164387
     17          9           0       -1.463310    0.312235    0.112360
 ---------------------------------------------------------------------
                    Distance matrix (angstroms):
                    1          2          3          4          5
     1  C    0.000000
     2  F    1.340439   0.000000
     3  F    1.336765   2.182498   0.000000
     4  C    1.557923   2.367768   2.359084   0.000000
     5  F    2.363909   2.915503   3.487107   1.339412   0.000000
     6  F    2.358004   3.494658   2.600365   1.344397   2.180041
     7  C    2.613048   2.821928   3.102474   1.557610   2.358081
     8  F    3.125141   2.778916   3.898803   2.368586   2.616315
     9  F    2.801580   2.901551   2.739185   2.359738   3.486160
    10  C    3.956226   4.352784   4.317972   2.574546   3.065284
    11  O    4.704180   5.160010   4.759753   3.454153   4.148247
    12  O    4.510782   4.888889   5.155810   2.998332   2.885923
    13  H    5.389592   5.828168   5.940726   3.854091   3.752094
    14  C    1.557244   2.340929   2.339370   2.614082   2.808974
    15  F    2.378144   2.662923   3.489010   3.083065   2.700784
    16  F    2.374013   3.495029   2.828907   2.895372   3.034282
    17  F    2.348185   2.783442   2.607776   3.739307   4.095857
                    6          7          8          9         10
     6  F    0.000000
     7  C    2.347575   0.000000
     8  F    3.486578   1.343727   0.000000
     9  F    2.893130   1.335231   2.180139   0.000000
    10  C    2.722909   1.551045   2.365419   2.343455   0.000000
    11  O    3.284214   2.414066   3.327686   2.635945   1.189241
    12  O    3.210968   2.370233   2.713914   3.495994   1.328421
    13  H    3.833368   3.214191   3.607105   4.199922   1.867779
    14  C    3.102321   3.991224   4.384341   4.344821   5.187771
    15  F    3.828859   4.370505   4.416230   4.986057   5.541020
    16  F    2.807484   4.427098   5.076530   4.857820   5.319161
    17  F    4.172058   4.958581   5.312978   5.026946   6.262388
                   11         12         13         14         15
    11  O    0.000000
    12  O    2.248725   0.000000
    13  H    2.334233   0.964532   0.000000
    14  C    6.000834   5.489241   6.343197   0.000000
    15  F    6.521402   5.569710   6.451332   1.324735   0.000000
    16  F    6.041643   5.545938   6.279472   1.328149   2.161802
    17  F    6.982198   6.700034   7.563823   1.326752   2.153642
                   16         17
    16  F    0.000000
    17  F    2.158989   0.000000
 Stoichiometry    C5HF9O2
 Framework group  C1[X(C5HF9O2)]
 Deg. of freedom    45
 Full point group                 C1      NOp   1
 Largest Abelian subgroup         C1      NOp   1
 Largest concise Abelian subgroup C1      NOp   1
                         Standard orientation:                         
 ---------------------------------------------------------------------
 Center     Atomic      Atomic             Coordinates (Angstroms)
 Number     Number       Type             X           Y           Z
 ---------------------------------------------------------------------
      1          6           0       -1.071165    0.534775   -0.026083
      2          9           0       -1.067883    1.252301    1.106137
      3          9           0       -1.112934    1.364949   -1.072987
      4          6           0        0.234483   -0.311591   -0.103990
      5          9           0        0.111889   -1.381537    0.692383
      6          9           0        0.392547   -0.734333   -1.370366
      7          6           0        1.520544    0.468514    0.300528
      8          9           0        1.573018    0.571300    1.639290
      9          9           0        1.471302    1.694303   -0.226594
     10          6           0        2.805501   -0.232225   -0.212882
     11          8           0        3.511919    0.240143   -1.044829
     12          8           0        2.983730   -1.393089    0.407870
     13          1           0        3.786615   -1.798126    0.059094
     14          6           0       -2.378867   -0.310603   -0.042167
     15          9           0       -2.527667   -0.974815    1.094321
     16          9           0       -2.362096   -1.173134   -1.051989
     17          9           0       -3.413153    0.506352   -0.194179
 ---------------------------------------------------------------------
 Rotational constants (GHZ):           1.0663385           0.3738345           0.3586362

 **********************************************************************

            Population analysis using the SCF density.

 **********************************************************************

 Orbital symmetries:
       Occupied  (A) (A) (A) (A) (A) (A) (A) (A) (A) (A) (A) (A)
                 (A) (A) (A) (A) (A) (A) (A) (A) (A) (A) (A) (A)
                 (A) (A) (A) (A) (A) (A) (A) (A) (A) (A) (A) (A)
                 (A) (A) (A) (A) (A) (A) (A) (A) (A) (A) (A) (A)
                 (A) (A) (A) (A) (A) (A) (A) (A) (A) (A) (A) (A)
                 (A) (A) (A) (A)
       Virtual   (A) (A) (A) (A) (A) (A) (A) (A) (A) (A) (A) (A)
                 (A) (A) (A) (A) (A) (A) (A) (A) (A) (A) (A) (A)
                 (A) (A) (A) (A) (A) (A) (A) (A) (A) (A) (A) (A)
                 (A) (A) (A) (A) (A) (A) (A) (A) (A) (A) (A) (A)
                 (A) (A) (A) (A) (A) (A) (A) (A) (A) (A) (A) (A)
                 (A) (A) (A) (A) (A) (A) (A) (A) (A) (A) (A) (A)
                 (A) (A) (A) (A) (A) (A) (A) (A) (A) (A) (A) (A)
                 (A) (A) (A) (A) (A) (A) (A) (A) (A) (A) (A) (A)
                 (A) (A) (A) (A) (A) (A) (A) (A) (A) (A) (A) (A)
                 (A) (A) (A) (A) (A) (A) (A) (A) (A) (A) (A) (A)
                 (A) (A) (A) (A) (A) (A) (A) (A) (A) (A) (A) (A)
                 (A) (A) (A) (A) (A) (A) (A) (A) (A) (A) (A) (A)
                 (A) (A) (A) (A) (A) (A) (A) (A) (A) (A) (A) (A)
                 (A) (A) (A) (A) (A) (A) (A) (A) (A) (A) (A) (A)
                 (A) (A) (A) (A) (A) (A) (A) (A) (A) (A) (A) (A)
                 (A) (A) (A) (A) (A) (A) (A) (A) (A) (A) (A) (A)
                 (A) (A) (A) (A) (A) (A) (A) (A) (A) (A) (A) (A)
                 (A) (A) (A) (A) (A) (A) (A) (A) (A) (A) (A) (A)
                 (A) (A) (A) (A) (A) (A) (A) (A) (A) (A) (A) (A)
                 (A) (A) (A) (A) (A) (A) (A) (A) (A) (A) (A) (A)
                 (A) (A) (A) (A) (A) (A) (A) (A) (A) (A) (A) (A)
                 (A) (A) (A) (A) (A) (A) (A) (A) (A) (A) (A) (A)
                 (A) (A) (A) (A) (A) (A) (A) (A) (A) (A) (A) (A)
                 (A) (A) (A) (A) (A) (A) (A) (A) (A) (A) (A) (A)
                 (A) (A) (A) (A) (A) (A) (A) (A) (A) (A) (A) (A)
                 (A) (A) (A) (A) (A) (A) (A) (A) (A) (A) (A) (A)
                 (A) (A) (A) (A) (A) (A) (A) (A) (A) (A) (A) (A)
                 (A) (A) (A) (A) (A) (A) (A) (A) (A) (A) (A) (A)
                 (A) (A) (A) (A) (A) (A) (A) (A) (A) (A) (A) (A)
                 (A) (A) (A) (A) (A) (A) (A) (A) (A) (A) (A) (A)
                 (A) (A) (A) (A) (A) (A) (A) (A) (A) (A) (A) (A)
                 (A) (A) (A) (A) (A)
 The electronic state is 1-A.
 Alpha  occ. eigenvalues --  -24.88032 -24.87972 -24.87898 -24.87884 -24.87817
 Alpha  occ. eigenvalues --  -24.87812 -24.87644 -24.86931 -24.86907 -19.34680
 Alpha  occ. eigenvalues --  -19.28936 -10.58335 -10.52786 -10.52738 -10.51968
 Alpha  occ. eigenvalues --  -10.47185  -1.47379  -1.44422  -1.42598  -1.42040
 Alpha  occ. eigenvalues --   -1.38254  -1.37608  -1.37352  -1.36546  -1.35958
 Alpha  occ. eigenvalues --   -1.27050  -1.18133  -0.95307  -0.91626  -0.85764
 Alpha  occ. eigenvalues --   -0.80485  -0.77726  -0.75258  -0.74900  -0.74163
 Alpha  occ. eigenvalues --   -0.72610  -0.71926  -0.71580  -0.70066  -0.68607
 Alpha  occ. eigenvalues --   -0.68087  -0.62509  -0.61478  -0.61123  -0.60451
 Alpha  occ. eigenvalues --   -0.60050  -0.59649  -0.59052  -0.58665  -0.57798
 Alpha  occ. eigenvalues --   -0.57292  -0.56893  -0.55996  -0.55705  -0.54940
 Alpha  occ. eigenvalues --   -0.54617  -0.53957  -0.53841  -0.53652  -0.52904
 Alpha  occ. eigenvalues --   -0.50422  -0.46049  -0.45742  -0.41223
 Alpha virt. eigenvalues --    0.01504   0.04988   0.07449   0.08205   0.08527
 Alpha virt. eigenvalues --    0.09772   0.10701   0.10932   0.11589   0.12586
 Alpha virt. eigenvalues --    0.12884   0.13337   0.13836   0.14583   0.15461
 Alpha virt. eigenvalues --    0.16611   0.16750   0.17605   0.18072   0.18858
 Alpha virt. eigenvalues --    0.20312   0.21347   0.22166   0.22830   0.23043
 Alpha virt. eigenvalues --    0.24332   0.25163   0.25728   0.26748   0.27119
 Alpha virt. eigenvalues --    0.27466   0.28277   0.30151   0.30341   0.30752
 Alpha virt. eigenvalues --    0.31283   0.31668   0.32074   0.33012   0.33299
 Alpha virt. eigenvalues --    0.33619   0.34103   0.34806   0.34898   0.35849
 Alpha virt. eigenvalues --    0.36464   0.36683   0.37204   0.38361   0.39419
 Alpha virt. eigenvalues --    0.39866   0.40314   0.40799   0.41760   0.42204
 Alpha virt. eigenvalues --    0.42638   0.43535   0.43854   0.44054   0.44200
 Alpha virt. eigenvalues --    0.45180   0.46126   0.46441   0.47557   0.47836
 Alpha virt. eigenvalues --    0.48108   0.49291   0.49690   0.50311   0.50846
 Alpha virt. eigenvalues --    0.52478   0.53031   0.54017   0.54698   0.55185
 Alpha virt. eigenvalues --    0.56494   0.57290   0.57955   0.58858   0.59288
 Alpha virt. eigenvalues --    0.62450   0.63214   0.66461   0.67015   0.69015
 Alpha virt. eigenvalues --    0.69771   0.71168   0.71621   0.73294   0.73999
 Alpha virt. eigenvalues --    0.74719   0.77044   0.79022   0.80856   0.81188
 Alpha virt. eigenvalues --    0.82115   0.84359   0.85661   0.87426   0.90141
 Alpha virt. eigenvalues --    0.91949   0.94973   0.95674   0.98928   1.02439
 Alpha virt. eigenvalues --    1.02975   1.05106   1.09462   1.10181   1.11153
 Alpha virt. eigenvalues --    1.12145   1.13383   1.14942   1.15866   1.16404
 Alpha virt. eigenvalues --    1.18528   1.19988   1.21139   1.22777   1.25698
 Alpha virt. eigenvalues --    1.26885   1.27826   1.30993   1.31416   1.33330
 Alpha virt. eigenvalues --    1.34622   1.36191   1.37723   1.39391   1.39790
 Alpha virt. eigenvalues --    1.41219   1.42265   1.42337   1.43409   1.44695
 Alpha virt. eigenvalues --    1.45064   1.45215   1.46439   1.46538   1.47693
 Alpha virt. eigenvalues --    1.48080   1.49001   1.50184   1.50538   1.51926
 Alpha virt. eigenvalues --    1.52143   1.53046   1.53804   1.54465   1.54752
 Alpha virt. eigenvalues --    1.56511   1.57339   1.58107   1.58897   1.60583
 Alpha virt. eigenvalues --    1.61436   1.61596   1.64202   1.65346   1.67138
 Alpha virt. eigenvalues --    1.69144   1.71368   1.74815   1.75692   1.76493
 Alpha virt. eigenvalues --    1.83073   1.83726   1.87254   1.92925   1.93929
 Alpha virt. eigenvalues --    1.98557   2.01196   2.01868   2.03380   2.04700
 Alpha virt. eigenvalues --    2.06336   2.07060   2.08105   2.09642   2.11765
 Alpha virt. eigenvalues --    2.12765   2.13182   2.13794   2.14886   2.15435
 Alpha virt. eigenvalues --    2.17447   2.19314   2.19640   2.21501   2.24923
 Alpha virt. eigenvalues --    2.25796   2.26180   2.27721   2.31656   2.32910
 Alpha virt. eigenvalues --    2.34914   2.35888   2.36662   2.38885   2.40165
 Alpha virt. eigenvalues --    2.40820   2.45248   2.45613   2.47367   2.49671
 Alpha virt. eigenvalues --    2.55248   2.56268   2.57581   2.60049   2.62529
 Alpha virt. eigenvalues --    2.64369   2.65168   2.68593   2.70316   2.71576
 Alpha virt. eigenvalues --    2.74800   2.76218   2.77541   2.79484   2.82435
 Alpha virt. eigenvalues --    2.84174   2.86944   2.89682   2.90430   2.94361
 Alpha virt. eigenvalues --    2.99737   3.01483   3.08289   3.12812   3.14788
 Alpha virt. eigenvalues --    3.23909   3.24968   3.25782   3.37201   3.40730
 Alpha virt. eigenvalues --    3.41555   3.47750   3.48319   3.50671   3.51917
 Alpha virt. eigenvalues --    3.53235   3.54426   3.55266   3.58336   3.59105
 Alpha virt. eigenvalues --    3.61507   3.62732   3.64357   3.66815   3.70274
 Alpha virt. eigenvalues --    3.72905   3.74616   3.75380   3.77450   3.79306
 Alpha virt. eigenvalues --    3.81389   3.83077   3.86317   3.90532   3.96010
 Alpha virt. eigenvalues --    4.00965   4.07095   4.11809   4.26005   4.30935
 Alpha virt. eigenvalues --    4.32102   4.35287   4.37081   4.38400   4.39478
 Alpha virt. eigenvalues --    4.41753   4.45768   4.50868   5.10904   5.15310
 Alpha virt. eigenvalues --    5.32374   5.62645   5.99011   6.31802   6.41104
 Alpha virt. eigenvalues --    6.43068   6.43940   6.44331   6.45415   6.47790
 Alpha virt. eigenvalues --    6.48185   6.49664   6.50981   6.51228   6.52251
 Alpha virt. eigenvalues --    6.52737   6.53790   6.54875   6.55200   6.56962
 Alpha virt. eigenvalues --    6.59469   6.61001   6.66576   6.69717   6.70699
 Alpha virt. eigenvalues --    6.74399   6.82822   6.87150   6.88329   6.90062
 Alpha virt. eigenvalues --    6.91916   6.93497   6.94737   6.99398   7.04960
 Alpha virt. eigenvalues --    7.15231   7.18346   7.24816   7.29021   7.44761
 Alpha virt. eigenvalues --    7.52896   9.08618   9.09597   9.10565   9.11009
 Alpha virt. eigenvalues --    9.11830   9.12874   9.15302   9.17584   9.18702
 Alpha virt. eigenvalues --    9.19854   9.20205   9.21523   9.21740   9.23037
 Alpha virt. eigenvalues --    9.24444   9.25943   9.26220   9.26456   9.27183
 Alpha virt. eigenvalues --    9.28611   9.28898   9.29727   9.34918   9.35582
 Alpha virt. eigenvalues --    9.40549   9.42468   9.44182   9.45924   9.51144
 Alpha virt. eigenvalues --    9.54532   9.64222   9.65675   9.67718   9.68753
 Alpha virt. eigenvalues --    9.72017   9.73550   9.76583   9.77849   9.78054
 Alpha virt. eigenvalues --    9.80040   9.82183   9.84457   9.88251   9.90185
 Alpha virt. eigenvalues --    9.92132  23.95842  23.98523  24.01037  24.06639
 Alpha virt. eigenvalues --   24.20782  50.06150  50.14215  66.93527  66.94804
 Alpha virt. eigenvalues --   66.95266  66.97124  66.99033  67.00588  67.01849
 Alpha virt. eigenvalues --   67.04796  67.05705
          Condensed to atoms (all electrons):
               1          2          3          4          5          6
     1  C    9.692400   0.308474   0.375391  -4.124154  -0.202129  -0.098621
     2  F    0.308474   9.117936   0.002666  -0.094884   0.011695  -0.000741
     3  F    0.375391   0.002666   9.076176  -0.087216   0.000324   0.021406
     4  C   -4.124154  -0.094884  -0.087216  11.925492   0.401714   0.348713
     5  F   -0.202129   0.011695   0.000324   0.401714   9.096010   0.011685
     6  F   -0.098621  -0.000741   0.021406   0.348713   0.011685   9.101907
     7  C    1.863527  -0.013418  -0.014754  -4.038498  -0.121885  -0.195978
     8  F   -0.012713   0.007854  -0.001217  -0.102658   0.021451  -0.000018
     9  F   -0.040037   0.016040   0.008065  -0.065215  -0.000616   0.010186
    10  C   -0.542204   0.025960  -0.009692   0.639520  -0.030198   0.061720
    11  O    0.010744   0.000105  -0.000223  -0.096005   0.000983   0.004174
    12  O    0.016503  -0.000074  -0.000070  -0.015870   0.004429   0.003026
    13  H   -0.002155   0.000003  -0.000007   0.008438   0.000144  -0.000554
    14  C   -1.435980  -0.148168  -0.155225   0.943585   0.041936  -0.019144
    15  F   -0.070943   0.021969  -0.000954   0.019173   0.006314  -0.002658
    16  F   -0.073031   0.000968   0.015771  -0.017756   0.007942   0.004378
    17  F   -0.127947   0.018593   0.021292   0.043125   0.000006  -0.001031
               7          8          9         10         11         12
     1  C    1.863527  -0.012713  -0.040037  -0.542204   0.010744   0.016503
     2  F   -0.013418   0.007854   0.016040   0.025960   0.000105  -0.000074
     3  F   -0.014754  -0.001217   0.008065  -0.009692  -0.000223  -0.000070
     4  C   -4.038498  -0.102658  -0.065215   0.639520  -0.096005  -0.015870
     5  F   -0.121885   0.021451  -0.000616  -0.030198   0.000983   0.004429
     6  F   -0.195978  -0.000018   0.010186   0.061720   0.004174   0.003026
     7  C    9.450225   0.317695   0.284779  -1.223881   0.088696  -0.112580
     8  F    0.317695   9.095114  -0.003254  -0.070705  -0.005698   0.012487
     9  F    0.284779  -0.003254   9.136543  -0.113251  -0.000538   0.005152
    10  C   -1.223881  -0.070705  -0.113251   5.920737   0.407009   0.361801
    11  O    0.088696  -0.005698  -0.000538   0.407009   8.038206  -0.094553
    12  O   -0.112580   0.012487   0.005152   0.361801  -0.094553   7.920274
    13  H   -0.038615  -0.001162  -0.000111   0.027123   0.015510   0.236471
    14  C   -0.666284  -0.010436   0.031066  -0.004603  -0.000982   0.002089
    15  F   -0.016016  -0.000586   0.000091   0.002711  -0.000010   0.000058
    16  F    0.040082  -0.000028  -0.000020   0.003135  -0.000006   0.000006
    17  F    0.008512   0.000040  -0.000001   0.000119   0.000000  -0.000014
              13         14         15         16         17
     1  C   -0.002155  -1.435980  -0.070943  -0.073031  -0.127947
     2  F    0.000003  -0.148168   0.021969   0.000968   0.018593
     3  F   -0.000007  -0.155225  -0.000954   0.015771   0.021292
     4  C    0.008438   0.943585   0.019173  -0.017756   0.043125
     5  F    0.000144   0.041936   0.006314   0.007942   0.000006
     6  F   -0.000554  -0.019144  -0.002658   0.004378  -0.001031
     7  C   -0.038615  -0.666284  -0.016016   0.040082   0.008512
     8  F   -0.001162  -0.010436  -0.000586  -0.000028   0.000040
     9  F   -0.000111   0.031066   0.000091  -0.000020  -0.000001
    10  C    0.027123  -0.004603   0.002711   0.003135   0.000119
    11  O    0.015510  -0.000982  -0.000010  -0.000006   0.000000
    12  O    0.236471   0.002089   0.000058   0.000006  -0.000014
    13  H    0.466423  -0.000172  -0.000004  -0.000002  -0.000000
    14  C   -0.000172   5.610275   0.275090   0.216096   0.217852
    15  F   -0.000004   0.275090   9.037951   0.006708  -0.007520
    16  F   -0.000002   0.216096   0.006708   9.082081   0.003805
    17  F   -0.000000   0.217852  -0.007520   0.003805   9.115246
 Mulliken charges:
               1
     1  C    0.462873
     2  F   -0.274979
     3  F   -0.251734
     4  C    0.312495
     5  F   -0.249803
     6  F   -0.248450
     7  C    0.388393
     8  F   -0.246166
     9  F   -0.268879
    10  C    0.544700
    11  O   -0.367413
    12  O   -0.339136
    13  H    0.288672
    14  C    1.103007
    15  F   -0.271372
    16  F   -0.290130
    17  F   -0.292077
 Sum of Mulliken charges =  -0.00000
 Mulliken charges with hydrogens summed into heavy atoms:
               1
     1  C    0.462873
     2  F   -0.274979
     3  F   -0.251734
     4  C    0.312495
     5  F   -0.249803
     6  F   -0.248450
     7  C    0.388393
     8  F   -0.246166
     9  F   -0.268879
    10  C    0.544700
    11  O   -0.367413
    12  O   -0.050464
    14  C    1.103007
    15  F   -0.271372
    16  F   -0.290130
    17  F   -0.292077
 Electronic spatial extent (au):  <R**2>=           3014.8080
 Charge=             -0.0000 electrons
 Dipole moment (field-independent basis, Debye):
    X=              1.1945    Y=             -1.9608    Z=              0.5186  Tot=              2.3538
 Quadrupole moment (field-independent basis, Debye-Ang):
   XX=            -79.9089   YY=            -83.8961   ZZ=            -88.6801
   XY=             -8.3598   XZ=              3.1311   YZ=              1.6901
 Traceless Quadrupole moment (field-independent basis, Debye-Ang):
   XX=              4.2528   YY=              0.2656   ZZ=             -4.5184
   XY=             -8.3598   XZ=              3.1311   YZ=              1.6901
 Octapole moment (field-independent basis, Debye-Ang**2):
  XXX=              7.2445  YYY=             -5.7801  ZZZ=              2.6664  XYY=              5.9477
  XXY=            -36.4036  XXZ=             16.0239  XZZ=            -15.5430  YZZ=              0.6385
  YYZ=             -0.2200  XYZ=              4.8603
 Hexadecapole moment (field-independent basis, Debye-Ang**3):
 XXXX=          -2158.9984 YYYY=           -491.8144 ZZZZ=           -398.8548 XXXY=           -139.4526
 XXXZ=             71.8171 YYYX=            -25.9578 YYYZ=              3.5906 ZZZX=             11.0171
 ZZZY=              0.6401 XXYY=           -401.9192 XXZZ=           -476.4505 YYZZ=           -152.4775
 XXYZ=             16.6035 YYXZ=             -0.8531 ZZXY=              0.8595
 N-N= 1.423527012431D+03 E-N=-5.789900886742D+03  KE= 1.236982433911D+03
 1\1\GINC-CCLEARMN\FOpt\RwB97XD\6-311+G(2d,2p)\C5H1F9O2\RAPPE\12-Jan-20
 21\0\\# opt wb97xd/6-311+g(2d,2p) geom=connectivity\\Title Card Requir
 ed\\0,1\C,0.8817940792,0.4169435901,0.1714870039\F,0.9235877215,0.8509
 571832,1.4390286931\F,0.7489901262,1.464561547,-0.648147002\C,2.211345
 3017,-0.3223130907,-0.164542511\F,2.1746595852,-1.5527654774,0.3633453
 703\F,2.3118367722,-0.430806766,-1.5007812814\C,3.4886772827,0.4052280
 33,0.3504883975\F,3.6142886925,0.1965513589,1.6719562619\F,3.363641608
 9,1.7159634974,0.1287233734\C,4.7670991027,-0.0923900915,-0.3732203461
 \O,5.4063983857,0.5948263961,-1.1035105635\O,5.023797214,-1.355421494,
 -0.051411092\H,5.8197673277,-1.6279789227,-0.5230741784\C,-0.392338753
 6,-0.4653446596,0.019297722\F,-0.4506666034,-1.3820259092,0.973874345\
 F,-0.4016893749,-1.0676598021,-1.1643872143\F,-1.4633098783,0.31223536
 76,0.1123596716\\Version=EM64M-G16RevA.03\State=1-A\HF=-1240.2187616\R
 MSD=4.099e-09\RMSF=1.427e-05\Dipole=0.5092501,-0.7734298,-0.0051991\Qu
 adrupole=3.8591265,-1.2072129,-2.6519135,-6.2692517,0.4152598,2.262969
 6\PG=C01 [X(C5H1F9O2)]\\@


 IF THE FACTS DO NOT CONFORM TO THE THEORY, THEY MUST BE DISPOSED OF.
 Job cpu time:       0 days  5 hours 34 minutes 35.1 seconds.
 Elapsed time:       0 days  0 hours 42 minutes 53.1 seconds.
 File lengths (MBytes):  RWF=    120 Int=      0 D2E=      0 Chk=     15 Scr=      1
 Normal termination of Gaussian 16 at Tue Jan 12 18:03:38 2021.
