 Entering Gaussian System, Link 0=/applications/g16/g16/g16
 Initial command:
 /applications/g16/g16/l1.exe "/scratch/g98/Gau-71282.inp" -scrdir="/scratch/g98/"
 Entering Link 1 = /applications/g16/g16/l1.exe PID=     71283.
  
 Copyright (c) 1988,1990,1992,1993,1995,1998,2003,2009,2016,
            Gaussian, Inc.  All Rights Reserved.
  
 This is part of the Gaussian(R) 16 program.  It is based on
 the Gaussian(R) 09 system (copyright 2009, Gaussian, Inc.),
 the Gaussian(R) 03 system (copyright 2003, Gaussian, Inc.),
 the Gaussian(R) 98 system (copyright 1998, Gaussian, Inc.),
 the Gaussian(R) 94 system (copyright 1995, Gaussian, Inc.),
 the Gaussian 92(TM) system (copyright 1992, Gaussian, Inc.),
 the Gaussian 90(TM) system (copyright 1990, Gaussian, Inc.),
 the Gaussian 88(TM) system (copyright 1988, Gaussian, Inc.),
 the Gaussian 86(TM) system (copyright 1986, Carnegie Mellon
 University), and the Gaussian 82(TM) system (copyright 1983,
 Carnegie Mellon University). Gaussian is a federally registered
 trademark of Gaussian, Inc.
  
 This software contains proprietary and confidential information,
 including trade secrets, belonging to Gaussian, Inc.
  
 This software is provided under written license and may be
 used, copied, transmitted, or stored only in accord with that
 written license.
  
 The following legend is applicable only to US Government
 contracts under FAR:
  
                    RESTRICTED RIGHTS LEGEND
  
 Use, reproduction and disclosure by the US Government is
 subject to restrictions as set forth in subparagraphs (a)
 and (c) of the Commercial Computer Software - Restricted
 Rights clause in FAR 52.227-19.
  
 Gaussian, Inc.
 340 Quinnipiac St., Bldg. 40, Wallingford CT 06492
  
  
 ---------------------------------------------------------------
 Warning -- This program may not be used in any manner that
 competes with the business of Gaussian, Inc. or will provide
 assistance to any competitor of Gaussian, Inc.  The licensee
 of this program is prohibited from giving any competitor of
 Gaussian, Inc. access to this program.  By using this program,
 the user acknowledges that Gaussian, Inc. is engaged in the
 business of creating and licensing software in the field of
 computational chemistry and represents and warrants to the
 licensee that it is not a competitor of Gaussian, Inc. and that
 it will not use this program in any manner prohibited above.
 ---------------------------------------------------------------
  

 Cite this work as:
 Gaussian 16, Revision A.03,
 M. J. Frisch, G. W. Trucks, H. B. Schlegel, G. E. Scuseria, 
 M. A. Robb, J. R. Cheeseman, G. Scalmani, V. Barone, 
 G. A. Petersson, H. Nakatsuji, X. Li, M. Caricato, A. V. Marenich, 
 J. Bloino, B. G. Janesko, R. Gomperts, B. Mennucci, H. P. Hratchian, 
 J. V. Ortiz, A. F. Izmaylov, J. L. Sonnenberg, D. Williams-Young, 
 F. Ding, F. Lipparini, F. Egidi, J. Goings, B. Peng, A. Petrone, 
 T. Henderson, D. Ranasinghe, V. G. Zakrzewski, J. Gao, N. Rega, 
 G. Zheng, W. Liang, M. Hada, M. Ehara, K. Toyota, R. Fukuda, 
 J. Hasegawa, M. Ishida, T. Nakajima, Y. Honda, O. Kitao, H. Nakai, 
 T. Vreven, K. Throssell, J. A. Montgomery, Jr., J. E. Peralta, 
 F. Ogliaro, M. J. Bearpark, J. J. Heyd, E. N. Brothers, K. N. Kudin, 
 V. N. Staroverov, T. A. Keith, R. Kobayashi, J. Normand, 
 K. Raghavachari, A. P. Rendell, J. C. Burant, S. S. Iyengar, 
 J. Tomasi, M. Cossi, J. M. Millam, M. Klene, C. Adamo, R. Cammi, 
 J. W. Ochterski, R. L. Martin, K. Morokuma, O. Farkas, 
 J. B. Foresman, and D. J. Fox, Gaussian, Inc., Wallingford CT, 2016.
 
 ******************************************
 Gaussian 16:  EM64M-G16RevA.03 25-Dec-2016
                12-Jan-2026 
 ******************************************
 %mem=48GB
 %nprocshared=24
 Will use up to   24 processors via shared memory.
 %chk=ethane.chk
 --------------------------------------------------
 # opt wb97xd/6-311+g(2d,2p) geom=connectivity freq
 --------------------------------------------------
 1/18=20,19=15,26=3,38=1,57=2/1,3;
 2/9=110,12=2,17=6,18=5,40=1/2;
 3/5=4,6=6,7=212,11=2,25=1,30=1,71=1,74=-58/1,2,3;
 4//1;
 5/5=2,38=5/2;
 6/7=2,8=2,9=2,10=2,28=1/1;
 7//1,2,3,16;
 1/18=20,19=15,26=3/3(2);
 2/9=110/2;
 99//99;
 2/9=110/2;
 3/5=4,6=6,7=212,11=2,25=1,30=1,71=1,74=-58/1,2,3;
 4/5=5,16=3,69=1/1;
 5/5=2,38=5/2;
 7//1,2,3,16;
 1/18=20,19=15,26=3/3(-5);
 2/9=110/2;
 6/7=2,8=2,9=2,10=2,19=2,28=1/1;
 99/9=1/99;
 -------------------
 Title Card Required
 -------------------
 Symbolic Z-matrix:
 Charge =  0 Multiplicity = 1
 C                    -0.60078   0.75179   0. 
 F                    -0.23319   1.44132   1.09406 
 F                    -0.23319   1.44132  -1.09406 
 C                     0.12172  -0.60347   0. 
 F                    -0.23319  -1.29725   1.08097 
 F                     1.43906  -0.45491   0. 
 F                    -0.23319  -1.29725  -1.08097 
 H                    -1.6822    0.61093   0. 
 

 GradGradGradGradGradGradGradGradGradGradGradGradGradGradGradGradGradGrad
 Berny optimization.
 Initialization pass.
                           ----------------------------
                           !    Initial Parameters    !
                           ! (Angstroms and Degrees)  !
 --------------------------                            --------------------------
 ! Name  Definition              Value          Derivative Info.                !
 --------------------------------------------------------------------------------
 ! R1    R(1,2)                  1.3444         estimate D2E/DX2                !
 ! R2    R(1,3)                  1.3444         estimate D2E/DX2                !
 ! R3    R(1,4)                  1.5358         estimate D2E/DX2                !
 ! R4    R(1,8)                  1.0905         estimate D2E/DX2                !
 ! R5    R(4,5)                  1.3326         estimate D2E/DX2                !
 ! R6    R(4,6)                  1.3257         estimate D2E/DX2                !
 ! R7    R(4,7)                  1.3326         estimate D2E/DX2                !
 ! A1    A(2,1,3)              108.9299         estimate D2E/DX2                !
 ! A2    A(2,1,4)              108.9025         estimate D2E/DX2                !
 ! A3    A(2,1,8)              109.7164         estimate D2E/DX2                !
 ! A4    A(3,1,4)              108.9025         estimate D2E/DX2                !
 ! A5    A(3,1,8)              109.7164         estimate D2E/DX2                !
 ! A6    A(4,1,8)              110.6411         estimate D2E/DX2                !
 ! A7    A(1,4,5)              109.5196         estimate D2E/DX2                !
 ! A8    A(1,4,6)              111.6282         estimate D2E/DX2                !
 ! A9    A(1,4,7)              109.5196         estimate D2E/DX2                !
 ! A10   A(5,4,6)              108.844          estimate D2E/DX2                !
 ! A11   A(5,4,7)              108.4234         estimate D2E/DX2                !
 ! A12   A(6,4,7)              108.844          estimate D2E/DX2                !
 ! D1    D(2,1,4,5)             61.2777         estimate D2E/DX2                !
 ! D2    D(2,1,4,6)            -59.3331         estimate D2E/DX2                !
 ! D3    D(2,1,4,7)           -179.9438         estimate D2E/DX2                !
 ! D4    D(3,1,4,5)            179.9438         estimate D2E/DX2                !
 ! D5    D(3,1,4,6)             59.3331         estimate D2E/DX2                !
 ! D6    D(3,1,4,7)            -61.2777         estimate D2E/DX2                !
 ! D7    D(8,1,4,5)            -59.3893         estimate D2E/DX2                !
 ! D8    D(8,1,4,6)            180.0            estimate D2E/DX2                !
 ! D9    D(8,1,4,7)             59.3893         estimate D2E/DX2                !
 --------------------------------------------------------------------------------
 Trust Radius=3.00D-01 FncErr=1.00D-07 GrdErr=1.00D-06 EigMax=2.50D+02 EigMin=1.00D-04
 Number of steps in this run=     38 maximum allowed number of steps=    100.
 GradGradGradGradGradGradGradGradGradGradGradGradGradGradGradGradGradGrad

                          Input orientation:                          
 ---------------------------------------------------------------------
 Center     Atomic      Atomic             Coordinates (Angstroms)
 Number     Number       Type             X           Y           Z
 ---------------------------------------------------------------------
      1          6           0       -0.600780    0.751791    0.000000
      2          9           0       -0.233193    1.441324    1.094057
      3          9           0       -0.233193    1.441324   -1.094057
      4          6           0        0.121715   -0.603470    0.000000
      5          9           0       -0.233193   -1.297248    1.080972
      6          9           0        1.439061   -0.454914    0.000000
      7          9           0       -0.233193   -1.297248   -1.080972
      8          1           0       -1.682195    0.610934    0.000000
 ---------------------------------------------------------------------
                    Distance matrix (angstroms):
                    1          2          3          4          5
     1  C    0.000000
     2  F    1.344447   0.000000
     3  F    1.344447   2.188114   0.000000
     4  C    1.535816   2.346082   2.346082   0.000000
     5  F    2.345673   2.738603   3.497217   1.332587   0.000000
     6  F    2.370040   2.754834   2.754834   1.325696   2.162050
     7  F    2.345673   3.497217   2.738603   1.332587   2.161944
     8  H    1.090550   1.996526   1.996526   2.174596   2.628548
                    6          7          8
     6  F    0.000000
     7  F    2.162050   0.000000
     8  H    3.298222   2.628548   0.000000
 Stoichiometry    C2HF5
 Framework group  CS[SG(C2HF),X(F4)]
 Deg. of freedom    11
 Full point group                 CS      NOp   2
 Largest Abelian subgroup         CS      NOp   2
 Largest concise Abelian subgroup CS      NOp   2
                         Standard orientation:                         
 ---------------------------------------------------------------------
 Center     Atomic      Atomic             Coordinates (Angstroms)
 Number     Number       Type             X           Y           Z
 ---------------------------------------------------------------------
      1          6           0       -0.600780    0.751791    0.000000
      2          9           0       -0.233193    1.441324    1.094057
      3          9           0       -0.233193    1.441324   -1.094057
      4          6           0        0.121715   -0.603470   -0.000000
      5          9           0       -0.233193   -1.297248    1.080972
      6          9           0        1.439061   -0.454914   -0.000000
      7          9           0       -0.233193   -1.297248   -1.080972
      8          1           0       -1.682195    0.610934    0.000000
 ---------------------------------------------------------------------
 Rotational constants (GHZ):           3.6967569           2.4165656           2.0040226
 Standard basis: 6-311+G(2d,2p) (5D, 7F)
 There are   128 symmetry adapted cartesian basis functions of A'  symmetry.
 There are    84 symmetry adapted cartesian basis functions of A"  symmetry.
 There are   118 symmetry adapted basis functions of A'  symmetry.
 There are    80 symmetry adapted basis functions of A"  symmetry.
   198 basis functions,   305 primitive gaussians,   212 cartesian basis functions
    29 alpha electrons       29 beta electrons
       nuclear repulsion energy       360.3481790252 Hartrees.
 NAtoms=    8 NActive=    8 NUniq=    6 SFac= 1.78D+00 NAtFMM=   60 NAOKFM=F Big=F
 Integral buffers will be    131072 words long.
 Raffenetti 2 integral format.
 Two-electron integral symmetry is turned on.
 Nuclear repulsion after empirical dispersion term =      360.3459876939 Hartrees.
 One-electron integrals computed using PRISM.
 NBasis=   198 RedAO= T EigKep=  1.53D-04  NBF=   118    80
 NBsUse=   198 1.00D-06 EigRej= -1.00D+00 NBFU=   118    80
 ExpMin= 4.38D-02 ExpMax= 1.14D+04 ExpMxC= 1.72D+03 IAcc=3 IRadAn=         5 AccDes= 0.00D+00
 Harris functional with IExCor= 4639 and IRadAn=       5 diagonalized for initial guess.
 HarFok:  IExCor= 4639 AccDes= 0.00D+00 IRadAn=         5 IDoV= 1 UseB2=F ITyADJ=14
 ICtDFT=  3500011 ScaDFX=  1.000000  1.000000  1.000000  1.000000
 FoFCou: FMM=F IPFlag=           0 FMFlag=      100000 FMFlg1=           0
         NFxFlg=           0 DoJE=T BraDBF=F KetDBF=T FulRan=T
         wScrn=  0.000000 ICntrl=       500 IOpCl=  0 I1Cent=   200000004 NGrid=           0
         NMat0=    1 NMatS0=      1 NMatT0=    0 NMatD0=    1 NMtDS0=    0 NMtDT0=    0
 Petite list used in FoFCou.
 Initial guess orbital symmetries:
       Occupied  (A') (A') (A") (A') (A") (A') (A') (A') (A') (A")
                 (A') (A") (A') (A') (A') (A') (A") (A') (A") (A')
                 (A") (A') (A") (A') (A") (A') (A") (A") (A')
       Virtual   (A') (A') (A') (A") (A') (A") (A') (A') (A') (A")
                 (A') (A") (A') (A") (A') (A') (A') (A") (A') (A")
                 (A') (A") (A') (A') (A") (A') (A') (A") (A") (A')
                 (A') (A") (A') (A") (A') (A') (A') (A") (A') (A')
                 (A') (A") (A") (A') (A') (A') (A') (A') (A") (A")
                 (A') (A') (A") (A') (A") (A') (A") (A') (A") (A')
                 (A') (A") (A") (A') (A') (A") (A') (A') (A") (A')
                 (A') (A") (A") (A') (A") (A') (A") (A') (A") (A')
                 (A") (A') (A") (A") (A') (A") (A') (A") (A') (A')
                 (A") (A') (A') (A") (A") (A') (A") (A') (A') (A')
                 (A') (A") (A') (A') (A') (A") (A') (A') (A") (A")
                 (A') (A') (A") (A') (A') (A") (A') (A") (A") (A')
                 (A') (A') (A") (A') (A') (A") (A") (A') (A") (A')
                 (A') (A") (A') (A') (A") (A") (A') (A") (A") (A")
                 (A') (A") (A') (A') (A") (A") (A') (A') (A") (A')
                 (A") (A') (A") (A') (A') (A') (A') (A") (A') (A")
                 (A") (A') (A') (A') (A") (A') (A') (A") (A')
 The electronic state of the initial guess is 1-A'.
 Keep R1 ints in memory in symmetry-blocked form, NReq=582613521.
 Requested convergence on RMS density matrix=1.00D-08 within 128 cycles.
 Requested convergence on MAX density matrix=1.00D-06.
 Requested convergence on             energy=1.00D-06.
 No special actions if energy rises.
 SCF Done:  E(RwB97XD) =  -576.060191033     A.U. after   12 cycles
            NFock= 12  Conv=0.43D-08     -V/T= 2.0025

 **********************************************************************

            Population analysis using the SCF density.

 **********************************************************************

 Orbital symmetries:
       Occupied  (A") (A') (A') (A') (A") (A') (A') (A') (A') (A")
                 (A') (A") (A') (A') (A') (A") (A') (A') (A") (A')
                 (A") (A') (A") (A') (A") (A") (A') (A") (A')
       Virtual   (A') (A") (A') (A') (A') (A") (A') (A") (A') (A')
                 (A') (A") (A') (A') (A") (A') (A') (A") (A') (A')
                 (A') (A") (A') (A") (A") (A') (A') (A') (A") (A')
                 (A") (A") (A') (A") (A') (A') (A') (A") (A') (A')
                 (A') (A") (A") (A') (A') (A') (A') (A') (A") (A")
                 (A') (A') (A") (A') (A") (A') (A") (A') (A") (A')
                 (A') (A") (A") (A') (A') (A') (A") (A') (A") (A')
                 (A') (A") (A") (A') (A') (A") (A") (A') (A") (A')
                 (A") (A') (A") (A") (A') (A") (A') (A") (A') (A')
                 (A") (A') (A') (A") (A") (A') (A") (A') (A') (A')
                 (A') (A") (A') (A') (A') (A") (A') (A') (A") (A")
                 (A') (A') (A") (A') (A') (A") (A') (A") (A") (A')
                 (A') (A') (A") (A') (A') (A") (A") (A') (A") (A')
                 (A') (A") (A') (A') (A") (A") (A') (A") (A") (A')
                 (A") (A") (A') (A') (A") (A") (A') (A') (A") (A')
                 (A") (A') (A") (A') (A') (A') (A') (A") (A') (A")
                 (A") (A') (A') (A') (A") (A') (A') (A") (A')
 The electronic state is 1-A'.
 Alpha  occ. eigenvalues --  -24.87161 -24.87160 -24.87035 -24.85740 -24.85740
 Alpha  occ. eigenvalues --  -10.56900 -10.49404  -1.46163  -1.40640  -1.36871
 Alpha  occ. eigenvalues --   -1.36759  -1.34621  -0.90693  -0.80522  -0.73369
 Alpha  occ. eigenvalues --   -0.72787  -0.72725  -0.68024  -0.67738  -0.59540
 Alpha  occ. eigenvalues --   -0.59247  -0.58989  -0.56527  -0.55267  -0.54974
 Alpha  occ. eigenvalues --   -0.53310  -0.53069  -0.52824  -0.46392
 Alpha virt. eigenvalues --    0.06499   0.08978   0.09138   0.09349   0.12862
 Alpha virt. eigenvalues --    0.13360   0.13688   0.16643   0.17402   0.19521
 Alpha virt. eigenvalues --    0.22409   0.26362   0.27201   0.27376   0.28928
 Alpha virt. eigenvalues --    0.29848   0.32725   0.33254   0.33458   0.33798
 Alpha virt. eigenvalues --    0.35692   0.36143   0.37491   0.37818   0.40054
 Alpha virt. eigenvalues --    0.40101   0.41625   0.42827   0.43732   0.44069
 Alpha virt. eigenvalues --    0.44856   0.50072   0.50110   0.51163   0.51964
 Alpha virt. eigenvalues --    0.55958   0.60953   0.64897   0.67998   0.71792
 Alpha virt. eigenvalues --    0.75025   0.77405   0.83402   0.86442   0.94937
 Alpha virt. eigenvalues --    1.00210   1.03216   1.08685   1.09423   1.15237
 Alpha virt. eigenvalues --    1.20526   1.26075   1.26966   1.31348   1.32727
 Alpha virt. eigenvalues --    1.34218   1.37189   1.37938   1.39341   1.40756
 Alpha virt. eigenvalues --    1.43815   1.44351   1.45539   1.46421   1.46870
 Alpha virt. eigenvalues --    1.50609   1.51064   1.52265   1.52308   1.60343
 Alpha virt. eigenvalues --    1.61743   1.64283   1.90442   1.93871   1.97840
 Alpha virt. eigenvalues --    1.98050   2.02807   2.06603   2.07868   2.08583
 Alpha virt. eigenvalues --    2.10761   2.11631   2.14616   2.15868   2.19779
 Alpha virt. eigenvalues --    2.21521   2.25544   2.30156   2.33625   2.44684
 Alpha virt. eigenvalues --    2.51261   2.54691   2.63464   2.64732   2.65500
 Alpha virt. eigenvalues --    2.69741   2.74588   2.81119   2.86348   2.89783
 Alpha virt. eigenvalues --    3.02585   3.11123   3.13254   3.25497   3.45125
 Alpha virt. eigenvalues --    3.45815   3.49577   3.52274   3.53605   3.55701
 Alpha virt. eigenvalues --    3.58579   3.59144   3.61857   3.64407   3.81161
 Alpha virt. eigenvalues --    4.09469   4.10488   4.27591   4.32770   4.32981
 Alpha virt. eigenvalues --    4.44830   4.93311   6.38405   6.38825   6.39849
 Alpha virt. eigenvalues --    6.40215   6.43467   6.46002   6.46482   6.47349
 Alpha virt. eigenvalues --    6.50062   6.51577   6.54073   6.65817   6.82975
 Alpha virt. eigenvalues --    6.87158   6.88244   9.07770   9.10392   9.11088
 Alpha virt. eigenvalues --    9.11295   9.15447   9.17966   9.21276   9.21842
 Alpha virt. eigenvalues --    9.23381   9.24551   9.26276   9.26343   9.33973
 Alpha virt. eigenvalues --    9.35005   9.40546   9.47688   9.50754   9.63374
 Alpha virt. eigenvalues --    9.69208   9.73620   9.74389   9.75708   9.82247
 Alpha virt. eigenvalues --    9.88663   9.88912  23.96291  24.06003  66.92678
 Alpha virt. eigenvalues --   66.93908  66.94558  66.94677  67.00977
          Condensed to atoms (all electrons):
               1          2          3          4          5          6
     1  C    4.524042   0.216292   0.216292   0.345570  -0.090300  -0.087243
     2  F    0.216292   9.158268   0.008053  -0.088158   0.018394   0.016889
     3  F    0.216292   0.008053   9.158268  -0.088158   0.000156   0.016889
     4  C    0.345570  -0.088158  -0.088158   4.327687   0.252666   0.243631
     5  F   -0.090300   0.018394   0.000156   0.252666   9.115010  -0.000627
     6  F   -0.087243   0.016889   0.016889   0.243631  -0.000627   9.092435
     7  F   -0.090300   0.000156   0.018394   0.252666  -0.000348  -0.000627
     8  H    0.470317  -0.040227  -0.040227  -0.054887   0.001804   0.004991
               7          8
     1  C   -0.090300   0.470317
     2  F    0.000156  -0.040227
     3  F    0.018394  -0.040227
     4  C    0.252666  -0.054887
     5  F   -0.000348   0.001804
     6  F   -0.000627   0.004991
     7  F    9.115010   0.001804
     8  H    0.001804   0.501561
 Mulliken charges:
               1
     1  C    0.495331
     2  F   -0.289666
     3  F   -0.289666
     4  C    0.808984
     5  F   -0.296754
     6  F   -0.286338
     7  F   -0.296754
     8  H    0.154865
 Sum of Mulliken charges =  -0.00000
 Mulliken charges with hydrogens summed into heavy atoms:
               1
     1  C    0.650195
     2  F   -0.289666
     3  F   -0.289666
     4  C    0.808984
     5  F   -0.296754
     6  F   -0.286338
     7  F   -0.296754
 Electronic spatial extent (au):  <R**2>=            596.4805
 Charge=              0.0000 electrons
 Dipole moment (field-independent basis, Debye):
    X=             -1.5895    Y=             -0.0630    Z=             -0.0000  Tot=              1.5907
 Quadrupole moment (field-independent basis, Debye-Ang):
   XX=            -34.0570   YY=            -38.9673   ZZ=            -38.7774
   XY=             -0.9515   XZ=              0.0000   YZ=              0.0000
 Traceless Quadrupole moment (field-independent basis, Debye-Ang):
   XX=              3.2102   YY=             -1.7001   ZZ=             -1.5102
   XY=             -0.9515   XZ=              0.0000   YZ=              0.0000
 Octapole moment (field-independent basis, Debye-Ang**2):
  XXX=             -2.3936  YYY=             -2.9505  ZZZ=              0.0000  XYY=              1.6478
  XXY=              1.7436  XXZ=              0.0000  XZZ=              2.1463  YZZ=             -1.3355
  YYZ=             -0.0000  XYZ=              0.0000
 Hexadecapole moment (field-independent basis, Debye-Ang**3):
 XXXX=           -107.9378 YYYY=           -290.1966 ZZZZ=           -165.6476 XXXY=             18.7036
 XXXZ=              0.0000 YYYX=             20.0022 YYYZ=             -0.0000 ZZZX=              0.0000
 ZZZY=             -0.0000 XXYY=            -65.3913 XXZZ=            -46.7632 YYZZ=            -79.5542
 XXYZ=              0.0000 YYXZ=              0.0000 ZZXY=              7.9287
 N-N= 3.603459876939D+02 E-N=-2.090494027478D+03  KE= 5.746052354662D+02
 Symmetry A'   KE= 3.648214940636D+02
 Symmetry A"   KE= 2.097837414026D+02
 Calling FoFJK, ICntrl=      2127 FMM=F ISym2X=1 I1Cent= 0 IOpClX= 0 NMat=1 NMatS=1 NMatT=0.
 ***** Axes restored to original set *****
 -------------------------------------------------------------------
 Center     Atomic                   Forces (Hartrees/Bohr)
 Number     Number              X              Y              Z
 -------------------------------------------------------------------
      1        6           0.000051704    0.000158344   -0.000000000
      2        9          -0.000019721   -0.000039517   -0.000082915
      3        9          -0.000019721   -0.000039517    0.000082915
      4        6           0.000303194   -0.000026877    0.000000000
      5        9          -0.000056699   -0.000026880    0.000061833
      6        9          -0.000116299    0.000006159   -0.000000000
      7        9          -0.000056699   -0.000026880   -0.000061833
      8        1          -0.000085759   -0.000004832    0.000000000
 -------------------------------------------------------------------
 Cartesian Forces:  Max     0.000303194 RMS     0.000085271

 GradGradGradGradGradGradGradGradGradGradGradGradGradGradGradGradGradGrad
 Berny optimization.
 FormGI is forming the generalized inverse of G from B-inverse, IUseBI=4.
 Internal  Forces:  Max     0.000115021 RMS     0.000050091
 Search for a local minimum.
 Step number   1 out of a maximum of   38
 All quantities printed in internal units (Hartrees-Bohrs-Radians)
 Mixed Optimization -- En-DIIS/RFO-DIIS
 Second derivative matrix not updated -- first step.
 ITU=  0
     Eigenvalues ---    0.00292   0.06016   0.07769   0.08461   0.08866
     Eigenvalues ---    0.16000   0.23362   0.24092   0.25000   0.25000
     Eigenvalues ---    0.25000   0.28893   0.34749   0.56220   0.56220
     Eigenvalues ---    0.58899   0.58899   0.60534
 RFO step:  Lambda=-1.84806158D-07 EMin= 2.92167851D-03
 Linear search not attempted -- first point.
 Iteration  1 RMS(Cart)=  0.00012501 RMS(Int)=  0.00000003
 Iteration  2 RMS(Cart)=  0.00000002 RMS(Int)=  0.00000002
 ClnCor:  largest displacement from symmetrization is 1.79D-11 for atom     3.
 Variable       Old X    -DE/DX   Delta X   Delta X   Delta X     New X
                                 (Linear)    (Quad)   (Total)
    R1        2.54064  -0.00009   0.00000  -0.00017  -0.00017   2.54047
    R2        2.54064  -0.00009   0.00000  -0.00017  -0.00017   2.54047
    R3        2.90227   0.00010   0.00000   0.00035   0.00035   2.90262
    R4        2.06084   0.00009   0.00000   0.00025   0.00025   2.06109
    R5        2.51822   0.00008   0.00000   0.00013   0.00013   2.51836
    R6        2.50520  -0.00012   0.00000  -0.00019  -0.00019   2.50501
    R7        2.51822   0.00008   0.00000   0.00013   0.00013   2.51836
    A1        1.90119  -0.00001   0.00000  -0.00012  -0.00012   1.90106
    A2        1.90071   0.00000   0.00000  -0.00001  -0.00001   1.90070
    A3        1.91491  -0.00000   0.00000   0.00001   0.00001   1.91493
    A4        1.90071   0.00000   0.00000  -0.00001  -0.00001   1.90070
    A5        1.91491  -0.00000   0.00000   0.00001   0.00001   1.91493
    A6        1.93105   0.00001   0.00000   0.00010   0.00010   1.93115
    A7        1.91148  -0.00005   0.00000  -0.00022  -0.00022   1.91126
    A8        1.94828  -0.00001   0.00000   0.00004   0.00004   1.94832
    A9        1.91148  -0.00005   0.00000  -0.00022  -0.00022   1.91126
   A10        1.89969   0.00004   0.00000   0.00022   0.00022   1.89991
   A11        1.89234   0.00002   0.00000  -0.00004  -0.00004   1.89230
   A12        1.89969   0.00004   0.00000   0.00022   0.00022   1.89991
    D1        1.06950   0.00002   0.00000   0.00023   0.00023   1.06973
    D2       -1.03556   0.00001   0.00000   0.00008   0.00008  -1.03548
    D3       -3.14061  -0.00001   0.00000  -0.00008  -0.00008  -3.14069
    D4        3.14061   0.00001   0.00000   0.00008   0.00008   3.14069
    D5        1.03556  -0.00001   0.00000  -0.00008  -0.00008   1.03548
    D6       -1.06950  -0.00002   0.00000  -0.00023  -0.00023  -1.06973
    D7       -1.03654   0.00001   0.00000   0.00016   0.00016  -1.03638
    D8        3.14159  -0.00000   0.00000   0.00000   0.00000   3.14159
    D9        1.03654  -0.00001   0.00000  -0.00016  -0.00016   1.03638
         Item               Value     Threshold  Converged?
 Maximum Force            0.000115     0.000450     YES
 RMS     Force            0.000050     0.000300     YES
 Maximum Displacement     0.000388     0.001800     YES
 RMS     Displacement     0.000125     0.001200     YES
 Predicted change in Energy=-9.239879D-08
 Optimization completed.
    -- Stationary point found.
                           ----------------------------
                           !   Optimized Parameters   !
                           ! (Angstroms and Degrees)  !
 --------------------------                            --------------------------
 ! Name  Definition              Value          Derivative Info.                !
 --------------------------------------------------------------------------------
 ! R1    R(1,2)                  1.3444         -DE/DX =   -0.0001              !
 ! R2    R(1,3)                  1.3444         -DE/DX =   -0.0001              !
 ! R3    R(1,4)                  1.5358         -DE/DX =    0.0001              !
 ! R4    R(1,8)                  1.0905         -DE/DX =    0.0001              !
 ! R5    R(4,5)                  1.3326         -DE/DX =    0.0001              !
 ! R6    R(4,6)                  1.3257         -DE/DX =   -0.0001              !
 ! R7    R(4,7)                  1.3326         -DE/DX =    0.0001              !
 ! A1    A(2,1,3)              108.9299         -DE/DX =    0.0                 !
 ! A2    A(2,1,4)              108.9025         -DE/DX =    0.0                 !
 ! A3    A(2,1,8)              109.7164         -DE/DX =    0.0                 !
 ! A4    A(3,1,4)              108.9025         -DE/DX =    0.0                 !
 ! A5    A(3,1,8)              109.7164         -DE/DX =    0.0                 !
 ! A6    A(4,1,8)              110.6411         -DE/DX =    0.0                 !
 ! A7    A(1,4,5)              109.5196         -DE/DX =    0.0                 !
 ! A8    A(1,4,6)              111.6282         -DE/DX =    0.0                 !
 ! A9    A(1,4,7)              109.5196         -DE/DX =    0.0                 !
 ! A10   A(5,4,6)              108.844          -DE/DX =    0.0                 !
 ! A11   A(5,4,7)              108.4234         -DE/DX =    0.0                 !
 ! A12   A(6,4,7)              108.844          -DE/DX =    0.0                 !
 ! D1    D(2,1,4,5)             61.2777         -DE/DX =    0.0                 !
 ! D2    D(2,1,4,6)            -59.3331         -DE/DX =    0.0                 !
 ! D3    D(2,1,4,7)           -179.9438         -DE/DX =    0.0                 !
 ! D4    D(3,1,4,5)            179.9438         -DE/DX =    0.0                 !
 ! D5    D(3,1,4,6)             59.3331         -DE/DX =    0.0                 !
 ! D6    D(3,1,4,7)            -61.2777         -DE/DX =    0.0                 !
 ! D7    D(8,1,4,5)            -59.3893         -DE/DX =    0.0                 !
 ! D8    D(8,1,4,6)            180.0            -DE/DX =    0.0                 !
 ! D9    D(8,1,4,7)             59.3893         -DE/DX =    0.0                 !
 --------------------------------------------------------------------------------
 GradGradGradGradGradGradGradGradGradGradGradGradGradGradGradGradGradGrad

                          Input orientation:                          
 ---------------------------------------------------------------------
 Center     Atomic      Atomic             Coordinates (Angstroms)
 Number     Number       Type             X           Y           Z
 ---------------------------------------------------------------------
      1          6           0       -0.600780    0.751791   -0.000000
      2          9           0       -0.233193    1.441324    1.094057
      3          9           0       -0.233193    1.441324   -1.094057
      4          6           0        0.121715   -0.603470    0.000000
      5          9           0       -0.233193   -1.297248    1.080972
      6          9           0        1.439061   -0.454914    0.000000
      7          9           0       -0.233193   -1.297248   -1.080972
      8          1           0       -1.682195    0.610934   -0.000000
 ---------------------------------------------------------------------
                    Distance matrix (angstroms):
                    1          2          3          4          5
     1  C    0.000000
     2  F    1.344447   0.000000
     3  F    1.344447   2.188114   0.000000
     4  C    1.535816   2.346082   2.346082   0.000000
     5  F    2.345673   2.738603   3.497217   1.332587   0.000000
     6  F    2.370040   2.754834   2.754834   1.325696   2.162050
     7  F    2.345673   3.497217   2.738603   1.332587   2.161944
     8  H    1.090550   1.996526   1.996526   2.174596   2.628548
                    6          7          8
     6  F    0.000000
     7  F    2.162050   0.000000
     8  H    3.298222   2.628548   0.000000
 Stoichiometry    C2HF5
 Framework group  CS[SG(C2HF),X(F4)]
 Deg. of freedom    11
 Full point group                 CS      NOp   2
 Largest Abelian subgroup         CS      NOp   2
 Largest concise Abelian subgroup CS      NOp   2
                         Standard orientation:                         
 ---------------------------------------------------------------------
 Center     Atomic      Atomic             Coordinates (Angstroms)
 Number     Number       Type             X           Y           Z
 ---------------------------------------------------------------------
      1          6           0       -0.600780    0.751791    0.000000
      2          9           0       -0.233193    1.441324    1.094057
      3          9           0       -0.233193    1.441324   -1.094057
      4          6           0        0.121715   -0.603470   -0.000000
      5          9           0       -0.233193   -1.297248    1.080972
      6          9           0        1.439061   -0.454914   -0.000000
      7          9           0       -0.233193   -1.297248   -1.080972
      8          1           0       -1.682195    0.610934    0.000000
 ---------------------------------------------------------------------
 Rotational constants (GHZ):           3.6967569           2.4165656           2.0040226
 1\1\GINC-CCLEARCO\FOpt\RwB97XD\6-311+G(2d,2p)\C2H1F5\RAPPE\12-Jan-2026
 \0\\# opt wb97xd/6-311+g(2d,2p) geom=connectivity freq\\Title Card Req
 uired\\0,1\C,-0.60078,0.751791,0.\F,-0.233193,1.441324,1.094057\F,-0.2
 33193,1.441324,-1.094057\C,0.121715,-0.60347,0.\F,-0.233193,-1.297248,
 1.080972\F,1.439061,-0.454914,0.\F,-0.233193,-1.297248,-1.080972\H,-1.
 682195,0.610934,0.\\Version=EM64M-G16RevA.03\State=1-A'\HF=-576.060191
 \RMSD=4.289e-09\RMSF=8.527e-05\Dipole=-0.6253565,-0.0247839,0.\Quadrup
 ole=2.3867235,-1.2639606,-1.1227629,-0.7074303,0.,0.\PG=CS [SG(C2H1F1)
 ,X(F4)]\\@


 IF I AM NOT FOR MYSELF, WHO WILL BE?
 BUT IF I AM ONLY FOR MYSELF, WHAT AM I?
 THOUGH A SEEKER SINCE MY BIRTH,
 HERE IS ALL I'VE LEARNED ON EARTH,
 THIS IS THE GIST OF WHAT I KNOW:
 GIVE ADVICE AND BUY A FOE.

 PRESSED FOR RULES AND VERITIES,
 ALL I RECOLLECT ARE THESE:
 FEED A COLD TO STARVE A FEVER,
 ARGUE WITH NO TRUE-BELIEVER.
 THINK-TOO-LONG IS NEVER-ACT,
 SCRATCH A MYTH AND FIND A FACT.

 STITCH IN TIME SAVES TWENTY STITCHES,
 GIVE THE RICH TO PLEASE THEM, RICHES.
 GIVE TO LOVE YOU HEARTH AND HALL,
 BUT DO NOT GIVE ADVICE AT ALL.

                                  -- HILLEL
 Job cpu time:       0 days  0 hours  5 minutes 13.2 seconds.
 Elapsed time:       0 days  0 hours  0 minutes 14.2 seconds.
 File lengths (MBytes):  RWF=     20 Int=      0 D2E=      0 Chk=      4 Scr=      1
 Normal termination of Gaussian 16 at Mon Jan 12 10:46:26 2026.
 Link1:  Proceeding to internal job step number  2.
 ----------------------------------------------------------------------
 #N Geom=AllCheck Guess=TCheck SCRF=Check GenChk RwB97XD/6-311+G(2d,2p)
  Freq
 ----------------------------------------------------------------------
 1/10=4,29=7,30=1,38=1,40=1/1,3;
 2/12=2,40=1/2;
 3/5=4,6=6,7=212,11=2,14=-4,25=1,30=1,70=2,71=2,74=-58,116=1,140=1/1,2,3;
 4/5=101/1;
 5/5=2,38=6,98=1/2;
 8/6=4,10=90,11=11/1;
 11/6=1,8=1,9=11,15=111,16=1/1,2,10;
 10/6=1/2;
 6/7=2,8=2,9=2,10=2,28=1/1;
 7/8=1,10=1,25=1/1,2,3,16;
 1/10=4,30=1/3;
 99//99;
 Structure from the checkpoint file:  "ethane.chk"
 -------------------
 Title Card Required
 -------------------
 Charge =  0 Multiplicity = 1
 Redundant internal coordinates found in file.  (old form).
 C,0,-0.60078,0.751791,0.
 F,0,-0.233193,1.441324,1.094057
 F,0,-0.233193,1.441324,-1.094057
 C,0,0.121715,-0.60347,0.
 F,0,-0.233193,-1.297248,1.080972
 F,0,1.439061,-0.454914,0.
 F,0,-0.233193,-1.297248,-1.080972
 H,0,-1.682195,0.610934,0.
 Recover connectivity data from disk.

 GradGradGradGradGradGradGradGradGradGradGradGradGradGradGradGradGradGrad
 Berny optimization.
 Initialization pass.
                           ----------------------------
                           !    Initial Parameters    !
                           ! (Angstroms and Degrees)  !
 --------------------------                            --------------------------
 ! Name  Definition              Value          Derivative Info.                !
 --------------------------------------------------------------------------------
 ! R1    R(1,2)                  1.3444         calculate D2E/DX2 analytically  !
 ! R2    R(1,3)                  1.3444         calculate D2E/DX2 analytically  !
 ! R3    R(1,4)                  1.5358         calculate D2E/DX2 analytically  !
 ! R4    R(1,8)                  1.0905         calculate D2E/DX2 analytically  !
 ! R5    R(4,5)                  1.3326         calculate D2E/DX2 analytically  !
 ! R6    R(4,6)                  1.3257         calculate D2E/DX2 analytically  !
 ! R7    R(4,7)                  1.3326         calculate D2E/DX2 analytically  !
 ! A1    A(2,1,3)              108.9299         calculate D2E/DX2 analytically  !
 ! A2    A(2,1,4)              108.9025         calculate D2E/DX2 analytically  !
 ! A3    A(2,1,8)              109.7164         calculate D2E/DX2 analytically  !
 ! A4    A(3,1,4)              108.9025         calculate D2E/DX2 analytically  !
 ! A5    A(3,1,8)              109.7164         calculate D2E/DX2 analytically  !
 ! A6    A(4,1,8)              110.6411         calculate D2E/DX2 analytically  !
 ! A7    A(1,4,5)              109.5196         calculate D2E/DX2 analytically  !
 ! A8    A(1,4,6)              111.6282         calculate D2E/DX2 analytically  !
 ! A9    A(1,4,7)              109.5196         calculate D2E/DX2 analytically  !
 ! A10   A(5,4,6)              108.844          calculate D2E/DX2 analytically  !
 ! A11   A(5,4,7)              108.4234         calculate D2E/DX2 analytically  !
 ! A12   A(6,4,7)              108.844          calculate D2E/DX2 analytically  !
 ! D1    D(2,1,4,5)             61.2777         calculate D2E/DX2 analytically  !
 ! D2    D(2,1,4,6)            -59.3331         calculate D2E/DX2 analytically  !
 ! D3    D(2,1,4,7)           -179.9438         calculate D2E/DX2 analytically  !
 ! D4    D(3,1,4,5)            179.9438         calculate D2E/DX2 analytically  !
 ! D5    D(3,1,4,6)             59.3331         calculate D2E/DX2 analytically  !
 ! D6    D(3,1,4,7)            -61.2777         calculate D2E/DX2 analytically  !
 ! D7    D(8,1,4,5)            -59.3893         calculate D2E/DX2 analytically  !
 ! D8    D(8,1,4,6)            180.0            calculate D2E/DX2 analytically  !
 ! D9    D(8,1,4,7)             59.3893         calculate D2E/DX2 analytically  !
 --------------------------------------------------------------------------------
 Trust Radius=3.00D-01 FncErr=1.00D-07 GrdErr=1.00D-07 EigMax=2.50D+02 EigMin=1.00D-04
 Number of steps in this run=      2 maximum allowed number of steps=      2.
 GradGradGradGradGradGradGradGradGradGradGradGradGradGradGradGradGradGrad

                          Input orientation:                          
 ---------------------------------------------------------------------
 Center     Atomic      Atomic             Coordinates (Angstroms)
 Number     Number       Type             X           Y           Z
 ---------------------------------------------------------------------
      1          6           0       -0.600780    0.751791   -0.000000
      2          9           0       -0.233193    1.441324    1.094057
      3          9           0       -0.233193    1.441324   -1.094057
      4          6           0        0.121715   -0.603470    0.000000
      5          9           0       -0.233193   -1.297248    1.080972
      6          9           0        1.439061   -0.454914    0.000000
      7          9           0       -0.233193   -1.297248   -1.080972
      8          1           0       -1.682195    0.610934   -0.000000
 ---------------------------------------------------------------------
                    Distance matrix (angstroms):
                    1          2          3          4          5
     1  C    0.000000
     2  F    1.344447   0.000000
     3  F    1.344447   2.188114   0.000000
     4  C    1.535816   2.346082   2.346082   0.000000
     5  F    2.345673   2.738603   3.497217   1.332587   0.000000
     6  F    2.370040   2.754834   2.754834   1.325696   2.162050
     7  F    2.345673   3.497217   2.738603   1.332587   2.161944
     8  H    1.090550   1.996526   1.996526   2.174596   2.628548
                    6          7          8
     6  F    0.000000
     7  F    2.162050   0.000000
     8  H    3.298222   2.628548   0.000000
 Stoichiometry    C2HF5
 Framework group  CS[SG(C2HF),X(F4)]
 Deg. of freedom    11
 Full point group                 CS      NOp   2
 Largest Abelian subgroup         CS      NOp   2
 Largest concise Abelian subgroup CS      NOp   2
                         Standard orientation:                         
 ---------------------------------------------------------------------
 Center     Atomic      Atomic             Coordinates (Angstroms)
 Number     Number       Type             X           Y           Z
 ---------------------------------------------------------------------
      1          6           0       -0.600780    0.751791    0.000000
      2          9           0       -0.233193    1.441324    1.094057
      3          9           0       -0.233193    1.441324   -1.094057
      4          6           0        0.121715   -0.603470   -0.000000
      5          9           0       -0.233193   -1.297248    1.080972
      6          9           0        1.439061   -0.454914   -0.000000
      7          9           0       -0.233193   -1.297248   -1.080972
      8          1           0       -1.682195    0.610934    0.000000
 ---------------------------------------------------------------------
 Rotational constants (GHZ):           3.6967569           2.4165656           2.0040226
 Standard basis: 6-311+G(2d,2p) (5D, 7F)
 There are   128 symmetry adapted cartesian basis functions of A'  symmetry.
 There are    84 symmetry adapted cartesian basis functions of A"  symmetry.
 There are   118 symmetry adapted basis functions of A'  symmetry.
 There are    80 symmetry adapted basis functions of A"  symmetry.
   198 basis functions,   305 primitive gaussians,   212 cartesian basis functions
    29 alpha electrons       29 beta electrons
       nuclear repulsion energy       360.3481790252 Hartrees.
 NAtoms=    8 NActive=    8 NUniq=    6 SFac= 1.78D+00 NAtFMM=   60 NAOKFM=F Big=F
 Integral buffers will be    131072 words long.
 Raffenetti 2 integral format.
 Two-electron integral symmetry is turned on.
 Nuclear repulsion after empirical dispersion term =      360.3459876939 Hartrees.
 One-electron integrals computed using PRISM.
 NBasis=   198 RedAO= T EigKep=  1.53D-04  NBF=   118    80
 NBsUse=   198 1.00D-06 EigRej= -1.00D+00 NBFU=   118    80
 Initial guess from the checkpoint file:  "ethane.chk"
 B after Tr=     0.000000   -0.000000   -0.000000
         Rot=    1.000000    0.000000   -0.000000   -0.000000 Ang=   0.00 deg.
 Initial guess orbital symmetries:
       Occupied  (A") (A') (A') (A') (A") (A') (A') (A') (A') (A")
                 (A') (A") (A') (A') (A') (A") (A') (A') (A") (A')
                 (A") (A') (A") (A') (A") (A") (A') (A") (A')
       Virtual   (A') (A") (A') (A') (A') (A") (A') (A") (A') (A')
                 (A') (A") (A') (A') (A") (A') (A') (A") (A') (A')
                 (A') (A") (A') (A") (A") (A') (A') (A') (A") (A')
                 (A") (A") (A') (A") (A') (A') (A') (A") (A') (A')
                 (A') (A") (A") (A') (A') (A') (A') (A') (A") (A")
                 (A') (A') (A") (A') (A") (A') (A") (A') (A") (A')
                 (A') (A") (A") (A') (A') (A') (A") (A') (A") (A')
                 (A') (A") (A") (A') (A') (A") (A") (A') (A") (A')
                 (A") (A') (A") (A") (A') (A") (A') (A") (A') (A')
                 (A") (A') (A') (A") (A") (A') (A") (A') (A') (A')
                 (A') (A") (A') (A') (A') (A") (A') (A') (A") (A")
                 (A') (A') (A") (A') (A') (A") (A') (A") (A") (A')
                 (A') (A') (A") (A') (A') (A") (A") (A') (A") (A')
                 (A') (A") (A') (A') (A") (A") (A') (A") (A") (A')
                 (A") (A") (A') (A') (A") (A") (A') (A') (A") (A')
                 (A") (A') (A") (A') (A') (A') (A') (A") (A') (A")
                 (A") (A') (A') (A') (A") (A') (A') (A") (A')
 Keep R1 ints in memory in symmetry-blocked form, NReq=582613521.
 Requested convergence on RMS density matrix=1.00D-08 within 128 cycles.
 Requested convergence on MAX density matrix=1.00D-06.
 Requested convergence on             energy=1.00D-06.
 No special actions if energy rises.
 SCF Done:  E(RwB97XD) =  -576.060191033     A.U. after    1 cycles
            NFock=  1  Conv=0.91D-09     -V/T= 2.0025
 DoSCS=F DFT=T ScalE2(SS,OS)=  1.000000  1.000000
 Range of M.O.s used for correlation:     1   198
 NBasis=   198 NAE=    29 NBE=    29 NFC=     0 NFV=     0
 NROrb=    198 NOA=    29 NOB=    29 NVA=   169 NVB=   169

 **** Warning!!: The largest alpha MO coefficient is  0.34154554D+02

 Symmetrizing basis deriv contribution to polar:
 IMax=3 JMax=2 DiffMx= 0.00D+00
 G2DrvN: will do     9 centers at a time, making    1 passes.
 Calling FoFCou, ICntrl=  3107 FMM=F I1Cent=   0 AccDes= 0.00D+00.
 End of G2Drv F.D. properties file   721 does not exist.
 End of G2Drv F.D. properties file   722 does not exist.
 End of G2Drv F.D. properties file   788 does not exist.
          IDoAtm=11111111
          Differentiating once with respect to electric field.
                with respect to dipole field.
          Differentiating once with respect to nuclear coordinates.
 Keep R1 ints in memory in symmetry-blocked form, NReq=582617397.
          There are    21 degrees of freedom in the 1st order CPHF.  IDoFFX=4 NUNeed=    21.
     21 vectors produced by pass  0 Test12= 2.33D-14 4.76D-09 XBig12= 8.95D+00 8.90D-01.
 AX will form    21 AO Fock derivatives at one time.
     21 vectors produced by pass  1 Test12= 2.33D-14 4.76D-09 XBig12= 1.65D+00 2.21D-01.
     21 vectors produced by pass  2 Test12= 2.33D-14 4.76D-09 XBig12= 4.69D-02 3.72D-02.
     21 vectors produced by pass  3 Test12= 2.33D-14 4.76D-09 XBig12= 9.01D-04 4.67D-03.
     21 vectors produced by pass  4 Test12= 2.33D-14 4.76D-09 XBig12= 1.48D-05 5.50D-04.
     21 vectors produced by pass  5 Test12= 2.33D-14 4.76D-09 XBig12= 9.46D-08 5.74D-05.
     21 vectors produced by pass  6 Test12= 2.33D-14 4.76D-09 XBig12= 6.21D-10 6.20D-06.
      9 vectors produced by pass  7 Test12= 2.33D-14 4.76D-09 XBig12= 3.49D-12 3.48D-07.
      3 vectors produced by pass  8 Test12= 2.33D-14 4.76D-09 XBig12= 2.10D-14 2.09D-08.
 InvSVY:  IOpt=1 It=  1 EMax= 2.22D-15
 Solved reduced A of dimension   159 with    21 vectors.
 Isotropic polarizability for W=    0.000000       29.24 Bohr**3.
 End of Minotr F.D. properties file   721 does not exist.
 End of Minotr F.D. properties file   722 does not exist.
 End of Minotr F.D. properties file   788 does not exist.

 **********************************************************************

            Population analysis using the SCF density.

 **********************************************************************

 Orbital symmetries:
       Occupied  (A") (A') (A') (A') (A") (A') (A') (A') (A') (A")
                 (A') (A") (A') (A') (A') (A") (A') (A') (A") (A')
                 (A") (A') (A") (A') (A") (A") (A') (A") (A')
       Virtual   (A') (A") (A') (A') (A') (A") (A') (A") (A') (A')
                 (A') (A") (A') (A') (A") (A') (A') (A") (A') (A')
                 (A') (A") (A') (A") (A") (A') (A') (A') (A") (A')
                 (A") (A") (A') (A") (A') (A') (A') (A") (A') (A')
                 (A') (A") (A") (A') (A') (A') (A') (A') (A") (A")
                 (A') (A') (A") (A') (A") (A') (A") (A') (A") (A')
                 (A') (A") (A") (A') (A') (A') (A") (A') (A") (A')
                 (A') (A") (A") (A') (A') (A") (A") (A') (A") (A')
                 (A") (A') (A") (A") (A') (A") (A') (A") (A') (A')
                 (A") (A') (A') (A") (A") (A') (A") (A') (A') (A')
                 (A') (A") (A') (A') (A') (A") (A') (A') (A") (A")
                 (A') (A') (A") (A') (A') (A") (A') (A") (A") (A')
                 (A') (A') (A") (A') (A') (A") (A") (A') (A") (A')
                 (A') (A") (A') (A') (A") (A") (A') (A") (A") (A')
                 (A") (A") (A') (A') (A") (A") (A') (A') (A") (A')
                 (A") (A') (A") (A') (A') (A') (A') (A") (A') (A")
                 (A") (A') (A') (A') (A") (A') (A') (A") (A')
 The electronic state is 1-A'.
 Alpha  occ. eigenvalues --  -24.87161 -24.87160 -24.87035 -24.85740 -24.85740
 Alpha  occ. eigenvalues --  -10.56900 -10.49404  -1.46163  -1.40640  -1.36871
 Alpha  occ. eigenvalues --   -1.36759  -1.34621  -0.90693  -0.80522  -0.73369
 Alpha  occ. eigenvalues --   -0.72787  -0.72725  -0.68024  -0.67738  -0.59540
 Alpha  occ. eigenvalues --   -0.59247  -0.58989  -0.56527  -0.55267  -0.54974
 Alpha  occ. eigenvalues --   -0.53310  -0.53069  -0.52824  -0.46392
 Alpha virt. eigenvalues --    0.06499   0.08978   0.09138   0.09349   0.12862
 Alpha virt. eigenvalues --    0.13360   0.13688   0.16643   0.17402   0.19521
 Alpha virt. eigenvalues --    0.22409   0.26362   0.27201   0.27376   0.28928
 Alpha virt. eigenvalues --    0.29848   0.32725   0.33254   0.33458   0.33798
 Alpha virt. eigenvalues --    0.35692   0.36143   0.37491   0.37818   0.40054
 Alpha virt. eigenvalues --    0.40101   0.41625   0.42827   0.43732   0.44069
 Alpha virt. eigenvalues --    0.44856   0.50072   0.50110   0.51163   0.51964
 Alpha virt. eigenvalues --    0.55958   0.60953   0.64897   0.67998   0.71792
 Alpha virt. eigenvalues --    0.75025   0.77405   0.83402   0.86442   0.94937
 Alpha virt. eigenvalues --    1.00210   1.03216   1.08685   1.09423   1.15237
 Alpha virt. eigenvalues --    1.20526   1.26075   1.26966   1.31348   1.32727
 Alpha virt. eigenvalues --    1.34218   1.37189   1.37938   1.39341   1.40756
 Alpha virt. eigenvalues --    1.43815   1.44351   1.45539   1.46421   1.46870
 Alpha virt. eigenvalues --    1.50609   1.51064   1.52265   1.52308   1.60343
 Alpha virt. eigenvalues --    1.61743   1.64283   1.90442   1.93871   1.97840
 Alpha virt. eigenvalues --    1.98050   2.02807   2.06603   2.07868   2.08583
 Alpha virt. eigenvalues --    2.10761   2.11631   2.14616   2.15868   2.19779
 Alpha virt. eigenvalues --    2.21521   2.25544   2.30156   2.33625   2.44684
 Alpha virt. eigenvalues --    2.51261   2.54691   2.63464   2.64732   2.65500
 Alpha virt. eigenvalues --    2.69741   2.74588   2.81119   2.86348   2.89783
 Alpha virt. eigenvalues --    3.02585   3.11123   3.13254   3.25497   3.45125
 Alpha virt. eigenvalues --    3.45815   3.49577   3.52274   3.53605   3.55701
 Alpha virt. eigenvalues --    3.58579   3.59144   3.61857   3.64407   3.81161
 Alpha virt. eigenvalues --    4.09469   4.10488   4.27591   4.32770   4.32981
 Alpha virt. eigenvalues --    4.44830   4.93311   6.38405   6.38825   6.39849
 Alpha virt. eigenvalues --    6.40215   6.43467   6.46002   6.46482   6.47349
 Alpha virt. eigenvalues --    6.50062   6.51577   6.54073   6.65817   6.82975
 Alpha virt. eigenvalues --    6.87158   6.88244   9.07770   9.10392   9.11088
 Alpha virt. eigenvalues --    9.11295   9.15447   9.17966   9.21276   9.21842
 Alpha virt. eigenvalues --    9.23381   9.24551   9.26276   9.26343   9.33973
 Alpha virt. eigenvalues --    9.35005   9.40546   9.47688   9.50754   9.63374
 Alpha virt. eigenvalues --    9.69208   9.73620   9.74389   9.75708   9.82247
 Alpha virt. eigenvalues --    9.88663   9.88912  23.96291  24.06003  66.92678
 Alpha virt. eigenvalues --   66.93908  66.94558  66.94677  67.00977
          Condensed to atoms (all electrons):
               1          2          3          4          5          6
     1  C    4.524042   0.216292   0.216292   0.345570  -0.090300  -0.087243
     2  F    0.216292   9.158268   0.008053  -0.088158   0.018394   0.016889
     3  F    0.216292   0.008053   9.158268  -0.088158   0.000156   0.016889
     4  C    0.345570  -0.088158  -0.088158   4.327688   0.252666   0.243631
     5  F   -0.090300   0.018394   0.000156   0.252666   9.115010  -0.000627
     6  F   -0.087243   0.016889   0.016889   0.243631  -0.000627   9.092435
     7  F   -0.090300   0.000156   0.018394   0.252666  -0.000348  -0.000627
     8  H    0.470317  -0.040227  -0.040227  -0.054887   0.001804   0.004991
               7          8
     1  C   -0.090300   0.470317
     2  F    0.000156  -0.040227
     3  F    0.018394  -0.040227
     4  C    0.252666  -0.054887
     5  F   -0.000348   0.001804
     6  F   -0.000627   0.004991
     7  F    9.115010   0.001804
     8  H    0.001804   0.501561
 Mulliken charges:
               1
     1  C    0.495330
     2  F   -0.289666
     3  F   -0.289666
     4  C    0.808983
     5  F   -0.296754
     6  F   -0.286338
     7  F   -0.296754
     8  H    0.154865
 Sum of Mulliken charges =  -0.00000
 Mulliken charges with hydrogens summed into heavy atoms:
               1
     1  C    0.650195
     2  F   -0.289666
     3  F   -0.289666
     4  C    0.808983
     5  F   -0.296754
     6  F   -0.286338
     7  F   -0.296754
 APT charges:
               1
     1  C    1.029558
     2  F   -0.501104
     3  F   -0.501104
     4  C    1.554546
     5  F   -0.529439
     6  F   -0.522073
     7  F   -0.529439
     8  H   -0.000945
 Sum of APT charges =  -0.00000
 APT charges with hydrogens summed into heavy atoms:
               1
     1  C    1.028613
     2  F   -0.501104
     3  F   -0.501104
     4  C    1.554546
     5  F   -0.529439
     6  F   -0.522073
     7  F   -0.529439
 Electronic spatial extent (au):  <R**2>=            596.4805
 Charge=              0.0000 electrons
 Dipole moment (field-independent basis, Debye):
    X=             -1.5895    Y=             -0.0630    Z=             -0.0000  Tot=              1.5907
 Quadrupole moment (field-independent basis, Debye-Ang):
   XX=            -34.0570   YY=            -38.9673   ZZ=            -38.7774
   XY=             -0.9515   XZ=              0.0000   YZ=              0.0000
 Traceless Quadrupole moment (field-independent basis, Debye-Ang):
   XX=              3.2102   YY=             -1.7001   ZZ=             -1.5102
   XY=             -0.9515   XZ=              0.0000   YZ=              0.0000
 Octapole moment (field-independent basis, Debye-Ang**2):
  XXX=             -2.3936  YYY=             -2.9505  ZZZ=             -0.0000  XYY=              1.6478
  XXY=              1.7436  XXZ=             -0.0000  XZZ=              2.1463  YZZ=             -1.3355
  YYZ=              0.0000  XYZ=              0.0000
 Hexadecapole moment (field-independent basis, Debye-Ang**3):
 XXXX=           -107.9378 YYYY=           -290.1966 ZZZZ=           -165.6476 XXXY=             18.7036
 XXXZ=             -0.0000 YYYX=             20.0022 YYYZ=              0.0000 ZZZX=             -0.0000
 ZZZY=              0.0000 XXYY=            -65.3913 XXZZ=            -46.7632 YYZZ=            -79.5542
 XXYZ=             -0.0000 YYXZ=             -0.0000 ZZXY=              7.9287
 N-N= 3.603459876939D+02 E-N=-2.090494027724D+03  KE= 5.746052354582D+02
 Symmetry A'   KE= 3.648214940570D+02
 Symmetry A"   KE= 2.097837414012D+02
  Exact polarizability:  28.232   0.202  29.384   0.000  -0.000  30.099
 Approx polarizability:  30.136   1.576  29.230   0.000  -0.000  33.290
 Calling FoFJK, ICntrl=    100127 FMM=F ISym2X=1 I1Cent= 0 IOpClX= 0 NMat=1 NMatS=1 NMatT=0.
 Full mass-weighted force constant matrix:
 Low frequencies ---   -6.9950   -5.3359   -0.0016   -0.0011   -0.0010   13.3738
 Low frequencies ---   75.3355  212.0930  244.1426
 Diagonal vibrational polarizability:
        8.6902568       7.6518948      15.6372058
 Harmonic frequencies (cm**-1), IR intensities (KM/Mole), Raman scattering
 activities (A**4/AMU), depolarization ratios for plane and unpolarized
 incident light, reduced masses (AMU), force constants (mDyne/A),
 and normal coordinates:
                      1                      2                      3
                     A"                     A"                     A'
 Frequencies --     75.3348               212.0929               244.1425
 Red. masses --     13.4067                18.6219                14.3215
 Frc consts  --      0.0448                 0.4935                 0.5030
 IR Inten    --      0.9342                 2.1775                 3.6145
  Atom  AN      X      Y      Z        X      Y      Z        X      Y      Z
     1   6    -0.00   0.00   0.12    -0.00   0.00  -0.16    -0.10   0.01   0.00
     2   9     0.42   0.13  -0.10     0.22  -0.43   0.05     0.27  -0.19   0.01
     3   9    -0.42  -0.13  -0.10    -0.22   0.43   0.05     0.27  -0.19  -0.01
     4   6     0.00   0.00   0.04    -0.00   0.00  -0.16    -0.23   0.00   0.00
     5   9    -0.21  -0.15  -0.12    -0.23   0.43   0.06    -0.01  -0.13  -0.03
     6   9     0.00  -0.00   0.32    -0.00   0.00  -0.01    -0.30   0.60   0.00
     7   9     0.21   0.15  -0.12     0.23  -0.43   0.06    -0.01  -0.13   0.03
     8   1    -0.00   0.00   0.55    -0.00   0.00  -0.03    -0.15   0.46  -0.00
                      4                      5                      6
                     A'                     A"                     A'
 Frequencies --    362.4083               416.2192               522.6563
 Red. masses --     17.7369                15.3488                15.0672
 Frc consts  --      1.3725                 1.5666                 2.4250
 IR Inten    --      0.0531                 0.8727                 7.4727
  Atom  AN      X      Y      Z        X      Y      Z        X      Y      Z
     1   6     0.01  -0.17  -0.00     0.00   0.00  -0.29    -0.25  -0.01  -0.00
     2   9    -0.00  -0.44   0.16     0.05  -0.31  -0.19     0.06   0.05  -0.18
     3   9    -0.00  -0.44  -0.16    -0.05   0.31  -0.19     0.06   0.05   0.18
     4   6     0.06   0.15  -0.00     0.00   0.00   0.05    -0.26  -0.11  -0.00
     5   9    -0.06   0.45   0.14     0.33  -0.17   0.06     0.28   0.09   0.37
     6   9     0.08  -0.00   0.00     0.00  -0.00   0.43    -0.36  -0.22   0.00
     7   9    -0.06   0.45  -0.14    -0.33   0.17   0.06     0.28   0.09  -0.37
     8   1     0.02  -0.22  -0.00     0.00   0.00  -0.41    -0.29   0.28  -0.00
                      7                      8                      9
                     A'                     A"                     A'
 Frequencies --    581.2643               584.6732               728.4034
 Red. masses --      9.8804                16.3663                12.1745
 Frc consts  --      1.9668                 3.2963                 3.8058
 IR Inten    --     14.5559                 0.4994                35.0254
  Atom  AN      X      Y      Z        X      Y      Z        X      Y      Z
     1   6     0.01   0.35   0.00    -0.00  -0.00   0.14     0.39  -0.09   0.00
     2   9    -0.04  -0.01   0.40    -0.02   0.18   0.13    -0.06   0.11   0.16
     3   9    -0.04  -0.01  -0.40     0.02  -0.18   0.13    -0.06   0.11  -0.16
     4   6    -0.12   0.07  -0.00     0.00  -0.00  -0.34     0.09  -0.31  -0.00
     5   9     0.14  -0.07  -0.02     0.27   0.33  -0.28    -0.13  -0.08   0.37
     6   9    -0.13  -0.14   0.00     0.00   0.00   0.40     0.05   0.21   0.00
     7   9     0.14  -0.07   0.02    -0.27  -0.33  -0.28    -0.13  -0.08  -0.37
     8   1    -0.02   0.67   0.00    -0.00  -0.00   0.31     0.43  -0.29   0.00
                     10                     11                     12
                     A'                     A"                     A'
 Frequencies --    873.9834              1152.2868              1153.0962
 Red. masses --      6.0551                 5.9386                 7.8282
 Frc consts  --      2.7251                 4.6458                 6.1325
 IR Inten    --     45.7839               109.9615               153.2706
  Atom  AN      X      Y      Z        X      Y      Z        X      Y      Z
     1   6    -0.39   0.20  -0.00     0.00   0.00   0.53     0.38   0.42  -0.00
     2   9     0.04  -0.02  -0.00    -0.08  -0.10  -0.17    -0.11  -0.15  -0.18
     3   9     0.04  -0.02   0.00     0.08   0.10  -0.17    -0.11  -0.15   0.18
     4   6    -0.01  -0.02   0.00    -0.00   0.00  -0.15    -0.12   0.20   0.00
     5   9    -0.07  -0.06   0.12    -0.01   0.00   0.02    -0.00  -0.06   0.06
     6   9     0.34   0.02  -0.00     0.00  -0.00   0.01     0.04  -0.00  -0.00
     7   9    -0.07  -0.06  -0.12     0.01  -0.00   0.02    -0.00  -0.06  -0.06
     8   1    -0.46   0.66  -0.00     0.00   0.00   0.78     0.37   0.58  -0.00
                     13                     14                     15
                     A'                     A"                     A'
 Frequencies --   1202.5711              1221.9501              1318.9692
 Red. masses --      4.8404                13.1491                 3.2392
 Frc consts  --      4.1243                11.5679                 3.3202
 IR Inten    --    200.2148               411.2103               163.6752
  Atom  AN      X      Y      Z        X      Y      Z        X      Y      Z
     1   6    -0.11   0.04  -0.00    -0.00  -0.00   0.18    -0.02   0.06   0.00
     2   9     0.03  -0.01   0.01    -0.01  -0.06  -0.08    -0.02  -0.02  -0.03
     3   9     0.03  -0.01  -0.01     0.01   0.06  -0.08    -0.02  -0.02   0.03
     4   6     0.29   0.41  -0.00     0.00   0.00   0.89     0.37  -0.15   0.00
     5   9    -0.04  -0.09   0.09     0.05   0.13  -0.23    -0.02   0.02  -0.01
     6   9    -0.11  -0.03   0.00    -0.00  -0.00  -0.06    -0.13   0.00  -0.00
     7   9    -0.04  -0.09  -0.09    -0.05  -0.13  -0.23    -0.02   0.02   0.01
     8   1     0.00  -0.83   0.00     0.00  -0.00  -0.06    -0.12   0.89  -0.00
                     16                     17                     18
                     A"                     A'                     A'
 Frequencies --   1376.8661              1452.4328              3120.2188
 Red. masses --      1.1987                 2.3113                 1.0881
 Frc consts  --      1.3389                 2.8728                 6.2418
 IR Inten    --      6.3227                 1.1630                14.3559
  Atom  AN      X      Y      Z        X      Y      Z        X      Y      Z
     1   6    -0.00  -0.00  -0.12     0.05  -0.26   0.00    -0.09  -0.01  -0.00
     2   9    -0.02  -0.00   0.01    -0.01   0.03   0.01     0.00  -0.00  -0.00
     3   9     0.02   0.00   0.01    -0.01   0.03  -0.01     0.00  -0.00   0.00
     4   6     0.00  -0.00   0.03    -0.04   0.20  -0.00    -0.00  -0.00  -0.00
     5   9     0.00  -0.00  -0.00    -0.00  -0.03   0.02     0.00   0.00  -0.00
     6   9    -0.00   0.00  -0.00     0.02  -0.01  -0.00     0.00  -0.00   0.00
     7   9    -0.00   0.00  -0.00    -0.00  -0.03  -0.02     0.00   0.00   0.00
     8   1    -0.00   0.00   0.99    -0.07   0.94  -0.00     0.99   0.11  -0.00

 -------------------
 - Thermochemistry -
 -------------------
 Temperature   298.150 Kelvin.  Pressure   1.00000 Atm.
 Atom     1 has atomic number  6 and mass  12.00000
 Atom     2 has atomic number  9 and mass  18.99840
 Atom     3 has atomic number  9 and mass  18.99840
 Atom     4 has atomic number  6 and mass  12.00000
 Atom     5 has atomic number  9 and mass  18.99840
 Atom     6 has atomic number  9 and mass  18.99840
 Atom     7 has atomic number  9 and mass  18.99840
 Atom     8 has atomic number  1 and mass   1.00783
 Molecular mass:   119.99984 amu.
 Principal axes and moments of inertia in atomic units:
                           1         2         3
     Eigenvalues --   488.19581 746.82069 900.55929
           X           -0.18539   0.00000   0.98266
           Y            0.98266   0.00000   0.18539
           Z           -0.00000   1.00000   0.00000
 This molecule is an asymmetric top.
 Rotational symmetry number  1.
 Warning -- assumption of classical behavior for rotation
           may cause significant error
 Rotational temperatures (Kelvin)      0.17742     0.11598     0.09618
 Rotational constants (GHZ):           3.69676     2.41657     2.00402
 Zero-point vibrational energy      99287.5 (Joules/Mol)
                                   23.73028 (Kcal/Mol)
 Warning -- explicit consideration of   8 degrees of freedom as
           vibrations may cause significant error
 Vibrational temperatures:    108.39   305.15   351.27   521.42   598.85
          (Kelvin)            751.99   836.31   841.21  1048.01  1257.47
                             1657.88  1659.05  1730.23  1758.11  1897.70
                             1981.00  2089.73  4489.30
 
 Zero-point correction=                           0.037817 (Hartree/Particle)
 Thermal correction to Energy=                    0.043916
 Thermal correction to Enthalpy=                  0.044860
 Thermal correction to Gibbs Free Energy=         0.007038
 Sum of electronic and zero-point Energies=           -576.022374
 Sum of electronic and thermal Energies=              -576.016275
 Sum of electronic and thermal Enthalpies=            -576.015331
 Sum of electronic and thermal Free Energies=         -576.053153
 
                     E (Thermal)             CV                S
                      KCal/Mol        Cal/Mol-Kelvin    Cal/Mol-Kelvin
 Total                   27.558             20.367             79.603
 Electronic               0.000              0.000              0.000
 Translational            0.889              2.981             40.261
 Rotational               0.889              2.981             27.287
 Vibrational             25.780             14.405             12.055
 Vibration     1          0.599              1.965              4.009
 Vibration     2          0.643              1.822              2.026
 Vibration     3          0.659              1.772              1.772
 Vibration     4          0.736              1.550              1.112
 Vibration     5          0.779              1.435              0.905
 Vibration     6          0.878              1.200              0.604
 Vibration     7          0.938              1.072              0.483
 Vibration     8          0.942              1.065              0.477
                       Q            Log10(Q)             Ln(Q)
 Total Bot       0.579141D-03         -3.237215         -7.453964
 Total V=0       0.143615D+15         14.157199         32.598154
 Vib (Bot)       0.546453D-16        -16.262447        -37.445669
 Vib (Bot)    1  0.273563D+01          0.437057          1.006361
 Vib (Bot)    2  0.935669D+00         -0.028878         -0.066494
 Vib (Bot)    3  0.801613D+00         -0.096035         -0.221129
 Vib (Bot)    4  0.504944D+00         -0.296757         -0.683308
 Vib (Bot)    5  0.423083D+00         -0.373575         -0.860188
 Vib (Bot)    6  0.308080D+00         -0.511336         -1.177395
 Vib (Bot)    7  0.261824D+00         -0.581991         -1.340083
 Vib (Bot)    8  0.259407D+00         -0.586019         -1.349359
 Vib (V=0)       0.135509D+02          1.131967          2.606450
 Vib (V=0)    1  0.328095D+01          0.515999          1.188132
 Vib (V=0)    2  0.156088D+01          0.193371          0.445253
 Vib (V=0)    3  0.144477D+01          0.159798          0.367948
 Vib (V=0)    4  0.121061D+01          0.083005          0.191125
 Vib (V=0)    5  0.115498D+01          0.062575          0.144083
 Vib (V=0)    6  0.108729D+01          0.036347          0.083691
 Vib (V=0)    7  0.106440D+01          0.027106          0.062415
 Vib (V=0)    8  0.106329D+01          0.026650          0.061365
 Electronic      0.100000D+01          0.000000          0.000000
 Translational   0.516684D+08          7.713225         17.760357
 Rotational      0.205119D+06          5.312007         12.231348
 ***** Axes restored to original set *****
 -------------------------------------------------------------------
 Center     Atomic                   Forces (Hartrees/Bohr)
 Number     Number              X              Y              Z
 -------------------------------------------------------------------
      1        6           0.000051700    0.000158364   -0.000000000
      2        9          -0.000019720   -0.000039517   -0.000082906
      3        9          -0.000019720   -0.000039517    0.000082906
      4        6           0.000303191   -0.000026910   -0.000000000
      5        9          -0.000056699   -0.000026873    0.000061827
      6        9          -0.000116290    0.000006162   -0.000000000
      7        9          -0.000056699   -0.000026873   -0.000061827
      8        1          -0.000085764   -0.000004837    0.000000000
 -------------------------------------------------------------------
 Cartesian Forces:  Max     0.000303191 RMS     0.000085271
 FormGI is forming the generalized inverse of G from B-inverse, IUseBI=4.

 GradGradGradGradGradGradGradGradGradGradGradGradGradGradGradGradGradGrad
 Berny optimization.
 Internal  Forces:  Max     0.000115012 RMS     0.000050090
 Search for a local minimum.
 Step number   1 out of a maximum of    2
 All quantities printed in internal units (Hartrees-Bohrs-Radians)
 Second derivative matrix not updated -- analytic derivatives used.
 ITU=  0
     Eigenvalues ---    0.00282   0.06133   0.09417   0.09858   0.10601
     Eigenvalues ---    0.15339   0.18685   0.21715   0.23443   0.25250
     Eigenvalues ---    0.30020   0.34250   0.36134   0.37806   0.39246
     Eigenvalues ---    0.39410   0.47828   0.55060
 Angle between quadratic step and forces=  30.81 degrees.
 Linear search not attempted -- first point.
 Iteration  1 RMS(Cart)=  0.00015845 RMS(Int)=  0.00000004
 Iteration  2 RMS(Cart)=  0.00000004 RMS(Int)=  0.00000002
 ClnCor:  largest displacement from symmetrization is 8.60D-11 for atom     3.
 Variable       Old X    -DE/DX   Delta X   Delta X   Delta X     New X
                                 (Linear)    (Quad)   (Total)
    R1        2.54064  -0.00009   0.00000  -0.00021  -0.00021   2.54042
    R2        2.54064  -0.00009   0.00000  -0.00021  -0.00021   2.54042
    R3        2.90227   0.00010   0.00000   0.00041   0.00041   2.90269
    R4        2.06084   0.00009   0.00000   0.00025   0.00025   2.06109
    R5        2.51822   0.00008   0.00000   0.00024   0.00024   2.51846
    R6        2.50520  -0.00012   0.00000  -0.00045  -0.00045   2.50475
    R7        2.51822   0.00008   0.00000   0.00024   0.00024   2.51846
    A1        1.90119  -0.00001   0.00000  -0.00006  -0.00006   1.90112
    A2        1.90071   0.00000   0.00000   0.00001   0.00001   1.90071
    A3        1.91491  -0.00000   0.00000   0.00005   0.00005   1.91497
    A4        1.90071   0.00000   0.00000   0.00001   0.00001   1.90071
    A5        1.91491  -0.00000   0.00000   0.00005   0.00005   1.91497
    A6        1.93105   0.00001   0.00000  -0.00006  -0.00006   1.93099
    A7        1.91148  -0.00005   0.00000  -0.00024  -0.00024   1.91124
    A8        1.94828  -0.00001   0.00000   0.00018   0.00018   1.94846
    A9        1.91148  -0.00005   0.00000  -0.00024  -0.00024   1.91124
   A10        1.89969   0.00004   0.00000   0.00020   0.00020   1.89989
   A11        1.89234   0.00002   0.00000  -0.00010  -0.00010   1.89224
   A12        1.89969   0.00004   0.00000   0.00020   0.00020   1.89989
    D1        1.06950   0.00002   0.00000   0.00024   0.00024   1.06974
    D2       -1.03556   0.00001   0.00000   0.00003   0.00003  -1.03552
    D3       -3.14061  -0.00001   0.00000  -0.00017  -0.00017  -3.14079
    D4        3.14061   0.00001   0.00000   0.00017   0.00017   3.14079
    D5        1.03556  -0.00001   0.00000  -0.00003  -0.00003   1.03552
    D6       -1.06950  -0.00002   0.00000  -0.00024  -0.00024  -1.06974
    D7       -1.03654   0.00001   0.00000   0.00021   0.00021  -1.03633
    D8        3.14159   0.00000   0.00000   0.00000   0.00000   3.14159
    D9        1.03654  -0.00001   0.00000  -0.00021  -0.00021   1.03633
         Item               Value     Threshold  Converged?
 Maximum Force            0.000115     0.000450     YES
 RMS     Force            0.000050     0.000300     YES
 Maximum Displacement     0.000511     0.001800     YES
 RMS     Displacement     0.000158     0.001200     YES
 Predicted change in Energy=-1.228387D-07
 Optimization completed.
    -- Stationary point found.
                           ----------------------------
                           !   Optimized Parameters   !
                           ! (Angstroms and Degrees)  !
 --------------------------                            --------------------------
 ! Name  Definition              Value          Derivative Info.                !
 --------------------------------------------------------------------------------
 ! R1    R(1,2)                  1.3444         -DE/DX =   -0.0001              !
 ! R2    R(1,3)                  1.3444         -DE/DX =   -0.0001              !
 ! R3    R(1,4)                  1.5358         -DE/DX =    0.0001              !
 ! R4    R(1,8)                  1.0905         -DE/DX =    0.0001              !
 ! R5    R(4,5)                  1.3326         -DE/DX =    0.0001              !
 ! R6    R(4,6)                  1.3257         -DE/DX =   -0.0001              !
 ! R7    R(4,7)                  1.3326         -DE/DX =    0.0001              !
 ! A1    A(2,1,3)              108.9299         -DE/DX =    0.0                 !
 ! A2    A(2,1,4)              108.9025         -DE/DX =    0.0                 !
 ! A3    A(2,1,8)              109.7164         -DE/DX =    0.0                 !
 ! A4    A(3,1,4)              108.9025         -DE/DX =    0.0                 !
 ! A5    A(3,1,8)              109.7164         -DE/DX =    0.0                 !
 ! A6    A(4,1,8)              110.6411         -DE/DX =    0.0                 !
 ! A7    A(1,4,5)              109.5196         -DE/DX =    0.0                 !
 ! A8    A(1,4,6)              111.6282         -DE/DX =    0.0                 !
 ! A9    A(1,4,7)              109.5196         -DE/DX =    0.0                 !
 ! A10   A(5,4,6)              108.844          -DE/DX =    0.0                 !
 ! A11   A(5,4,7)              108.4234         -DE/DX =    0.0                 !
 ! A12   A(6,4,7)              108.844          -DE/DX =    0.0                 !
 ! D1    D(2,1,4,5)             61.2777         -DE/DX =    0.0                 !
 ! D2    D(2,1,4,6)            -59.3331         -DE/DX =    0.0                 !
 ! D3    D(2,1,4,7)           -179.9438         -DE/DX =    0.0                 !
 ! D4    D(3,1,4,5)            179.9438         -DE/DX =    0.0                 !
 ! D5    D(3,1,4,6)             59.3331         -DE/DX =    0.0                 !
 ! D6    D(3,1,4,7)            -61.2777         -DE/DX =    0.0                 !
 ! D7    D(8,1,4,5)            -59.3893         -DE/DX =    0.0                 !
 ! D8    D(8,1,4,6)            180.0            -DE/DX =    0.0                 !
 ! D9    D(8,1,4,7)             59.3893         -DE/DX =    0.0                 !
 --------------------------------------------------------------------------------
 GradGradGradGradGradGradGradGradGradGradGradGradGradGradGradGradGradGrad


 ----------------------------------------------------------------------

 Electric dipole moment (input orientation):
 (Debye = 10**-18 statcoulomb cm , SI units = C m)
                  (au)            (Debye)         (10**-30 SI)
   Tot        0.625847D+00      0.159075D+01      0.530616D+01
   x         -0.625357D+00     -0.158950D+01     -0.530199D+01
   y         -0.247839D-01     -0.629944D-01     -0.210127D+00
   z          0.000000D+00      0.000000D+00      0.000000D+00

 Dipole polarizability, Alpha (input orientation).
 (esu units = cm**3 , SI units = C**2 m**2 J**-1)
 Alpha(0;0):
               (au)            (10**-24 esu)      (10**-40 SI)
   iso        0.292383D+02      0.433267D+01      0.482075D+01
   aniso      0.166856D+01      0.247256D+00      0.275109D+00
   xx         0.282322D+02      0.418358D+01      0.465486D+01
   yx         0.201694D+00      0.298879D-01      0.332548D-01
   yy         0.293835D+02      0.435419D+01      0.484469D+01
   zx         0.000000D+00      0.000000D+00      0.000000D+00
   zy         0.000000D+00      0.000000D+00      0.000000D+00
   zz         0.300993D+02      0.446026D+01      0.496271D+01

 ----------------------------------------------------------------------

 Dipole orientation:
     6         -0.05799593          1.46337479          1.07815945
     9          1.95737960          2.81874626          0.33246494
     9         -2.17431311          2.65500055          0.33246494
     6          0.04548546         -1.14770595         -0.18466741
     9          2.13744996         -2.34926831          0.53740373
     9          0.03828103         -0.96592122         -2.68325490
     9         -1.94482741         -2.51105561          0.53740373
     1         -0.05066802          1.27847439          3.13067555

 Electric dipole moment (dipole orientation):
 (Debye = 10**-18 statcoulomb cm , SI units = C m)
                  (au)            (Debye)         (10**-30 SI)
   Tot        0.625847D+00      0.159075D+01      0.530616D+01
   x          0.000000D+00      0.000000D+00      0.000000D+00
   y          0.000000D+00      0.000000D+00      0.000000D+00
   z          0.625847D+00      0.159075D+01      0.530616D+01

 Dipole polarizability, Alpha (dipole orientation).
 (esu units = cm**3 , SI units = C**2 m**2 J**-1)
 Alpha(0;0):
               (au)            (10**-24 esu)      (10**-40 SI)
   iso        0.292383D+02      0.433267D+01      0.482075D+01
   aniso      0.166856D+01      0.247256D+00      0.275109D+00
   xx         0.300982D+02      0.446009D+01      0.496252D+01
   yx         0.290276D-01      0.430145D-02      0.478600D-02
   yy         0.293669D+02      0.435172D+01      0.484195D+01
   zx         0.976621D-02      0.144720D-02      0.161023D-02
   zy        -0.246425D+00     -0.365164D-01     -0.406300D-01
   zz         0.282500D+02      0.418621D+01      0.465779D+01

 ----------------------------------------------------------------------
 1\1\GINC-CCLEARCO\Freq\RwB97XD\6-311+G(2d,2p)\C2H1F5\RAPPE\12-Jan-2026
 \0\\#N Geom=AllCheck Guess=TCheck SCRF=Check GenChk RwB97XD/6-311+G(2d
 ,2p) Freq\\Title Card Required\\0,1\C,-0.60078,0.751791,0.\F,-0.233193
 ,1.441324,1.094057\F,-0.233193,1.441324,-1.094057\C,0.121715,-0.60347,
 0.\F,-0.233193,-1.297248,1.080972\F,1.439061,-0.454914,0.\F,-0.233193,
 -1.297248,-1.080972\H,-1.682195,0.610934,0.\\Version=EM64M-G16RevA.03\
 State=1-A'\HF=-576.060191\RMSD=9.094e-10\RMSF=8.527e-05\ZeroPoint=0.03
 78166\Thermal=0.0439158\Dipole=-0.6253565,-0.0247839,0.\DipoleDeriv=0.
 6567208,0.1582528,0.,0.1102017,1.0108466,0.,0.,0.,1.421106,-0.2822911,
 -0.08354,-0.159618,-0.0527821,-0.5033096,-0.3341197,-0.083602,-0.24870
 76,-0.7177114,-0.2822911,-0.08354,0.159618,-0.0527821,-0.5033096,0.334
 1197,0.083602,0.2487076,-0.7177114,1.5944236,0.2075803,0.,0.1418245,1.
 3832742,0.,0.,0.,1.6859413,-0.3398773,-0.043528,0.1166238,-0.0964382,-
 0.531428,0.3381848,0.1554405,0.2539264,-0.7170123,-0.9570776,-0.065502
 2,0.,0.0238757,-0.3371413,0.,0.,0.,-0.2719987,-0.3398773,-0.043528,-0.
 1166238,-0.0964382,-0.531428,-0.3381848,-0.1554405,-0.2539264,-0.71701
 23,-0.0497299,-0.046195,0.,0.0225387,0.0124956,0.,0.,0.,0.0343988\Pola
 r=28.2321852,0.2016938,29.3835025,0.,0.,30.0993208\Quadrupole=2.386723
 4,-1.2639606,-1.1227628,-0.7074304,0.,0.\PG=CS [SG(C2H1F1),X(F4)]\NIma
 g=0\\0.67303864,0.03709061,0.55600775,0.,0.,0.49186678,-0.10522305,-0.
 04325735,-0.05169574,0.08285825,-0.04130555,-0.15295450,-0.09130328,0.
 05187768,0.15965111,-0.05939104,-0.10611303,-0.18559017,0.07485543,0.1
 4133069,0.28985191,-0.10522305,-0.04325735,0.05169574,0.01547143,0.008
 17967,-0.00235152,0.08285825,-0.04130555,-0.15295450,0.09130328,0.0081
 7967,0.02385181,-0.00547493,0.05187768,0.15965111,0.05939104,0.1061130
 3,-0.18559017,0.00235152,0.00547493,-0.07683441,-0.07485543,-0.1413306
 9,0.28985191,-0.10610314,0.07869008,0.,0.00325196,-0.02135636,-0.00907
 958,0.00325196,-0.02135636,0.00907958,0.57690375,0.05612234,-0.1707015
 8,0.,0.00538314,-0.01636076,-0.00991847,0.00538314,-0.01636076,0.00991
 847,-0.03770043,0.60667243,0.,0.,-0.03488274,0.00513322,-0.03977248,-0
 .02476954,-0.00513322,0.03977248,-0.02476954,0.,0.,0.54008343,0.007880
 80,0.00351572,-0.00503386,0.00058252,0.00138496,0.00038030,0.00063131,
 0.00395524,-0.00172056,-0.08356208,-0.02032158,0.02895911,0.09954038,-
 0.01521817,-0.01161463,0.03869876,-0.00003589,-0.00068124,-0.00191136,
 0.00374548,-0.01230437,0.00508592,-0.01319065,-0.16445703,0.09271924,0
 .04856335,0.16340095,0.01048252,0.00742035,-0.02169241,0.00004897,0.00
 177532,0.00688182,-0.00280488,0.00515958,0.00015593,0.02472677,0.10396
 941,-0.19294734,-0.06906651,-0.14118189,0.29855077,-0.05188535,-0.0149
 4607,0.,0.00605095,0.00266522,0.00301530,0.00605094,0.00266522,-0.0030
 1530,-0.29555729,0.01641658,0.,-0.04051764,-0.02803877,0.03621117,0.41
 717645,0.03102194,0.00765634,0.,-0.00039858,0.00154775,0.00051102,-0.0
 0039858,0.00154775,-0.00051102,0.00214686,-0.08436699,0.,-0.03824257,0
 .00133346,0.01539175,0.04217160,0.07616019,0.,0.,0.00249013,0.00133376
 ,0.00246803,0.00307188,-0.00133376,-0.00246803,0.00307188,0.,0.,-0.074
 35867,0.04793898,0.01489888,-0.00714399,0.,0.,0.08011175,0.00788080,0.
 00351572,0.00503386,0.00063131,0.00395524,0.00172056,0.00058252,0.0013
 8496,-0.00038030,-0.08356208,-0.02032158,-0.02895911,0.01385776,0.0031
 3751,0.00134313,-0.04051763,-0.03824257,-0.04793898,0.09954038,-0.0152
 1817,-0.01161463,-0.03869876,0.00374548,-0.01230437,-0.00508592,-0.000
 03589,-0.00068124,0.00191136,-0.01319065,-0.16445703,-0.09271924,0.003
 13751,0.02437591,0.00737711,-0.02803877,0.00133346,-0.01489888,0.04856
 335,0.16340095,-0.01048252,-0.00742035,-0.02169241,0.00280488,-0.00515
 958,0.00015593,-0.00004897,-0.00177532,0.00688182,-0.02472677,-0.10396
 941,-0.19294734,-0.00134313,-0.00737711,-0.08418744,-0.03621117,-0.015
 39175,-0.00714399,0.06906651,0.14118189,0.29855077,-0.32036565,-0.0213
 5137,0.,-0.00362337,-0.00540085,-0.00914944,-0.00362337,-0.00540086,0.
 00914944,-0.01462308,-0.00496162,0.,0.00158694,0.00103716,-0.00094117,
 -0.00080043,0.00194189,0.,0.00158694,0.00103716,0.00094117,0.33986200,
 -0.01118744,-0.06382425,0.,-0.02549415,-0.00274980,-0.01333800,-0.0254
 9415,-0.00274980,0.01333800,0.02595751,0.01003172,0.,-0.00199262,-0.00
 005305,0.00008837,0.00710499,-0.00521196,0.,-0.00199262,-0.00005305,-0
 .00008837,0.03309849,0.06461019,0.,0.,-0.04490901,-0.03483203,-0.01481
 363,-0.01276742,0.03483203,0.01481363,-0.01276742,0.,0.,0.00459173,-0.
 00011433,-0.00093243,0.00038266,0.,0.,-0.00009900,0.00011433,0.0009324
 3,0.00038266,0.,0.,0.06518580\\-0.00005170,-0.00015836,0.,0.00001972,0
 .00003952,0.00008291,0.00001972,0.00003952,-0.00008291,-0.00030319,0.0
 0002691,0.,0.00005670,0.00002687,-0.00006183,0.00011629,-0.00000616,0.
 ,0.00005670,0.00002687,0.00006183,0.00008576,0.00000484,0.\\\@


 CONFIDENCE: THAT QUIET ASSURED FEELING YOU HAVE
 JUST BEFORE YOU FALL FLAT ON YOUR FACE.
 Job cpu time:       0 days  0 hours 28 minutes  8.6 seconds.
 Elapsed time:       0 days  0 hours  1 minutes 12.0 seconds.
 File lengths (MBytes):  RWF=     36 Int=      0 D2E=      0 Chk=      4 Scr=      1
 Normal termination of Gaussian 16 at Mon Jan 12 10:47:39 2026.
