 Entering Gaussian System, Link 0=/applications/g16/g16/g16
 Initial command:
 /applications/g16/g16/l1.exe "/scratch/g98/Gau-20775.inp" -scrdir="/scratch/g98/"
 Entering Link 1 = /applications/g16/g16/l1.exe PID=     20776.
  
 Copyright (c) 1988,1990,1992,1993,1995,1998,2003,2009,2016,
            Gaussian, Inc.  All Rights Reserved.
  
 This is part of the Gaussian(R) 16 program.  It is based on
 the Gaussian(R) 09 system (copyright 2009, Gaussian, Inc.),
 the Gaussian(R) 03 system (copyright 2003, Gaussian, Inc.),
 the Gaussian(R) 98 system (copyright 1998, Gaussian, Inc.),
 the Gaussian(R) 94 system (copyright 1995, Gaussian, Inc.),
 the Gaussian 92(TM) system (copyright 1992, Gaussian, Inc.),
 the Gaussian 90(TM) system (copyright 1990, Gaussian, Inc.),
 the Gaussian 88(TM) system (copyright 1988, Gaussian, Inc.),
 the Gaussian 86(TM) system (copyright 1986, Carnegie Mellon
 University), and the Gaussian 82(TM) system (copyright 1983,
 Carnegie Mellon University). Gaussian is a federally registered
 trademark of Gaussian, Inc.
  
 This software contains proprietary and confidential information,
 including trade secrets, belonging to Gaussian, Inc.
  
 This software is provided under written license and may be
 used, copied, transmitted, or stored only in accord with that
 written license.
  
 The following legend is applicable only to US Government
 contracts under FAR:
  
                    RESTRICTED RIGHTS LEGEND
  
 Use, reproduction and disclosure by the US Government is
 subject to restrictions as set forth in subparagraphs (a)
 and (c) of the Commercial Computer Software - Restricted
 Rights clause in FAR 52.227-19.
  
 Gaussian, Inc.
 340 Quinnipiac St., Bldg. 40, Wallingford CT 06492
  
  
 ---------------------------------------------------------------
 Warning -- This program may not be used in any manner that
 competes with the business of Gaussian, Inc. or will provide
 assistance to any competitor of Gaussian, Inc.  The licensee
 of this program is prohibited from giving any competitor of
 Gaussian, Inc. access to this program.  By using this program,
 the user acknowledges that Gaussian, Inc. is engaged in the
 business of creating and licensing software in the field of
 computational chemistry and represents and warrants to the
 licensee that it is not a competitor of Gaussian, Inc. and that
 it will not use this program in any manner prohibited above.
 ---------------------------------------------------------------
  

 Cite this work as:
 Gaussian 16, Revision A.03,
 M. J. Frisch, G. W. Trucks, H. B. Schlegel, G. E. Scuseria, 
 M. A. Robb, J. R. Cheeseman, G. Scalmani, V. Barone, 
 G. A. Petersson, H. Nakatsuji, X. Li, M. Caricato, A. V. Marenich, 
 J. Bloino, B. G. Janesko, R. Gomperts, B. Mennucci, H. P. Hratchian, 
 J. V. Ortiz, A. F. Izmaylov, J. L. Sonnenberg, D. Williams-Young, 
 F. Ding, F. Lipparini, F. Egidi, J. Goings, B. Peng, A. Petrone, 
 T. Henderson, D. Ranasinghe, V. G. Zakrzewski, J. Gao, N. Rega, 
 G. Zheng, W. Liang, M. Hada, M. Ehara, K. Toyota, R. Fukuda, 
 J. Hasegawa, M. Ishida, T. Nakajima, Y. Honda, O. Kitao, H. Nakai, 
 T. Vreven, K. Throssell, J. A. Montgomery, Jr., J. E. Peralta, 
 F. Ogliaro, M. J. Bearpark, J. J. Heyd, E. N. Brothers, K. N. Kudin, 
 V. N. Staroverov, T. A. Keith, R. Kobayashi, J. Normand, 
 K. Raghavachari, A. P. Rendell, J. C. Burant, S. S. Iyengar, 
 J. Tomasi, M. Cossi, J. M. Millam, M. Klene, C. Adamo, R. Cammi, 
 J. W. Ochterski, R. L. Martin, K. Morokuma, O. Farkas, 
 J. B. Foresman, and D. J. Fox, Gaussian, Inc., Wallingford CT, 2016.
 
 ******************************************
 Gaussian 16:  EM64M-G16RevA.03 25-Dec-2016
                12-Jan-2026 
 ******************************************
 %mem=48GB
 %nprocshared=24
 Will use up to   24 processors via shared memory.
 %chk=methane.chk
 --------------------------------------------------
 # opt wb97xd/6-311+g(2d,2p) geom=connectivity freq
 --------------------------------------------------
 1/18=20,19=15,26=3,38=1,57=2/1,3;
 2/9=110,12=2,17=6,18=5,40=1/2;
 3/5=4,6=6,7=212,11=2,25=1,30=1,71=1,74=-58/1,2,3;
 4//1;
 5/5=2,38=5/2;
 6/7=2,8=2,9=2,10=2,28=1/1;
 7//1,2,3,16;
 1/18=20,19=15,26=3/3(2);
 2/9=110/2;
 99//99;
 2/9=110/2;
 3/5=4,6=6,7=212,11=2,25=1,30=1,71=1,74=-58/1,2,3;
 4/5=5,16=3,69=1/1;
 5/5=2,38=5/2;
 7//1,2,3,16;
 1/18=20,19=15,26=3/3(-5);
 2/9=110/2;
 6/7=2,8=2,9=2,10=2,19=2,28=1/1;
 99/9=1/99;
 -------------------
 Title Card Required
 -------------------
 Symbolic Z-matrix:
 Charge =  0 Multiplicity = 1
 C                     0.        0.        0.33859 
 F                     0.        1.24939  -0.12811 
 F                    -1.08201  -0.6247   -0.12811 
 F                     1.08201  -0.6247   -0.12811 
 H                     0.        0.        1.42728 
 

 GradGradGradGradGradGradGradGradGradGradGradGradGradGradGradGradGradGrad
 Berny optimization.
 Initialization pass.
                           ----------------------------
                           !    Initial Parameters    !
                           ! (Angstroms and Degrees)  !
 --------------------------                            --------------------------
 ! Name  Definition              Value          Derivative Info.                !
 --------------------------------------------------------------------------------
 ! R1    R(1,2)                  1.3337         estimate D2E/DX2                !
 ! R2    R(1,3)                  1.3337         estimate D2E/DX2                !
 ! R3    R(1,4)                  1.3337         estimate D2E/DX2                !
 ! R4    R(1,5)                  1.0887         estimate D2E/DX2                !
 ! A1    A(2,1,3)              108.4411         estimate D2E/DX2                !
 ! A2    A(2,1,4)              108.4411         estimate D2E/DX2                !
 ! A3    A(2,1,5)              110.4826         estimate D2E/DX2                !
 ! A4    A(3,1,4)              108.4412         estimate D2E/DX2                !
 ! A5    A(3,1,5)              110.4826         estimate D2E/DX2                !
 ! A6    A(4,1,5)              110.4826         estimate D2E/DX2                !
 ! D1    D(2,1,4,3)           -117.5611         estimate D2E/DX2                !
 ! D2    D(2,1,5,3)            120.0            estimate D2E/DX2                !
 ! D3    D(2,1,5,4)           -120.0            estimate D2E/DX2                !
 ! D4    D(3,1,5,4)            120.0            estimate D2E/DX2                !
 --------------------------------------------------------------------------------
 Trust Radius=3.00D-01 FncErr=1.00D-07 GrdErr=1.00D-06 EigMax=2.50D+02 EigMin=1.00D-04
 Number of steps in this run=     24 maximum allowed number of steps=    100.
 GradGradGradGradGradGradGradGradGradGradGradGradGradGradGradGradGradGrad

                          Input orientation:                          
 ---------------------------------------------------------------------
 Center     Atomic      Atomic             Coordinates (Angstroms)
 Number     Number       Type             X           Y           Z
 ---------------------------------------------------------------------
      1          6           0        0.000000    0.000000    0.338592
      2          9           0        0.000000    1.249393   -0.128105
      3          9           0       -1.082006   -0.624696   -0.128105
      4          9           0        1.082006   -0.624696   -0.128105
      5          1           0        0.000000    0.000000    1.427281
 ---------------------------------------------------------------------
                    Distance matrix (angstroms):
                    1          2          3          4          5
     1  C    0.000000
     2  F    1.333712   0.000000
     3  F    1.333712   2.164012   0.000000
     4  F    1.333712   2.164012   2.164012   0.000000
     5  H    1.088689   1.995046   1.995046   1.995046   0.000000
 Stoichiometry    CHF3
 Framework group  C3V[C3(CH),3SGV(F)]
 Deg. of freedom     3
 Full point group                 C3V     NOp   6
 Largest Abelian subgroup         CS      NOp   2
 Largest concise Abelian subgroup CS      NOp   2
                         Standard orientation:                         
 ---------------------------------------------------------------------
 Center     Atomic      Atomic             Coordinates (Angstroms)
 Number     Number       Type             X           Y           Z
 ---------------------------------------------------------------------
      1          6           0        0.000000   -0.000000    0.338592
      2          9           0        0.000000    1.249393   -0.128105
      3          9           0       -1.082006   -0.624696   -0.128105
      4          9           0        1.082006   -0.624696   -0.128105
      5          1           0        0.000000   -0.000000    1.427281
 ---------------------------------------------------------------------
 Rotational constants (GHZ):          10.3556756          10.3556756           5.6804258
 Standard basis: 6-311+G(2d,2p) (5D, 7F)
 There are    78 symmetry adapted cartesian basis functions of A'  symmetry.
 There are    47 symmetry adapted cartesian basis functions of A"  symmetry.
 There are    72 symmetry adapted basis functions of A'  symmetry.
 There are    45 symmetry adapted basis functions of A"  symmetry.
   117 basis functions,   179 primitive gaussians,   125 cartesian basis functions
    17 alpha electrons       17 beta electrons
       nuclear repulsion energy       133.7768814678 Hartrees.
 NAtoms=    5 NActive=    5 NUniq=    3 SFac= 2.78D+00 NAtFMM=   60 NAOKFM=F Big=F
 Integral buffers will be    131072 words long.
 Raffenetti 2 integral format.
 Two-electron integral symmetry is turned on.
 Nuclear repulsion after empirical dispersion term =      133.7765204363 Hartrees.
 One-electron integrals computed using PRISM.
 NBasis=   117 RedAO= T EigKep=  1.59D-03  NBF=    72    45
 NBsUse=   117 1.00D-06 EigRej= -1.00D+00 NBFU=    72    45
 ExpMin= 4.38D-02 ExpMax= 1.14D+04 ExpMxC= 1.72D+03 IAcc=3 IRadAn=         5 AccDes= 0.00D+00
 Harris functional with IExCor= 4639 and IRadAn=       5 diagonalized for initial guess.
 HarFok:  IExCor= 4639 AccDes= 0.00D+00 IRadAn=         5 IDoV= 1 UseB2=F ITyADJ=14
 ICtDFT=  3500011 ScaDFX=  1.000000  1.000000  1.000000  1.000000
 FoFCou: FMM=F IPFlag=           0 FMFlag=      100000 FMFlg1=           0
         NFxFlg=           0 DoJE=T BraDBF=F KetDBF=T FulRan=T
         wScrn=  0.000000 ICntrl=       500 IOpCl=  0 I1Cent=   200000004 NGrid=           0
         NMat0=    1 NMatS0=      1 NMatT0=    0 NMatD0=    1 NMtDS0=    0 NMtDT0=    0
 Petite list used in FoFCou.
 Initial guess orbital symmetries:
       Occupied  (A1) (E) (E) (A1) (A1) (E) (E) (A1) (A1) (E) (E)
                 (E) (E) (E) (E) (A1) (A2)
       Virtual   (A1) (A1) (E) (E) (A1) (E) (E) (E) (E) (A1) (E)
                 (E) (A1) (A1) (E) (E) (A2) (A1) (E) (E) (A1) (E)
                 (E) (A1) (E) (E) (A1) (A1) (E) (E) (E) (E) (E)
                 (E) (E) (E) (A1) (A1) (A2) (A1) (E) (E) (E) (E)
                 (A2) (E) (E) (A1) (A1) (E) (E) (A2) (E) (E) (E)
                 (E) (A1) (A1) (E) (E) (A1) (E) (E) (A1) (E) (E)
                 (A1) (E) (E) (E) (E) (A1) (E) (E) (A1) (E) (E)
                 (A2) (A1) (E) (E) (A2) (E) (E) (E) (E) (A2) (A1)
                 (E) (E) (A1) (E) (E) (A1) (E) (E) (A1) (E) (E)
                 (A1)
 The electronic state of the initial guess is 1-A1.
 Keep R1 ints in memory in symmetry-blocked form, NReq=71596555.
 Requested convergence on RMS density matrix=1.00D-08 within 128 cycles.
 Requested convergence on MAX density matrix=1.00D-06.
 Requested convergence on             energy=1.00D-06.
 No special actions if energy rises.
 SCF Done:  E(RwB97XD) =  -338.259956972     A.U. after   10 cycles
            NFock= 10  Conv=0.38D-08     -V/T= 2.0025

 **********************************************************************

            Population analysis using the SCF density.

 **********************************************************************

 Orbital symmetries:
       Occupied  (E) (E) (A1) (A1) (A1) (E) (E) (A1) (A1) (E) (E)
                 (E) (E) (E) (E) (A2) (A1)
       Virtual   (A1) (E) (E) (A1) (A1) (E) (E) (A1) (E) (E) (E)
                 (E) (A1) (A1) (E) (E) (A2) (A1) (E) (E) (A1) (E)
                 (E) (A1) (E) (E) (A1) (A1) (E) (E) (E) (E) (E)
                 (E) (E) (E) (A1) (A1) (A2) (A1) (E) (E) (E) (E)
                 (A2) (E) (E) (A1) (A1) (E) (E) (A2) (E) (E) (E)
                 (E) (A1) (A1) (E) (E) (A1) (E) (E) (A1) (E) (E)
                 (A1) (E) (E) (E) (E) (A1) (E) (E) (A1) (E) (E)
                 (A2) (A1) (E) (E) (A2) (E) (E) (E) (E) (A2) (A1)
                 (E) (E) (A1) (E) (E) (A1) (E) (E) (A1) (E) (E)
                 (A1)
 The electronic state is 1-A1.
 Alpha  occ. eigenvalues --  -24.85397 -24.85397 -24.85397 -10.54572  -1.43898
 Alpha  occ. eigenvalues --   -1.34842  -1.34842  -0.83227  -0.71501  -0.70172
 Alpha  occ. eigenvalues --   -0.70172  -0.57561  -0.57561  -0.53832  -0.53832
 Alpha  occ. eigenvalues --   -0.51584  -0.49519
 Alpha virt. eigenvalues --    0.06859   0.09962   0.09962   0.10041   0.21939
 Alpha virt. eigenvalues --    0.23250   0.23250   0.28004   0.29510   0.29510
 Alpha virt. eigenvalues --    0.32393   0.32393   0.34035   0.35201   0.39328
 Alpha virt. eigenvalues --    0.39328   0.40404   0.41635   0.48066   0.48066
 Alpha virt. eigenvalues --    0.54834   0.62982   0.62982   0.71526   0.83983
 Alpha virt. eigenvalues --    0.83983   0.95074   1.05696   1.13644   1.13644
 Alpha virt. eigenvalues --    1.22390   1.22390   1.31421   1.31421   1.38021
 Alpha virt. eigenvalues --    1.38021   1.39058   1.46331   1.46695   1.47941
 Alpha virt. eigenvalues --    1.53614   1.53614   1.92364   1.92364   2.04101
 Alpha virt. eigenvalues --    2.05259   2.05259   2.07004   2.10353   2.14991
 Alpha virt. eigenvalues --    2.14991   2.22972   2.39215   2.39215   2.63771
 Alpha virt. eigenvalues --    2.63771   2.69293   2.80992   2.90751   2.90751
 Alpha virt. eigenvalues --    2.92904   3.35351   3.35351   3.41269   3.50652
 Alpha virt. eigenvalues --    3.50652   3.73726   4.04820   4.04820   4.24179
 Alpha virt. eigenvalues --    4.24179   4.89976   6.35075   6.35075   6.39266
 Alpha virt. eigenvalues --    6.43738   6.43738   6.44112   6.56210   6.81689
 Alpha virt. eigenvalues --    6.81689   9.09298   9.10903   9.10903   9.20953
 Alpha virt. eigenvalues --    9.20953   9.23319   9.24234   9.31863   9.31863
 Alpha virt. eigenvalues --    9.50352   9.67815   9.67815   9.68607   9.82924
 Alpha virt. eigenvalues --    9.82924  24.03497  66.90984  66.90984  66.97208
          Condensed to atoms (all electrons):
               1          2          3          4          5
     1  C    4.225061   0.193219   0.193219   0.193219   0.489046
     2  F    0.193219   9.128652   0.007463   0.007463  -0.051578
     3  F    0.193219   0.007463   9.128652   0.007463  -0.051578
     4  F    0.193219   0.007463   0.007463   9.128652  -0.051578
     5  H    0.489046  -0.051578  -0.051578  -0.051578   0.516263
 Mulliken charges:
               1
     1  C    0.706235
     2  F   -0.285220
     3  F   -0.285220
     4  F   -0.285220
     5  H    0.149424
 Sum of Mulliken charges =  -0.00000
 Mulliken charges with hydrogens summed into heavy atoms:
               1
     1  C    0.855659
     2  F   -0.285220
     3  F   -0.285220
     4  F   -0.285220
 Electronic spatial extent (au):  <R**2>=            208.7901
 Charge=             -0.0000 electrons
 Dipole moment (field-independent basis, Debye):
    X=              0.0000    Y=              0.0000    Z=              1.6772  Tot=              1.6772
 Quadrupole moment (field-independent basis, Debye-Ang):
   XX=            -22.2811   YY=            -22.2811   ZZ=            -18.6123
   XY=              0.0000   XZ=             -0.0000   YZ=              0.0000
 Traceless Quadrupole moment (field-independent basis, Debye-Ang):
   XX=             -1.2229   YY=             -1.2229   ZZ=              2.4459
   XY=              0.0000   XZ=             -0.0000   YZ=              0.0000
 Octapole moment (field-independent basis, Debye-Ang**2):
  XXX=              0.0000  YYY=             -1.1144  ZZZ=              0.3680  XYY=              0.0000
  XXY=              1.1144  XXZ=             -0.6448  XZZ=              0.0000  YZZ=              0.0000
  YYZ=             -0.6448  XYZ=             -0.0000
 Hexadecapole moment (field-independent basis, Debye-Ang**3):
 XXXX=            -84.2261 YYYY=            -84.2261 ZZZZ=            -23.3412 XXXY=              0.0000
 XXXZ=             -0.0000 YYYX=              0.0000 YYYZ=             -0.4120 ZZZX=             -0.0000
 ZZZY=             -0.0000 XXYY=            -28.0754 XXZZ=            -18.3640 YYZZ=            -18.3640
 XXYZ=              0.4120 YYXZ=             -0.0000 ZZXY=              0.0000
 N-N= 1.337765204363D+02 E-N=-1.072656087960D+03  KE= 3.374162748921D+02
 Symmetry A'   KE= 2.292380031491D+02
 Symmetry A"   KE= 1.081782717430D+02
 Calling FoFJK, ICntrl=      2127 FMM=F ISym2X=1 I1Cent= 0 IOpClX= 0 NMat=1 NMatS=1 NMatT=0.
 ***** Axes restored to original set *****
 -------------------------------------------------------------------
 Center     Atomic                   Forces (Hartrees/Bohr)
 Number     Number              X              Y              Z
 -------------------------------------------------------------------
      1        6           0.000000000   -0.000000000    0.000135538
      2        9           0.000000000    0.000006459   -0.000003406
      3        9          -0.000005594   -0.000003230   -0.000003406
      4        9           0.000005594   -0.000003230   -0.000003406
      5        1           0.000000000   -0.000000000   -0.000125321
 -------------------------------------------------------------------
 Cartesian Forces:  Max     0.000135538 RMS     0.000047774

 GradGradGradGradGradGradGradGradGradGradGradGradGradGradGradGradGradGrad
 Berny optimization.
 FormGI is forming the generalized inverse of G from B-inverse, IUseBI=4.
 Internal  Forces:  Max     0.000125321 RMS     0.000033665
 Search for a local minimum.
 Step number   1 out of a maximum of   24
 All quantities printed in internal units (Hartrees-Bohrs-Radians)
 Mixed Optimization -- En-DIIS/RFO-DIIS
 Second derivative matrix not updated -- first step.
 The second derivative matrix:
                          R1        R2        R3        R4        A1
           R1           0.58637
           R2           0.00000   0.58637
           R3           0.00000   0.00000   0.58637
           R4           0.00000   0.00000   0.00000   0.34965
           A1           0.00000   0.00000   0.00000   0.00000   0.25000
           A2           0.00000   0.00000   0.00000   0.00000   0.00000
           A3           0.00000   0.00000   0.00000   0.00000   0.00000
           A4           0.00000   0.00000   0.00000   0.00000   0.00000
           A5           0.00000   0.00000   0.00000   0.00000   0.00000
           A6           0.00000   0.00000   0.00000   0.00000   0.00000
           D1           0.00000   0.00000   0.00000   0.00000   0.00000
           D2           0.00000   0.00000   0.00000   0.00000   0.00000
           D3           0.00000   0.00000   0.00000   0.00000   0.00000
           D4           0.00000   0.00000   0.00000   0.00000   0.00000
                          A2        A3        A4        A5        A6
           A2           0.25000
           A3           0.00000   0.16000
           A4           0.00000   0.00000   0.25000
           A5           0.00000   0.00000   0.00000   0.16000
           A6           0.00000   0.00000   0.00000   0.00000   0.16000
           D1           0.00000   0.00000   0.00000   0.00000   0.00000
           D2           0.00000   0.00000   0.00000   0.00000   0.00000
           D3           0.00000   0.00000   0.00000   0.00000   0.00000
           D4           0.00000   0.00000   0.00000   0.00000   0.00000
                          D1        D2        D3        D4
           D1           0.02304
           D2           0.00000   0.00252
           D3           0.00000   0.00000   0.00252
           D4           0.00000   0.00000   0.00000   0.00252
 ITU=  0
     Eigenvalues ---    0.07141   0.07490   0.11842   0.18342   0.18570
     Eigenvalues ---    0.34965   0.58637   0.58637   0.58637
 RFO step:  Lambda=-4.52211345D-08 EMin= 7.14083430D-02
 Linear search not attempted -- first point.
 Iteration  1 RMS(Cart)=  0.00008295 RMS(Int)=  0.00000000
 Iteration  2 RMS(Cart)=  0.00000000 RMS(Int)=  0.00000000
 ClnCor:  largest displacement from symmetrization is 4.59D-07 for atom     4.
 Variable       Old X    -DE/DX   Delta X   Delta X   Delta X     New X
                                 (Linear)    (Quad)   (Total)
    R1        2.52035   0.00001   0.00000   0.00001   0.00001   2.52036
    R2        2.52035   0.00001   0.00000   0.00001   0.00001   2.52036
    R3        2.52035   0.00001   0.00000   0.00001   0.00001   2.52036
    R4        2.05732  -0.00013   0.00000  -0.00036  -0.00036   2.05697
    A1        1.89266  -0.00000   0.00000  -0.00000  -0.00001   1.89265
    A2        1.89266  -0.00000   0.00000  -0.00001  -0.00001   1.89265
    A3        1.92829   0.00000   0.00000   0.00000   0.00000   1.92829
    A4        1.89266  -0.00000   0.00000  -0.00001  -0.00001   1.89265
    A5        1.92829   0.00000   0.00000   0.00000   0.00000   1.92829
    A6        1.92829   0.00000   0.00000   0.00000   0.00000   1.92829
    D1       -2.05183   0.00000   0.00000   0.00001   0.00001  -2.05182
    D2        2.09440   0.00000   0.00000   0.00000   0.00000   2.09440
    D3       -2.09440   0.00000   0.00000   0.00000   0.00000  -2.09440
    D4        2.09440  -0.00000   0.00000  -0.00000   0.00000   2.09440
         Item               Value     Threshold  Converged?
 Maximum Force            0.000125     0.000450     YES
 RMS     Force            0.000034     0.000300     YES
 Maximum Displacement     0.000277     0.001800     YES
 RMS     Displacement     0.000083     0.001200     YES
 Predicted change in Energy=-2.261052D-08
 Optimization completed.
    -- Stationary point found.
                           ----------------------------
                           !   Optimized Parameters   !
                           ! (Angstroms and Degrees)  !
 --------------------------                            --------------------------
 ! Name  Definition              Value          Derivative Info.                !
 --------------------------------------------------------------------------------
 ! R1    R(1,2)                  1.3337         -DE/DX =    0.0                 !
 ! R2    R(1,3)                  1.3337         -DE/DX =    0.0                 !
 ! R3    R(1,4)                  1.3337         -DE/DX =    0.0                 !
 ! R4    R(1,5)                  1.0887         -DE/DX =   -0.0001              !
 ! A1    A(2,1,3)              108.4412         -DE/DX =    0.0                 !
 ! A2    A(2,1,4)              108.4412         -DE/DX =    0.0                 !
 ! A3    A(2,1,5)              110.4826         -DE/DX =    0.0                 !
 ! A4    A(3,1,4)              108.4412         -DE/DX =    0.0                 !
 ! A5    A(3,1,5)              110.4826         -DE/DX =    0.0                 !
 ! A6    A(4,1,5)              110.4826         -DE/DX =    0.0                 !
 ! D1    D(2,1,4,3)           -117.5612         -DE/DX =    0.0                 !
 ! D2    D(2,1,5,3)            120.0            -DE/DX =    0.0                 !
 ! D3    D(2,1,5,4)           -120.0            -DE/DX =    0.0                 !
 ! D4    D(3,1,5,4)            120.0            -DE/DX =    0.0                 !
 --------------------------------------------------------------------------------
 GradGradGradGradGradGradGradGradGradGradGradGradGradGradGradGradGradGrad

                          Input orientation:                          
 ---------------------------------------------------------------------
 Center     Atomic      Atomic             Coordinates (Angstroms)
 Number     Number       Type             X           Y           Z
 ---------------------------------------------------------------------
      1          6           0        0.000000    0.000000    0.338592
      2          9           0        0.000000    1.249393   -0.128105
      3          9           0       -1.082006   -0.624696   -0.128105
      4          9           0        1.082006   -0.624696   -0.128105
      5          1           0        0.000000    0.000000    1.427281
 ---------------------------------------------------------------------
                    Distance matrix (angstroms):
                    1          2          3          4          5
     1  C    0.000000
     2  F    1.333712   0.000000
     3  F    1.333712   2.164012   0.000000
     4  F    1.333712   2.164012   2.164012   0.000000
     5  H    1.088689   1.995046   1.995046   1.995046   0.000000
 Stoichiometry    CHF3
 Framework group  C3V[C3(CH),3SGV(F)]
 Deg. of freedom     3
 Full point group                 C3V     NOp   6
 Largest Abelian subgroup         CS      NOp   2
 Largest concise Abelian subgroup CS      NOp   2
                         Standard orientation:                         
 ---------------------------------------------------------------------
 Center     Atomic      Atomic             Coordinates (Angstroms)
 Number     Number       Type             X           Y           Z
 ---------------------------------------------------------------------
      1          6           0        0.000000    0.000000    0.338592
      2          9           0        0.000000    1.249393   -0.128105
      3          9           0       -1.082006   -0.624696   -0.128105
      4          9           0        1.082006   -0.624696   -0.128105
      5          1           0        0.000000    0.000000    1.427281
 ---------------------------------------------------------------------
 Rotational constants (GHZ):          10.3556756          10.3556756           5.6804258
 1\1\GINC-CCLEARTI\FOpt\RwB97XD\6-311+G(2d,2p)\C1H1F3\RAPPE\12-Jan-2026
 \0\\# opt wb97xd/6-311+g(2d,2p) geom=connectivity freq\\Title Card Req
 uired\\0,1\C,0.,0.0000002647,0.338592\F,0.0000000132,1.249393,-0.12810
 5\F,-1.0820058547,-0.6246960915,-0.128105\F,1.0820058415,-0.6246961144
 ,-0.128105\H,0.,0.0000002647,1.427281\\Version=EM64M-G16RevA.03\State=
 1-A1\HF=-338.259957\RMSD=3.820e-09\RMSF=4.777e-05\Dipole=0.,0.,0.65984
 69\Quadrupole=-0.9092214,-0.9092214,1.8184427,0.,0.,0.\PG=C03V [C3(C1H
 1),3SGV(F1)]\\@


 CHRISTMAS IS ON TOP OF A STEEP HILL.
 THE CLOSER YOU GET, THE STEEPER THE HILL IS.
          -- LINUS, OF PEANUTS
 Job cpu time:       0 days  0 hours  1 minutes 57.0 seconds.
 Elapsed time:       0 days  0 hours  0 minutes  5.2 seconds.
 File lengths (MBytes):  RWF=     10 Int=      0 D2E=      0 Chk=      2 Scr=      1
 Normal termination of Gaussian 16 at Mon Jan 12 10:44:36 2026.
 Link1:  Proceeding to internal job step number  2.
 ----------------------------------------------------------------------
 #N Geom=AllCheck Guess=TCheck SCRF=Check GenChk RwB97XD/6-311+G(2d,2p)
  Freq
 ----------------------------------------------------------------------
 1/10=4,29=7,30=1,38=1,40=1/1,3;
 2/12=2,40=1/2;
 3/5=4,6=6,7=212,11=2,14=-4,25=1,30=1,70=2,71=2,74=-58,116=1,140=1/1,2,3;
 4/5=101/1;
 5/5=2,38=6,98=1/2;
 8/6=4,10=90,11=11/1;
 11/6=1,8=1,9=11,15=111,16=1/1,2,10;
 10/6=1/2;
 6/7=2,8=2,9=2,10=2,28=1/1;
 7/8=1,10=1,25=1/1,2,3,16;
 1/10=4,30=1/3;
 99//99;
 Structure from the checkpoint file:  "methane.chk"
 -------------------
 Title Card Required
 -------------------
 Charge =  0 Multiplicity = 1
 Redundant internal coordinates found in file.  (old form).
 C,0,0.,0.0000002647,0.338592
 F,0,0.0000000132,1.249393,-0.128105
 F,0,-1.0820058547,-0.6246960915,-0.128105
 F,0,1.0820058415,-0.6246961144,-0.128105
 H,0,0.,0.0000002647,1.427281
 Recover connectivity data from disk.

 GradGradGradGradGradGradGradGradGradGradGradGradGradGradGradGradGradGrad
 Berny optimization.
 Initialization pass.
                           ----------------------------
                           !    Initial Parameters    !
                           ! (Angstroms and Degrees)  !
 --------------------------                            --------------------------
 ! Name  Definition              Value          Derivative Info.                !
 --------------------------------------------------------------------------------
 ! R1    R(1,2)                  1.3337         calculate D2E/DX2 analytically  !
 ! R2    R(1,3)                  1.3337         calculate D2E/DX2 analytically  !
 ! R3    R(1,4)                  1.3337         calculate D2E/DX2 analytically  !
 ! R4    R(1,5)                  1.0887         calculate D2E/DX2 analytically  !
 ! A1    A(2,1,3)              108.4412         calculate D2E/DX2 analytically  !
 ! A2    A(2,1,4)              108.4412         calculate D2E/DX2 analytically  !
 ! A3    A(2,1,5)              110.4826         calculate D2E/DX2 analytically  !
 ! A4    A(3,1,4)              108.4412         calculate D2E/DX2 analytically  !
 ! A5    A(3,1,5)              110.4826         calculate D2E/DX2 analytically  !
 ! A6    A(4,1,5)              110.4826         calculate D2E/DX2 analytically  !
 ! D1    D(2,1,4,3)           -117.5612         calculate D2E/DX2 analytically  !
 ! D2    D(2,1,5,3)            120.0            calculate D2E/DX2 analytically  !
 ! D3    D(2,1,5,4)           -120.0            calculate D2E/DX2 analytically  !
 ! D4    D(3,1,5,4)            120.0            calculate D2E/DX2 analytically  !
 --------------------------------------------------------------------------------
 Trust Radius=3.00D-01 FncErr=1.00D-07 GrdErr=1.00D-07 EigMax=2.50D+02 EigMin=1.00D-04
 Number of steps in this run=      2 maximum allowed number of steps=      2.
 GradGradGradGradGradGradGradGradGradGradGradGradGradGradGradGradGradGrad

                          Input orientation:                          
 ---------------------------------------------------------------------
 Center     Atomic      Atomic             Coordinates (Angstroms)
 Number     Number       Type             X           Y           Z
 ---------------------------------------------------------------------
      1          6           0       -0.000000    0.000000    0.338592
      2          9           0        0.000000    1.249393   -0.128105
      3          9           0       -1.082006   -0.624696   -0.128105
      4          9           0        1.082006   -0.624696   -0.128105
      5          1           0       -0.000000    0.000000    1.427281
 ---------------------------------------------------------------------
                    Distance matrix (angstroms):
                    1          2          3          4          5
     1  C    0.000000
     2  F    1.333712   0.000000
     3  F    1.333712   2.164012   0.000000
     4  F    1.333712   2.164012   2.164012   0.000000
     5  H    1.088689   1.995046   1.995046   1.995046   0.000000
 Stoichiometry    CHF3
 Framework group  C3V[C3(CH),3SGV(F)]
 Deg. of freedom     3
 Full point group                 C3V     NOp   6
 Largest Abelian subgroup         CS      NOp   2
 Largest concise Abelian subgroup CS      NOp   2
                         Standard orientation:                         
 ---------------------------------------------------------------------
 Center     Atomic      Atomic             Coordinates (Angstroms)
 Number     Number       Type             X           Y           Z
 ---------------------------------------------------------------------
      1          6           0        0.000000    0.000000    0.338592
      2          9           0       -0.000000    1.249393   -0.128105
      3          9           0       -1.082006   -0.624696   -0.128105
      4          9           0        1.082006   -0.624696   -0.128105
      5          1           0        0.000000    0.000000    1.427281
 ---------------------------------------------------------------------
 Rotational constants (GHZ):          10.3556756          10.3556756           5.6804258
 Standard basis: 6-311+G(2d,2p) (5D, 7F)
 There are    78 symmetry adapted cartesian basis functions of A'  symmetry.
 There are    47 symmetry adapted cartesian basis functions of A"  symmetry.
 There are    72 symmetry adapted basis functions of A'  symmetry.
 There are    45 symmetry adapted basis functions of A"  symmetry.
   117 basis functions,   179 primitive gaussians,   125 cartesian basis functions
    17 alpha electrons       17 beta electrons
       nuclear repulsion energy       133.7768814678 Hartrees.
 NAtoms=    5 NActive=    5 NUniq=    3 SFac= 2.78D+00 NAtFMM=   60 NAOKFM=F Big=F
 Integral buffers will be    131072 words long.
 Raffenetti 2 integral format.
 Two-electron integral symmetry is turned on.
 Nuclear repulsion after empirical dispersion term =      133.7765204363 Hartrees.
 One-electron integrals computed using PRISM.
 NBasis=   117 RedAO= T EigKep=  1.59D-03  NBF=    72    45
 NBsUse=   117 1.00D-06 EigRej= -1.00D+00 NBFU=    72    45
 Initial guess from the checkpoint file:  "methane.chk"
 B after Tr=    -0.000000    0.000000    0.000000
         Rot=    1.000000   -0.000000    0.000000    0.000000 Ang=   0.00 deg.
 Initial guess orbital symmetries:
       Occupied  (E) (E) (A1) (A1) (A1) (E) (E) (A1) (A1) (E) (E)
                 (E) (E) (E) (E) (A2) (A1)
       Virtual   (A1) (E) (E) (A1) (A1) (E) (E) (A1) (E) (E) (E)
                 (E) (A1) (A1) (E) (E) (A2) (A1) (E) (E) (A1) (E)
                 (E) (A1) (E) (E) (A1) (A1) (E) (E) (E) (E) (E)
                 (E) (E) (E) (A1) (A1) (A2) (A1) (E) (E) (E) (E)
                 (A2) (E) (E) (A1) (A1) (E) (E) (A2) (E) (E) (E)
                 (E) (A1) (A1) (E) (E) (A1) (E) (E) (A1) (E) (E)
                 (A1) (E) (E) (E) (E) (A1) (E) (E) (A1) (E) (E)
                 (A2) (A1) (E) (E) (A2) (E) (E) (E) (E) (A2) (A1)
                 (E) (E) (A1) (E) (E) (A1) (E) (E) (A1) (E) (E)
                 (A1)
 Keep R1 ints in memory in symmetry-blocked form, NReq=71596555.
 Requested convergence on RMS density matrix=1.00D-08 within 128 cycles.
 Requested convergence on MAX density matrix=1.00D-06.
 Requested convergence on             energy=1.00D-06.
 No special actions if energy rises.
 SCF Done:  E(RwB97XD) =  -338.259956972     A.U. after    1 cycles
            NFock=  1  Conv=0.44D-09     -V/T= 2.0025
 DoSCS=F DFT=T ScalE2(SS,OS)=  1.000000  1.000000
 Range of M.O.s used for correlation:     1   117
 NBasis=   117 NAE=    17 NBE=    17 NFC=     0 NFV=     0
 NROrb=    117 NOA=    17 NOB=    17 NVA=   100 NVB=   100

 **** Warning!!: The largest alpha MO coefficient is  0.12510403D+02

 Symmetrizing basis deriv contribution to polar:
 IMax=3 JMax=2 DiffMx= 0.00D+00
 G2DrvN: will do     6 centers at a time, making    1 passes.
 Calling FoFCou, ICntrl=  3107 FMM=F I1Cent=   0 AccDes= 0.00D+00.
 End of G2Drv F.D. properties file   721 does not exist.
 End of G2Drv F.D. properties file   722 does not exist.
 End of G2Drv F.D. properties file   788 does not exist.
          IDoAtm=11111
          Differentiating once with respect to electric field.
                with respect to dipole field.
          Differentiating once with respect to nuclear coordinates.
 Keep R1 ints in memory in symmetry-blocked form, NReq=71599055.
          There are    12 degrees of freedom in the 1st order CPHF.  IDoFFX=4 NUNeed=    12.
     12 vectors produced by pass  0 Test12= 1.42D-14 8.33D-09 XBig12= 4.64D+00 7.18D-01.
 AX will form    12 AO Fock derivatives at one time.
     12 vectors produced by pass  1 Test12= 1.42D-14 8.33D-09 XBig12= 7.51D-01 1.98D-01.
     12 vectors produced by pass  2 Test12= 1.42D-14 8.33D-09 XBig12= 1.78D-02 3.50D-02.
     12 vectors produced by pass  3 Test12= 1.42D-14 8.33D-09 XBig12= 2.66D-04 4.58D-03.
     12 vectors produced by pass  4 Test12= 1.42D-14 8.33D-09 XBig12= 5.55D-06 5.11D-04.
     12 vectors produced by pass  5 Test12= 1.42D-14 8.33D-09 XBig12= 4.32D-08 4.62D-05.
     12 vectors produced by pass  6 Test12= 1.42D-14 8.33D-09 XBig12= 4.57D-10 3.98D-06.
      6 vectors produced by pass  7 Test12= 1.42D-14 8.33D-09 XBig12= 2.48D-12 3.11D-07.
      3 vectors produced by pass  8 Test12= 1.42D-14 8.33D-09 XBig12= 1.73D-14 3.48D-08.
 InvSVY:  IOpt=1 It=  1 EMax= 4.44D-16
 Solved reduced A of dimension    93 with    12 vectors.
 Isotropic polarizability for W=    0.000000       16.76 Bohr**3.
 End of Minotr F.D. properties file   721 does not exist.
 End of Minotr F.D. properties file   722 does not exist.
 End of Minotr F.D. properties file   788 does not exist.

 **********************************************************************

            Population analysis using the SCF density.

 **********************************************************************

 Orbital symmetries:
       Occupied  (E) (E) (A1) (A1) (A1) (E) (E) (A1) (A1) (E) (E)
                 (E) (E) (E) (E) (A2) (A1)
       Virtual   (A1) (E) (E) (A1) (A1) (E) (E) (A1) (E) (E) (E)
                 (E) (A1) (A1) (E) (E) (A2) (A1) (E) (E) (A1) (E)
                 (E) (A1) (E) (E) (A1) (A1) (E) (E) (E) (E) (E)
                 (E) (E) (E) (A1) (A1) (A2) (A1) (E) (E) (E) (E)
                 (A2) (E) (E) (A1) (A1) (E) (E) (A2) (E) (E) (E)
                 (E) (A1) (A1) (E) (E) (A1) (E) (E) (A1) (E) (E)
                 (A1) (E) (E) (E) (E) (A1) (E) (E) (A1) (E) (E)
                 (A2) (A1) (E) (E) (A2) (E) (E) (E) (E) (A2) (A1)
                 (E) (E) (A1) (E) (E) (A1) (E) (E) (A1) (E) (E)
                 (A1)
 The electronic state is 1-A1.
 Alpha  occ. eigenvalues --  -24.85397 -24.85397 -24.85397 -10.54572  -1.43898
 Alpha  occ. eigenvalues --   -1.34842  -1.34842  -0.83227  -0.71501  -0.70172
 Alpha  occ. eigenvalues --   -0.70172  -0.57561  -0.57561  -0.53832  -0.53832
 Alpha  occ. eigenvalues --   -0.51584  -0.49519
 Alpha virt. eigenvalues --    0.06859   0.09962   0.09962   0.10041   0.21939
 Alpha virt. eigenvalues --    0.23250   0.23250   0.28004   0.29510   0.29510
 Alpha virt. eigenvalues --    0.32393   0.32393   0.34035   0.35201   0.39328
 Alpha virt. eigenvalues --    0.39328   0.40404   0.41635   0.48066   0.48066
 Alpha virt. eigenvalues --    0.54834   0.62982   0.62982   0.71526   0.83983
 Alpha virt. eigenvalues --    0.83983   0.95074   1.05696   1.13644   1.13644
 Alpha virt. eigenvalues --    1.22390   1.22390   1.31421   1.31421   1.38021
 Alpha virt. eigenvalues --    1.38021   1.39058   1.46331   1.46695   1.47941
 Alpha virt. eigenvalues --    1.53614   1.53614   1.92364   1.92364   2.04101
 Alpha virt. eigenvalues --    2.05259   2.05259   2.07004   2.10353   2.14991
 Alpha virt. eigenvalues --    2.14991   2.22972   2.39215   2.39215   2.63771
 Alpha virt. eigenvalues --    2.63771   2.69293   2.80992   2.90751   2.90751
 Alpha virt. eigenvalues --    2.92904   3.35351   3.35351   3.41269   3.50652
 Alpha virt. eigenvalues --    3.50652   3.73726   4.04820   4.04820   4.24179
 Alpha virt. eigenvalues --    4.24179   4.89976   6.35075   6.35075   6.39266
 Alpha virt. eigenvalues --    6.43738   6.43738   6.44112   6.56210   6.81689
 Alpha virt. eigenvalues --    6.81689   9.09298   9.10903   9.10903   9.20953
 Alpha virt. eigenvalues --    9.20953   9.23319   9.24234   9.31863   9.31863
 Alpha virt. eigenvalues --    9.50352   9.67815   9.67815   9.68607   9.82924
 Alpha virt. eigenvalues --    9.82924  24.03497  66.90984  66.90984  66.97208
          Condensed to atoms (all electrons):
               1          2          3          4          5
     1  C    4.225061   0.193219   0.193219   0.193219   0.489046
     2  F    0.193219   9.128652   0.007463   0.007463  -0.051578
     3  F    0.193219   0.007463   9.128652   0.007463  -0.051578
     4  F    0.193219   0.007463   0.007463   9.128652  -0.051578
     5  H    0.489046  -0.051578  -0.051578  -0.051578   0.516263
 Mulliken charges:
               1
     1  C    0.706235
     2  F   -0.285220
     3  F   -0.285220
     4  F   -0.285220
     5  H    0.149424
 Sum of Mulliken charges =  -0.00000
 Mulliken charges with hydrogens summed into heavy atoms:
               1
     1  C    0.855659
     2  F   -0.285220
     3  F   -0.285220
     4  F   -0.285220
 APT charges:
               1
     1  C    1.636745
     2  F   -0.541794
     3  F   -0.541717
     4  F   -0.541717
     5  H   -0.011671
 Sum of APT charges =  -0.00016
 APT charges with hydrogens summed into heavy atoms:
               1
     1  C    1.625073
     2  F   -0.541794
     3  F   -0.541717
     4  F   -0.541717
 Electronic spatial extent (au):  <R**2>=            208.7901
 Charge=              0.0000 electrons
 Dipole moment (field-independent basis, Debye):
    X=              0.0000    Y=              0.0000    Z=              1.6772  Tot=              1.6772
 Quadrupole moment (field-independent basis, Debye-Ang):
   XX=            -22.2811   YY=            -22.2811   ZZ=            -18.6123
   XY=             -0.0000   XZ=              0.0000   YZ=              0.0000
 Traceless Quadrupole moment (field-independent basis, Debye-Ang):
   XX=             -1.2229   YY=             -1.2229   ZZ=              2.4459
   XY=             -0.0000   XZ=              0.0000   YZ=              0.0000
 Octapole moment (field-independent basis, Debye-Ang**2):
  XXX=              0.0000  YYY=             -1.1144  ZZZ=              0.3680  XYY=             -0.0000
  XXY=              1.1144  XXZ=             -0.6448  XZZ=              0.0000  YZZ=             -0.0000
  YYZ=             -0.6448  XYZ=             -0.0000
 Hexadecapole moment (field-independent basis, Debye-Ang**3):
 XXXX=            -84.2261 YYYY=            -84.2261 ZZZZ=            -23.3412 XXXY=              0.0000
 XXXZ=             -0.0000 YYYX=              0.0000 YYYZ=             -0.4120 ZZZX=             -0.0000
 ZZZY=              0.0000 XXYY=            -28.0754 XXZZ=            -18.3640 YYZZ=            -18.3640
 XXYZ=              0.4120 YYXZ=             -0.0000 ZZXY=              0.0000
 N-N= 1.337765204363D+02 E-N=-1.072656088021D+03  KE= 3.374162749354D+02
 Symmetry A'   KE= 2.292380031577D+02
 Symmetry A"   KE= 1.081782717778D+02
  Exact polarizability:  17.278  -0.000  17.282  -0.000  -0.000  15.707
 Approx polarizability:  17.904  -0.000  17.904   0.000  -0.000  15.811
 Calling FoFJK, ICntrl=    100127 FMM=F ISym2X=1 I1Cent= 0 IOpClX= 0 NMat=1 NMatS=1 NMatT=0.
 Full mass-weighted force constant matrix:
 Low frequencies ---   -1.5189   -0.5403   -0.0176    9.3657   10.4914   11.2707
 Low frequencies ---  506.9009  506.9028  700.1537
 Diagonal vibrational polarizability:
        7.2172544       7.2271702       2.9038232
 Harmonic frequencies (cm**-1), IR intensities (KM/Mole), Raman scattering
 activities (A**4/AMU), depolarization ratios for plane and unpolarized
 incident light, reduced masses (AMU), force constants (mDyne/A),
 and normal coordinates:
                      1                      2                      3
                      E                      E                     A1
 Frequencies --    506.9009               506.9028               700.1537
 Red. masses --     13.8112                13.8106                13.5554
 Frc consts  --      2.0909                 2.0908                 3.9152
 IR Inten    --      2.2659                 2.2735                13.5543
  Atom  AN      X      Y      Z        X      Y      Z        X      Y      Z
     1   6    -0.25   0.00   0.00     0.00   0.25   0.00     0.00  -0.00  -0.45
     2   9     0.53   0.00   0.00    -0.00   0.40   0.06    -0.00   0.43   0.10
     3   9    -0.17  -0.40   0.05     0.40  -0.30  -0.03    -0.37  -0.21   0.10
     4   9    -0.17   0.40  -0.05    -0.40  -0.30  -0.03     0.37  -0.21   0.10
     5   1    -0.51   0.00   0.00     0.00   0.51   0.00     0.00  -0.00  -0.47
                      4                      5                      6
                     A1                      E                      E
 Frequencies --   1147.0990              1156.0792              1156.2413
 Red. masses --      8.4491                 5.6124                 5.6104
 Frc consts  --      6.5503                 4.4195                 4.4192
 IR Inten    --    102.1192               315.9401               315.5654
  Atom  AN      X      Y      Z        X      Y      Z        X      Y      Z
     1   6     0.00   0.00   0.63    -0.00   0.51  -0.00     0.51   0.00  -0.00
     2   9    -0.00   0.19  -0.14     0.00  -0.22   0.12    -0.02  -0.00   0.00
     3   9    -0.16  -0.09  -0.14    -0.09  -0.07  -0.06    -0.17  -0.09  -0.10
     4   9     0.16  -0.09  -0.14     0.09  -0.07  -0.06    -0.17   0.09   0.10
     5   1     0.00   0.00   0.66    -0.00   0.80  -0.00     0.80   0.00  -0.00
                      7                      8                      9
                      E                      E                     A1
 Frequencies --   1391.4446              1391.4576              3150.3400
 Red. masses --      1.2243                 1.2242                 1.0902
 Frc consts  --      1.3966                 1.3965                 6.3747
 IR Inten    --     45.1609                45.1468                26.2660
  Atom  AN      X      Y      Z        X      Y      Z        X      Y      Z
     1   6    -0.13   0.00   0.00    -0.00  -0.13  -0.00     0.00  -0.00  -0.09
     2   9     0.01  -0.00  -0.00     0.00   0.01   0.02    -0.00   0.00   0.00
     3   9     0.01  -0.00  -0.02    -0.00   0.01  -0.01    -0.00  -0.00   0.00
     4   9     0.01   0.00   0.02     0.00   0.01  -0.01     0.00  -0.00   0.00
     5   1     0.99  -0.00   0.00     0.00   0.99   0.00     0.00  -0.00   1.00

 -------------------
 - Thermochemistry -
 -------------------
 Temperature   298.150 Kelvin.  Pressure   1.00000 Atm.
 Atom     1 has atomic number  6 and mass  12.00000
 Atom     2 has atomic number  9 and mass  18.99840
 Atom     3 has atomic number  9 and mass  18.99840
 Atom     4 has atomic number  9 and mass  18.99840
 Atom     5 has atomic number  1 and mass   1.00783
 Molecular mass:    70.00303 amu.
 Principal axes and moments of inertia in atomic units:
                           1         2         3
     Eigenvalues --   174.27556 174.27556 317.71231
           X           -0.14321   0.98969   0.00000
           Y            0.98969   0.14321   0.00000
           Z            0.00000   0.00000   1.00000
 This molecule is an oblate symmetric top.
 Rotational symmetry number  3.
 Rotational temperatures (Kelvin)      0.49699     0.49699     0.27262
 Rotational constants (GHZ):          10.35568    10.35568     5.68043
 Zero-point vibrational energy      66432.3 (Joules/Mol)
                                   15.87771 (Kcal/Mol)
 Warning -- explicit consideration of   2 degrees of freedom as
           vibrations may cause significant error
 Vibrational temperatures:    729.32   729.32  1007.36  1650.42  1663.34
          (Kelvin)           1663.57  2001.98  2002.00  4532.64
 
 Zero-point correction=                           0.025303 (Hartree/Particle)
 Thermal correction to Energy=                    0.028762
 Thermal correction to Enthalpy=                  0.029706
 Thermal correction to Gibbs Free Energy=         0.000234
 Sum of electronic and zero-point Energies=           -338.234654
 Sum of electronic and thermal Energies=              -338.231195
 Sum of electronic and thermal Enthalpies=            -338.230251
 Sum of electronic and thermal Free Energies=         -338.259723
 
                     E (Thermal)             CV                S
                      KCal/Mol        Cal/Mol-Kelvin    Cal/Mol-Kelvin
 Total                   18.048             10.191             62.030
 Electronic               0.000              0.000              0.000
 Translational            0.889              2.981             38.655
 Rotational               0.889              2.981             21.599
 Vibrational             16.271              4.229              1.776
 Vibration     1          0.862              1.235              0.641
 Vibration     2          0.862              1.235              0.641
                       Q            Log10(Q)             Ln(Q)
 Total Bot       0.780707D+00         -0.107512         -0.247555
 Total V=0       0.339571D+12         11.530930         26.550948
 Vib (Bot)       0.289322D-11        -11.538619        -26.568652
 Vib (Bot)    1  0.322240D+00         -0.491821         -1.132460
 Vib (Bot)    2  0.322238D+00         -0.491823         -1.132465
 Vib (V=0)       0.125841D+01          0.099823          0.229852
 Vib (V=0)    1  0.109484D+01          0.039352          0.090611
 Vib (V=0)    2  0.109484D+01          0.039352          0.090610
 Electronic      0.100000D+01          0.000000          0.000000
 Translational   0.230213D+08          7.362129         16.951929
 Rotational      0.117214D+05          4.068978          9.369168
 ***** Axes restored to original set *****
 -------------------------------------------------------------------
 Center     Atomic                   Forces (Hartrees/Bohr)
 Number     Number              X              Y              Z
 -------------------------------------------------------------------
      1        6          -0.000000000    0.000000000    0.000135540
      2        9           0.000000000    0.000006458   -0.000003406
      3        9          -0.000005593   -0.000003229   -0.000003406
      4        9           0.000005593   -0.000003229   -0.000003406
      5        1          -0.000000000   -0.000000000   -0.000125321
 -------------------------------------------------------------------
 Cartesian Forces:  Max     0.000135540 RMS     0.000047775
 FormGI is forming the generalized inverse of G from B-inverse, IUseBI=4.

 GradGradGradGradGradGradGradGradGradGradGradGradGradGradGradGradGradGrad
 Berny optimization.
 Internal  Forces:  Max     0.000125321 RMS     0.000033666
 Search for a local minimum.
 Step number   1 out of a maximum of    2
 All quantities printed in internal units (Hartrees-Bohrs-Radians)
 Second derivative matrix not updated -- analytic derivatives used.
 The second derivative matrix:
                          R1        R2        R3        R4        A1
           R1           0.40652
           R2           0.05842   0.40654
           R3           0.05842   0.05841   0.40654
           R4           0.01272   0.01272   0.01272   0.35020
           A1           0.00879   0.00878  -0.00496  -0.00157   0.04267
           A2           0.01373  -0.00320   0.01529  -0.00322  -0.01224
           A3           0.02100  -0.01841  -0.02074   0.00227  -0.02277
           A4          -0.00320   0.01373   0.01529  -0.00322  -0.01224
           A5          -0.01841   0.02100  -0.02074   0.00226  -0.02277
           A6          -0.02122  -0.02122   0.01677   0.00320   0.02801
           D1          -0.01624  -0.01624  -0.01092   0.00541  -0.03726
           D2           0.01264   0.01264  -0.03303   0.00097   0.02379
           D3          -0.01700   0.02963  -0.01651   0.00048   0.01190
           D4          -0.02964   0.01699   0.01652  -0.00048  -0.01190
                          A2        A3        A4        A5        A6
           A2           0.08838
           A3          -0.04581   0.10585
           A4           0.00679   0.02468   0.08837
           A5           0.02468  -0.03996  -0.04581   0.10585
           A6          -0.05886  -0.02353  -0.05886  -0.02354   0.13361
           D1          -0.03780   0.03871  -0.03780   0.03871   0.03146
           D2          -0.02895   0.01420  -0.02895   0.01420   0.00451
           D3          -0.04259   0.00392   0.01364   0.01028   0.00225
           D4          -0.01364  -0.01028   0.04259  -0.00392  -0.00225
                          D1        D2        D3        D4
           D1           0.08590
           D2           0.00357   0.04807
           D3           0.00179   0.02404   0.04917
           D4          -0.00179  -0.02404   0.02513   0.04917
 ITU=  0
     Eigenvalues ---    0.08528   0.08948   0.15630   0.19652   0.23198
     Eigenvalues ---    0.34877   0.36381   0.36384   0.53088
 Angle between quadratic step and forces=   4.60 degrees.
 Linear search not attempted -- first point.
 Iteration  1 RMS(Cart)=  0.00008119 RMS(Int)=  0.00000000
 Iteration  2 RMS(Cart)=  0.00000000 RMS(Int)=  0.00000000
 ClnCor:  largest displacement from symmetrization is 5.80D-09 for atom     3.
 Variable       Old X    -DE/DX   Delta X   Delta X   Delta X     New X
                                 (Linear)    (Quad)   (Total)
    R1        2.52035   0.00001   0.00000   0.00002   0.00002   2.52037
    R2        2.52035   0.00001   0.00000   0.00002   0.00002   2.52037
    R3        2.52035   0.00001   0.00000   0.00002   0.00002   2.52037
    R4        2.05732  -0.00013   0.00000  -0.00036  -0.00036   2.05696
    A1        1.89266  -0.00000   0.00000  -0.00001  -0.00001   1.89264
    A2        1.89266  -0.00000   0.00000  -0.00001  -0.00001   1.89264
    A3        1.92829   0.00000   0.00000   0.00001   0.00001   1.92830
    A4        1.89266  -0.00000   0.00000  -0.00001  -0.00001   1.89264
    A5        1.92829   0.00000   0.00000   0.00001   0.00001   1.92830
    A6        1.92829   0.00000   0.00000   0.00001   0.00001   1.92830
    D1       -2.05183   0.00000   0.00000   0.00002   0.00002  -2.05181
    D2        2.09440   0.00000   0.00000  -0.00000   0.00000   2.09440
    D3       -2.09440   0.00000   0.00000   0.00000  -0.00000  -2.09440
    D4        2.09440  -0.00000   0.00000   0.00000  -0.00000   2.09440
         Item               Value     Threshold  Converged?
 Maximum Force            0.000125     0.000450     YES
 RMS     Force            0.000034     0.000300     YES
 Maximum Displacement     0.000270     0.001800     YES
 RMS     Displacement     0.000081     0.001200     YES
 Predicted change in Energy=-2.293738D-08
 Optimization completed.
    -- Stationary point found.
                           ----------------------------
                           !   Optimized Parameters   !
                           ! (Angstroms and Degrees)  !
 --------------------------                            --------------------------
 ! Name  Definition              Value          Derivative Info.                !
 --------------------------------------------------------------------------------
 ! R1    R(1,2)                  1.3337         -DE/DX =    0.0                 !
 ! R2    R(1,3)                  1.3337         -DE/DX =    0.0                 !
 ! R3    R(1,4)                  1.3337         -DE/DX =    0.0                 !
 ! R4    R(1,5)                  1.0887         -DE/DX =   -0.0001              !
 ! A1    A(2,1,3)              108.4412         -DE/DX =    0.0                 !
 ! A2    A(2,1,4)              108.4412         -DE/DX =    0.0                 !
 ! A3    A(2,1,5)              110.4826         -DE/DX =    0.0                 !
 ! A4    A(3,1,4)              108.4412         -DE/DX =    0.0                 !
 ! A5    A(3,1,5)              110.4826         -DE/DX =    0.0                 !
 ! A6    A(4,1,5)              110.4826         -DE/DX =    0.0                 !
 ! D1    D(2,1,4,3)           -117.5612         -DE/DX =    0.0                 !
 ! D2    D(2,1,5,3)            120.0            -DE/DX =    0.0                 !
 ! D3    D(2,1,5,4)           -120.0            -DE/DX =    0.0                 !
 ! D4    D(3,1,5,4)            120.0            -DE/DX =    0.0                 !
 --------------------------------------------------------------------------------
 GradGradGradGradGradGradGradGradGradGradGradGradGradGradGradGradGradGrad


 ----------------------------------------------------------------------

 Electric dipole moment (input orientation):
 (Debye = 10**-18 statcoulomb cm , SI units = C m)
                  (au)            (Debye)         (10**-30 SI)
   Tot        0.659847D+00      0.167716D+01      0.559441D+01
   x          0.000000D+00      0.000000D+00      0.000000D+00
   y          0.000000D+00      0.000000D+00      0.000000D+00
   z          0.659847D+00      0.167716D+01      0.559441D+01

 Dipole polarizability, Alpha (input orientation).
 (esu units = cm**3 , SI units = C**2 m**2 J**-1)
 Alpha(0;0):
               (au)            (10**-24 esu)      (10**-40 SI)
   iso        0.167558D+02      0.248295D+01      0.276265D+01
   aniso      0.157249D+01      0.233020D+00      0.259269D+00
   xx         0.172777D+02      0.256029D+01      0.284870D+01
   yx         0.000000D+00      0.000000D+00      0.000000D+00
   yy         0.172822D+02      0.256096D+01      0.284945D+01
   zx         0.000000D+00      0.000000D+00      0.000000D+00
   zy        -0.104798D-04     -0.155294D-05     -0.172788D-05
   zz         0.157074D+02      0.232760D+01      0.258981D+01

 ----------------------------------------------------------------------

 Dipole orientation:
     6         -0.00000000          0.00000050          0.63984615
     9          0.00000002          2.36101059         -0.24208337
     9         -2.04469473         -1.18050452         -0.24208337
     9          2.04469471         -1.18050457         -0.24208337
     1         -0.00000000          0.00000050          2.69717019

 Electric dipole moment (dipole orientation):
 (Debye = 10**-18 statcoulomb cm , SI units = C m)
                  (au)            (Debye)         (10**-30 SI)
   Tot        0.659847D+00      0.167716D+01      0.559441D+01
   x          0.000000D+00      0.000000D+00      0.000000D+00
   y          0.000000D+00      0.000000D+00      0.000000D+00
   z          0.659847D+00      0.167716D+01      0.559441D+01

 Dipole polarizability, Alpha (dipole orientation).
 (esu units = cm**3 , SI units = C**2 m**2 J**-1)
 Alpha(0;0):
               (au)            (10**-24 esu)      (10**-40 SI)
   iso        0.167558D+02      0.248295D+01      0.276265D+01
   aniso      0.157249D+01      0.233020D+00      0.259269D+00
   xx         0.172777D+02      0.256029D+01      0.284870D+01
   yx         0.000000D+00      0.000000D+00      0.000000D+00
   yy         0.172822D+02      0.256096D+01      0.284945D+01
   zx         0.000000D+00      0.000000D+00      0.000000D+00
   zy        -0.104798D-04     -0.155294D-05     -0.172788D-05
   zz         0.157074D+02      0.232760D+01      0.258981D+01

 ----------------------------------------------------------------------
 1\1\GINC-CCLEARTI\Freq\RwB97XD\6-311+G(2d,2p)\C1H1F3\RAPPE\12-Jan-2026
 \0\\#N Geom=AllCheck Guess=TCheck SCRF=Check GenChk RwB97XD/6-311+G(2d
 ,2p) Freq\\Title Card Required\\0,1\C,0.,0.0000002647,0.338592\F,0.000
 0000132,1.249393,-0.128105\F,-1.0820058547,-0.6246960915,-0.128105\F,1
 .0820058415,-0.6246961144,-0.128105\H,0.,0.0000002647,1.427281\\Versio
 n=EM64M-G16RevA.03\State=1-A1\HF=-338.259957\RMSD=4.378e-10\RMSF=4.777
 e-05\ZeroPoint=0.0253027\Thermal=0.028762\Dipole=0.,0.,0.6598469\Dipol
 eDeriv=1.864198,0.,0.,0.,1.8652547,-0.0000927,0.,0.0000121,1.1807809,-
 0.307542,0.,0.,0.,-0.9472214,0.1380385,0.,0.2916181,-0.3706201,-0.7870
 372,-0.2769325,-0.1195207,-0.2768374,-0.4674906,-0.0689829,-0.252526,-
 0.1458114,-0.3706229,-0.7870372,0.2769325,0.1195207,0.2768374,-0.46749
 06,-0.0689829,0.252526,-0.1458114,-0.3706229,0.0168897,0.,0.,0.,0.0170
 054,-0.0000527,0.,-0.0000026,-0.0689092\Polar=17.2776637,0.,17.282206,
 0.,-0.0000105,15.707445\Quadrupole=-0.9092213,-0.9092213,1.8184427,0.,
 0.,0.\PG=C03V [C3(C1H1),3SGV(F1)]\NImag=0\\0.50323934,0.,0.50307231,0.
 ,0.00000397,0.75081482,-0.07343423,0.,0.,0.07780098,0.,-0.22887040,0.0
 9841243,0.,0.36611828,0.,0.08417297,-0.14157290,0.,-0.11026096,0.10577
 994,-0.19004797,-0.06731292,-0.08522713,-0.00701308,-0.04014493,0.0038
 8805,0.29403896,-0.06733710,-0.11228414,-0.04920765,-0.04893063,-0.058
 44088,-0.00800213,0.12484505,0.14988030,-0.07289997,-0.04208540,-0.141
 57015,0.00887407,0.00063392,0.02190903,0.09548879,0.05513048,0.1057799
 4,-0.19004797,0.06731292,0.08522713,-0.00701308,0.04014493,-0.00388805
 ,-0.08415478,0.00439285,0.00498602,0.29403895,0.06733710,-0.11228414,-
 0.04920765,0.04893063,-0.05844088,-0.00800213,-0.00439285,0.01870082,0
 .00736821,-0.12484505,0.14988031,0.07289997,-0.04208540,-0.14157015,-0
 .00887407,0.00063392,0.02190903,-0.00498602,0.00736821,0.02190903,-0.0
 9548879,0.05513048,0.10577994,-0.04963596,0.,0.,0.00964728,0.,0.,-0.01
 285609,-0.01299552,-0.03645445,-0.01285609,0.01299552,0.03645445,0.065
 70572,0.,-0.04965189,0.00000178,0.,-0.02035399,0.04209239,-0.01299227,
 0.00214836,-0.02104486,0.01299227,0.00214836,-0.02104486,0.,0.06570637
 ,0.,-0.00000831,-0.32610710,0.,0.01058000,-0.00802509,-0.00915938,-0.0
 0528615,-0.00802963,0.00915938,-0.00528615,-0.00802963,0.,-0.00000711,
 0.35020053\\0.,0.,-0.00013554,0.,-0.00000646,0.00000341,0.00000559,0.0
 0000323,0.00000341,-0.00000559,0.00000323,0.00000341,0.,0.,0.00012532\
 \\@


 IT'S WHAT YOU LEARN AFTER YOU KNOW IT ALL
 THAT COUNTS.
 Job cpu time:       0 days  0 hours  5 minutes 34.6 seconds.
 Elapsed time:       0 days  0 hours  0 minutes 14.3 seconds.
 File lengths (MBytes):  RWF=     11 Int=      0 D2E=      0 Chk=      2 Scr=      1
 Normal termination of Gaussian 16 at Mon Jan 12 10:44:50 2026.
