 Entering Gaussian System, Link 0=/applications/g16/g16/g16
 Initial command:
 /applications/g16/g16/l1.exe "/scratch/g98/Gau-13224.inp" -scrdir="/scratch/g98/"
 Entering Link 1 = /applications/g16/g16/l1.exe PID=     13225.
  
 Copyright (c) 1988,1990,1992,1993,1995,1998,2003,2009,2016,
            Gaussian, Inc.  All Rights Reserved.
  
 This is part of the Gaussian(R) 16 program.  It is based on
 the Gaussian(R) 09 system (copyright 2009, Gaussian, Inc.),
 the Gaussian(R) 03 system (copyright 2003, Gaussian, Inc.),
 the Gaussian(R) 98 system (copyright 1998, Gaussian, Inc.),
 the Gaussian(R) 94 system (copyright 1995, Gaussian, Inc.),
 the Gaussian 92(TM) system (copyright 1992, Gaussian, Inc.),
 the Gaussian 90(TM) system (copyright 1990, Gaussian, Inc.),
 the Gaussian 88(TM) system (copyright 1988, Gaussian, Inc.),
 the Gaussian 86(TM) system (copyright 1986, Carnegie Mellon
 University), and the Gaussian 82(TM) system (copyright 1983,
 Carnegie Mellon University). Gaussian is a federally registered
 trademark of Gaussian, Inc.
  
 This software contains proprietary and confidential information,
 including trade secrets, belonging to Gaussian, Inc.
  
 This software is provided under written license and may be
 used, copied, transmitted, or stored only in accord with that
 written license.
  
 The following legend is applicable only to US Government
 contracts under FAR:
  
                    RESTRICTED RIGHTS LEGEND
  
 Use, reproduction and disclosure by the US Government is
 subject to restrictions as set forth in subparagraphs (a)
 and (c) of the Commercial Computer Software - Restricted
 Rights clause in FAR 52.227-19.
  
 Gaussian, Inc.
 340 Quinnipiac St., Bldg. 40, Wallingford CT 06492
  
  
 ---------------------------------------------------------------
 Warning -- This program may not be used in any manner that
 competes with the business of Gaussian, Inc. or will provide
 assistance to any competitor of Gaussian, Inc.  The licensee
 of this program is prohibited from giving any competitor of
 Gaussian, Inc. access to this program.  By using this program,
 the user acknowledges that Gaussian, Inc. is engaged in the
 business of creating and licensing software in the field of
 computational chemistry and represents and warrants to the
 licensee that it is not a competitor of Gaussian, Inc. and that
 it will not use this program in any manner prohibited above.
 ---------------------------------------------------------------
  

 Cite this work as:
 Gaussian 16, Revision A.03,
 M. J. Frisch, G. W. Trucks, H. B. Schlegel, G. E. Scuseria, 
 M. A. Robb, J. R. Cheeseman, G. Scalmani, V. Barone, 
 G. A. Petersson, H. Nakatsuji, X. Li, M. Caricato, A. V. Marenich, 
 J. Bloino, B. G. Janesko, R. Gomperts, B. Mennucci, H. P. Hratchian, 
 J. V. Ortiz, A. F. Izmaylov, J. L. Sonnenberg, D. Williams-Young, 
 F. Ding, F. Lipparini, F. Egidi, J. Goings, B. Peng, A. Petrone, 
 T. Henderson, D. Ranasinghe, V. G. Zakrzewski, J. Gao, N. Rega, 
 G. Zheng, W. Liang, M. Hada, M. Ehara, K. Toyota, R. Fukuda, 
 J. Hasegawa, M. Ishida, T. Nakajima, Y. Honda, O. Kitao, H. Nakai, 
 T. Vreven, K. Throssell, J. A. Montgomery, Jr., J. E. Peralta, 
 F. Ogliaro, M. J. Bearpark, J. J. Heyd, E. N. Brothers, K. N. Kudin, 
 V. N. Staroverov, T. A. Keith, R. Kobayashi, J. Normand, 
 K. Raghavachari, A. P. Rendell, J. C. Burant, S. S. Iyengar, 
 J. Tomasi, M. Cossi, J. M. Millam, M. Klene, C. Adamo, R. Cammi, 
 J. W. Ochterski, R. L. Martin, K. Morokuma, O. Farkas, 
 J. B. Foresman, and D. J. Fox, Gaussian, Inc., Wallingford CT, 2016.
 
 ******************************************
 Gaussian 16:  EM64M-G16RevA.03 25-Dec-2016
                11-Dec-2021 
 ******************************************
 %mem=24GB
 %nprocshared=8
 Will use up to    8 processors via shared memory.
 %chk=1Hbutane.chk
 ----------------------------------------------
 # freq wb97xd/6-311+g(2d,2p) geom=connectivity
 ----------------------------------------------
 1/10=4,30=1,38=1,57=2/1,3;
 2/12=2,17=6,18=5,40=1/2;
 3/5=4,6=6,7=212,11=2,25=1,30=1,71=2,74=-58,140=1/1,2,3;
 4//1;
 5/5=2,38=5,98=1/2;
 8/6=4,10=90,11=11/1;
 11/6=1,8=1,9=11,15=111,16=1/1,2,10;
 10/6=1/2;
 6/7=2,8=2,9=2,10=2,28=1/1;
 7/8=1,10=1,25=1/1,2,3,16;
 1/10=4,30=1/3;
 99//99;
 -------------------
 Title Card Required
 -------------------
 Symbolic Z-matrix:
 Charge =  0 Multiplicity = 1
 C                     2.21292   0.17832   0.00031 
 F                     2.43721  -0.06395   1.30146 
 F                     2.47406  -0.93778  -0.70351 
 C                     0.74923   0.61042  -0.22291 
 F                     0.49952   1.635     0.61201 
 F                     0.65857   1.06199  -1.4867 
 C                    -0.32066  -0.49857  -0.0181 
 F                    -0.05054  -1.17584   1.10659 
 F                    -0.26786  -1.34018  -1.05747 
 C                    -1.782     0.02533   0.09145 
 F                    -2.61086  -1.01066   0.0616 
 F                    -2.06685   0.8307   -0.92529 
 F                    -1.96486   0.68109   1.22837 
 H                     2.86753   0.98393  -0.33809 
 

 GradGradGradGradGradGradGradGradGradGradGradGradGradGradGradGradGradGrad
 Berny optimization.
 Initialization pass.
 Trust Radius=3.00D-01 FncErr=1.00D-07 GrdErr=1.00D-07 EigMax=2.50D+02 EigMin=1.00D-04
 Number of steps in this run=      2 maximum allowed number of steps=      2.
 GradGradGradGradGradGradGradGradGradGradGradGradGradGradGradGradGradGrad

                          Input orientation:                          
 ---------------------------------------------------------------------
 Center     Atomic      Atomic             Coordinates (Angstroms)
 Number     Number       Type             X           Y           Z
 ---------------------------------------------------------------------
      1          6           0        2.212924    0.178319    0.000309
      2          9           0        2.437210   -0.063952    1.301461
      3          9           0        2.474058   -0.937783   -0.703512
      4          6           0        0.749231    0.610417   -0.222907
      5          9           0        0.499523    1.635001    0.612012
      6          9           0        0.658572    1.061986   -1.486695
      7          6           0       -0.320662   -0.498574   -0.018101
      8          9           0       -0.050541   -1.175844    1.106592
      9          9           0       -0.267858   -1.340184   -1.057472
     10          6           0       -1.781999    0.025328    0.091451
     11          9           0       -2.610858   -1.010663    0.061597
     12          9           0       -2.066853    0.830695   -0.925287
     13          9           0       -1.964863    0.681092    1.228369
     14          1           0        2.867525    0.983927   -0.338089
 ---------------------------------------------------------------------
                    Distance matrix (angstroms):
                    1          2          3          4          5
     1  C    0.000000
     2  F    1.342384   0.000000
     3  F    1.345079   2.187431   0.000000
     4  C    1.542378   2.372287   2.367051   0.000000
     5  F    2.330632   2.667660   3.499801   1.345071   0.000000
     6  F    2.325523   3.493580   2.812195   1.345100   2.181333
     7  C    2.622514   3.088041   2.910868   1.554502   2.371052
     8  F    2.860226   2.731883   3.115566   2.365995   2.906549
     9  F    3.095001   3.809295   2.793800   2.352831   3.496824
    10  C    3.998890   4.390196   4.435490   2.616921   2.840312
    11  F    4.968532   5.283608   5.142672   3.741529   4.120311
    12  F    4.427055   5.103468   4.878173   2.910703   3.097819
    13  F    4.383471   4.465275   5.104600   3.078555   2.713492
    14  H    1.091797   1.992824   1.995324   2.154053   2.633253
                    6          7          8          9         10
     6  F    0.000000
     7  C    2.356059   0.000000
     8  F    3.497980   1.340371   0.000000
     9  F    2.610158   1.338427   2.181148   0.000000
    10  C    3.085708   1.556271   2.339075   2.340357   0.000000
    11  F    4.169203   2.348102   2.770293   2.617355   1.327093
    12  F    2.792242   2.374684   3.495747   2.822512   1.327974
    13  F    3.794610   2.376699   2.669770   3.491483   1.325160
    14  H    2.490956   3.530544   3.907278   3.968580   4.766706
                   11         12         13         14
    11  F    0.000000
    12  F    2.158815   0.000000
    13  F    2.154229   2.161254   0.000000
    14  H    5.843870   4.971556   5.088956   0.000000
 Stoichiometry    C4HF9
 Framework group  C1[X(C4HF9)]
 Deg. of freedom    36
 Full point group                 C1      NOp   1
 Largest Abelian subgroup         C1      NOp   1
 Largest concise Abelian subgroup C1      NOp   1
                         Standard orientation:                         
 ---------------------------------------------------------------------
 Center     Atomic      Atomic             Coordinates (Angstroms)
 Number     Number       Type             X           Y           Z
 ---------------------------------------------------------------------
      1          6           0        2.212924    0.178319    0.000309
      2          9           0        2.437210   -0.063952    1.301461
      3          9           0        2.474058   -0.937783   -0.703512
      4          6           0        0.749231    0.610417   -0.222907
      5          9           0        0.499523    1.635001    0.612012
      6          9           0        0.658572    1.061986   -1.486695
      7          6           0       -0.320662   -0.498574   -0.018101
      8          9           0       -0.050541   -1.175844    1.106592
      9          9           0       -0.267858   -1.340184   -1.057472
     10          6           0       -1.781999    0.025328    0.091451
     11          9           0       -2.610858   -1.010663    0.061597
     12          9           0       -2.066853    0.830695   -0.925287
     13          9           0       -1.964863    0.681092    1.228369
     14          1           0        2.867525    0.983927   -0.338089
 ---------------------------------------------------------------------
 Rotational constants (GHZ):           1.3281552           0.6150827           0.6015340
 Standard basis: 6-311+G(2d,2p) (5D, 7F)
 There are   386 symmetry adapted cartesian basis functions of A   symmetry.
 There are   360 symmetry adapted basis functions of A   symmetry.
   360 basis functions,   557 primitive gaussians,   386 cartesian basis functions
    53 alpha electrons       53 beta electrons
       nuclear repulsion energy      1044.0358864989 Hartrees.
 NAtoms=   14 NActive=   14 NUniq=   14 SFac= 1.00D+00 NAtFMM=   60 NAOKFM=F Big=F
 Integral buffers will be    131072 words long.
 Raffenetti 2 integral format.
 Two-electron integral symmetry is turned on.
 Nuclear repulsion after empirical dispersion term =     1044.0279215904 Hartrees.
 One-electron integrals computed using PRISM.
 NBasis=   360 RedAO= T EigKep=  1.31D-05  NBF=   360
 NBsUse=   360 1.00D-06 EigRej= -1.00D+00 NBFU=   360
 ExpMin= 4.38D-02 ExpMax= 1.14D+04 ExpMxC= 1.72D+03 IAcc=3 IRadAn=         5 AccDes= 0.00D+00
 Harris functional with IExCor= 4639 and IRadAn=       5 diagonalized for initial guess.
 HarFok:  IExCor= 4639 AccDes= 0.00D+00 IRadAn=         5 IDoV= 1 UseB2=F ITyADJ=14
 ICtDFT=  3500011 ScaDFX=  1.000000  1.000000  1.000000  1.000000
 FoFCou: FMM=F IPFlag=           0 FMFlag=      100000 FMFlg1=           0
         NFxFlg=           0 DoJE=T BraDBF=F KetDBF=T FulRan=T
         wScrn=  0.000000 ICntrl=       500 IOpCl=  0 I1Cent=   200000004 NGrid=           0
         NMat0=    1 NMatS0=      1 NMatT0=    0 NMatD0=    1 NMtDS0=    0 NMtDT0=    0
 Petite list used in FoFCou.
 Requested convergence on RMS density matrix=1.00D-08 within 128 cycles.
 Requested convergence on MAX density matrix=1.00D-06.
 Requested convergence on             energy=1.00D-06.
 No special actions if energy rises.
 SCF Done:  E(RwB97XD) =  -1051.65580131     A.U. after   13 cycles
            NFock= 13  Conv=0.45D-08     -V/T= 2.0026
 DoSCS=F DFT=T ScalE2(SS,OS)=  1.000000  1.000000
 Range of M.O.s used for correlation:     1   360
 NBasis=   360 NAE=    53 NBE=    53 NFC=     0 NFV=     0
 NROrb=    360 NOA=    53 NOB=    53 NVA=   307 NVB=   307

 **** Warning!!: The largest alpha MO coefficient is  0.79393860D+02

 Symmetrizing basis deriv contribution to polar:
 IMax=3 JMax=2 DiffMx= 0.00D+00
 G2DrvN: will do    15 centers at a time, making    1 passes.
 Calling FoFCou, ICntrl=  3107 FMM=F I1Cent=   0 AccDes= 0.00D+00.
 End of G2Drv F.D. properties file   721 does not exist.
 End of G2Drv F.D. properties file   722 does not exist.
 End of G2Drv F.D. properties file   788 does not exist.
          IDoAtm=11111111111111
          Differentiating once with respect to electric field.
                with respect to dipole field.
          Differentiating once with respect to nuclear coordinates.
 CalDSu exits because no D1Ps are significant.
          There are    45 degrees of freedom in the 1st order CPHF.  IDoFFX=6 NUNeed=     3.
     42 vectors produced by pass  0 Test12= 3.62D-14 2.22D-09 XBig12= 1.75D+01 8.93D-01.
 AX will form    42 AO Fock derivatives at one time.
     42 vectors produced by pass  1 Test12= 3.62D-14 2.22D-09 XBig12= 3.35D+00 2.00D-01.
     42 vectors produced by pass  2 Test12= 3.62D-14 2.22D-09 XBig12= 1.15D-01 4.10D-02.
     42 vectors produced by pass  3 Test12= 3.62D-14 2.22D-09 XBig12= 2.46D-03 5.72D-03.
     42 vectors produced by pass  4 Test12= 3.62D-14 2.22D-09 XBig12= 3.57D-05 6.47D-04.
     42 vectors produced by pass  5 Test12= 3.62D-14 2.22D-09 XBig12= 2.27D-07 6.36D-05.
     42 vectors produced by pass  6 Test12= 3.62D-14 2.22D-09 XBig12= 1.48D-09 6.11D-06.
     17 vectors produced by pass  7 Test12= 3.62D-14 2.22D-09 XBig12= 8.67D-12 4.80D-07.
      3 vectors produced by pass  8 Test12= 3.62D-14 2.22D-09 XBig12= 4.99D-14 3.50D-08.
 InvSVY:  IOpt=1 It=  1 EMax= 5.33D-15
 Solved reduced A of dimension   314 with    45 vectors.
 Isotropic polarizability for W=    0.000000       54.48 Bohr**3.
 End of Minotr F.D. properties file   721 does not exist.
 End of Minotr F.D. properties file   722 does not exist.
 End of Minotr F.D. properties file   788 does not exist.

 **********************************************************************

            Population analysis using the SCF density.

 **********************************************************************

 Orbital symmetries:
       Occupied  (A) (A) (A) (A) (A) (A) (A) (A) (A) (A) (A) (A)
                 (A) (A) (A) (A) (A) (A) (A) (A) (A) (A) (A) (A)
                 (A) (A) (A) (A) (A) (A) (A) (A) (A) (A) (A) (A)
                 (A) (A) (A) (A) (A) (A) (A) (A) (A) (A) (A) (A)
                 (A) (A) (A) (A) (A)
       Virtual   (A) (A) (A) (A) (A) (A) (A) (A) (A) (A) (A) (A)
                 (A) (A) (A) (A) (A) (A) (A) (A) (A) (A) (A) (A)
                 (A) (A) (A) (A) (A) (A) (A) (A) (A) (A) (A) (A)
                 (A) (A) (A) (A) (A) (A) (A) (A) (A) (A) (A) (A)
                 (A) (A) (A) (A) (A) (A) (A) (A) (A) (A) (A) (A)
                 (A) (A) (A) (A) (A) (A) (A) (A) (A) (A) (A) (A)
                 (A) (A) (A) (A) (A) (A) (A) (A) (A) (A) (A) (A)
                 (A) (A) (A) (A) (A) (A) (A) (A) (A) (A) (A) (A)
                 (A) (A) (A) (A) (A) (A) (A) (A) (A) (A) (A) (A)
                 (A) (A) (A) (A) (A) (A) (A) (A) (A) (A) (A) (A)
                 (A) (A) (A) (A) (A) (A) (A) (A) (A) (A) (A) (A)
                 (A) (A) (A) (A) (A) (A) (A) (A) (A) (A) (A) (A)
                 (A) (A) (A) (A) (A) (A) (A) (A) (A) (A) (A) (A)
                 (A) (A) (A) (A) (A) (A) (A) (A) (A) (A) (A) (A)
                 (A) (A) (A) (A) (A) (A) (A) (A) (A) (A) (A) (A)
                 (A) (A) (A) (A) (A) (A) (A) (A) (A) (A) (A) (A)
                 (A) (A) (A) (A) (A) (A) (A) (A) (A) (A) (A) (A)
                 (A) (A) (A) (A) (A) (A) (A) (A) (A) (A) (A) (A)
                 (A) (A) (A) (A) (A) (A) (A) (A) (A) (A) (A) (A)
                 (A) (A) (A) (A) (A) (A) (A) (A) (A) (A) (A) (A)
                 (A) (A) (A) (A) (A) (A) (A) (A) (A) (A) (A) (A)
                 (A) (A) (A) (A) (A) (A) (A) (A) (A) (A) (A) (A)
                 (A) (A) (A) (A) (A) (A) (A) (A) (A) (A) (A) (A)
                 (A) (A) (A) (A) (A) (A) (A) (A) (A) (A) (A) (A)
                 (A) (A) (A) (A) (A) (A) (A) (A) (A) (A) (A) (A)
                 (A) (A) (A) (A) (A) (A) (A)
 The electronic state is 1-A.
 Alpha  occ. eigenvalues --  -24.87851 -24.87725 -24.87639 -24.87578 -24.87533
 Alpha  occ. eigenvalues --  -24.87421 -24.87412 -24.86034 -24.85905 -10.58129
 Alpha  occ. eigenvalues --  -10.52476 -10.51919 -10.49782  -1.47174  -1.43819
 Alpha  occ. eigenvalues --   -1.42199  -1.40803  -1.37983  -1.37414  -1.36935
 Alpha  occ. eigenvalues --   -1.36169  -1.34873  -0.94736  -0.90169  -0.83385
 Alpha  occ. eigenvalues --   -0.79145  -0.75345  -0.74322  -0.73923  -0.71902
 Alpha  occ. eigenvalues --   -0.71662  -0.70781  -0.69133  -0.67921  -0.67283
 Alpha  occ. eigenvalues --   -0.61015  -0.60689  -0.60092  -0.59561  -0.58955
 Alpha  occ. eigenvalues --   -0.58392  -0.57781  -0.56598  -0.55806  -0.55303
 Alpha  occ. eigenvalues --   -0.54668  -0.54245  -0.53985  -0.53539  -0.53110
 Alpha  occ. eigenvalues --   -0.52404  -0.49760  -0.44368
 Alpha virt. eigenvalues --    0.06095   0.07407   0.07735   0.08371   0.10695
 Alpha virt. eigenvalues --    0.11147   0.11271   0.12326   0.12799   0.13582
 Alpha virt. eigenvalues --    0.14518   0.15165   0.15641   0.16527   0.17454
 Alpha virt. eigenvalues --    0.18794   0.19189   0.20714   0.22403   0.23918
 Alpha virt. eigenvalues --    0.24171   0.24528   0.25157   0.27120   0.28633
 Alpha virt. eigenvalues --    0.29076   0.30366   0.30811   0.31488   0.31965
 Alpha virt. eigenvalues --    0.32779   0.32919   0.33663   0.34806   0.35187
 Alpha virt. eigenvalues --    0.35862   0.36881   0.37162   0.39282   0.40095
 Alpha virt. eigenvalues --    0.40553   0.40964   0.41412   0.41660   0.42383
 Alpha virt. eigenvalues --    0.42738   0.43742   0.44031   0.44401   0.44817
 Alpha virt. eigenvalues --    0.45978   0.46786   0.47016   0.47667   0.47889
 Alpha virt. eigenvalues --    0.48307   0.49006   0.51334   0.52703   0.53652
 Alpha virt. eigenvalues --    0.54912   0.55886   0.56841   0.60065   0.60161
 Alpha virt. eigenvalues --    0.63221   0.64812   0.66662   0.67358   0.68882
 Alpha virt. eigenvalues --    0.70935   0.73484   0.74472   0.75911   0.76906
 Alpha virt. eigenvalues --    0.80047   0.80420   0.82585   0.84797   0.89327
 Alpha virt. eigenvalues --    0.93602   0.99889   1.00604   1.02465   1.04891
 Alpha virt. eigenvalues --    1.07554   1.09121   1.11510   1.13041   1.14767
 Alpha virt. eigenvalues --    1.16464   1.21569   1.22451   1.26785   1.28764
 Alpha virt. eigenvalues --    1.29644   1.31542   1.32366   1.35109   1.36932
 Alpha virt. eigenvalues --    1.38469   1.39163   1.39913   1.41468   1.42251
 Alpha virt. eigenvalues --    1.42523   1.43998   1.45331   1.45440   1.47051
 Alpha virt. eigenvalues --    1.47396   1.47890   1.48530   1.49445   1.49987
 Alpha virt. eigenvalues --    1.50269   1.51083   1.51388   1.52146   1.53406
 Alpha virt. eigenvalues --    1.54728   1.55688   1.55825   1.57591   1.58140
 Alpha virt. eigenvalues --    1.59770   1.61120   1.66313   1.66526   1.70836
 Alpha virt. eigenvalues --    1.72599   1.75249   1.90291   1.91722   1.98147
 Alpha virt. eigenvalues --    2.00519   2.02136   2.03294   2.04430   2.05837
 Alpha virt. eigenvalues --    2.06602   2.07692   2.10326   2.11825   2.12722
 Alpha virt. eigenvalues --    2.14033   2.14659   2.15632   2.17170   2.17736
 Alpha virt. eigenvalues --    2.21129   2.21686   2.22961   2.24671   2.27562
 Alpha virt. eigenvalues --    2.29144   2.31821   2.31899   2.34011   2.37123
 Alpha virt. eigenvalues --    2.38223   2.39469   2.43930   2.47045   2.51419
 Alpha virt. eigenvalues --    2.52734   2.53941   2.56502   2.62185   2.63331
 Alpha virt. eigenvalues --    2.67483   2.68672   2.70471   2.74167   2.76623
 Alpha virt. eigenvalues --    2.76647   2.78634   2.82971   2.84938   2.86532
 Alpha virt. eigenvalues --    2.90316   2.97830   3.00705   3.01979   3.05743
 Alpha virt. eigenvalues --    3.13845   3.21974   3.25283   3.29495   3.41708
 Alpha virt. eigenvalues --    3.45566   3.46500   3.47195   3.48839   3.51878
 Alpha virt. eigenvalues --    3.53951   3.54691   3.58080   3.59517   3.60986
 Alpha virt. eigenvalues --    3.63776   3.67615   3.69759   3.72215   3.73946
 Alpha virt. eigenvalues --    3.75894   3.76164   3.78951   3.85273   3.94099
 Alpha virt. eigenvalues --    3.98164   4.12756   4.18247   4.30776   4.31033
 Alpha virt. eigenvalues --    4.32720   4.36332   4.38720   4.39523   4.45060
 Alpha virt. eigenvalues --    4.54312   4.93773   6.40573   6.42029   6.42133
 Alpha virt. eigenvalues --    6.43055   6.43576   6.44598   6.45833   6.47312
 Alpha virt. eigenvalues --    6.48591   6.49173   6.50294   6.51212   6.52066
 Alpha virt. eigenvalues --    6.52975   6.53283   6.54619   6.57244   6.61362
 Alpha virt. eigenvalues --    6.63563   6.66398   6.66796   6.72723   6.84216
 Alpha virt. eigenvalues --    6.87020   6.88125   6.91677   6.98956   9.08596
 Alpha virt. eigenvalues --    9.09376   9.10225   9.10990   9.11689   9.12919
 Alpha virt. eigenvalues --    9.14510   9.16738   9.17867   9.19251   9.20185
 Alpha virt. eigenvalues --    9.20545   9.21634   9.21813   9.24150   9.24882
 Alpha virt. eigenvalues --    9.25554   9.26034   9.26948   9.28412   9.28901
 Alpha virt. eigenvalues --    9.29275   9.34793   9.35651   9.39917   9.40211
 Alpha virt. eigenvalues --    9.42321   9.44774   9.49920   9.51593   9.64346
 Alpha virt. eigenvalues --    9.65796   9.66532   9.68554   9.68844   9.73876
 Alpha virt. eigenvalues --    9.76584   9.77054   9.78145   9.78673   9.81123
 Alpha virt. eigenvalues --    9.83649   9.87810   9.90219   9.91965  23.93319
 Alpha virt. eigenvalues --   23.98732  24.02234  24.07671  66.92808  66.93759
 Alpha virt. eigenvalues --   66.95205  66.95870  66.96482  66.99487  67.00285
 Alpha virt. eigenvalues --   67.03812  67.04281
          Condensed to atoms (all electrons):
               1          2          3          4          5          6
     1  C    5.874294   0.242396   0.208319  -1.295324  -0.144172  -0.167648
     2  F    0.242396   9.107982   0.011649  -0.066362   0.021785  -0.000726
     3  F    0.208319   0.011649   9.132829  -0.062450   0.000589   0.015830
     4  C   -1.295324  -0.066362  -0.062450   7.876200   0.338343   0.374336
     5  F   -0.144172   0.021785   0.000589   0.338343   9.137705   0.007736
     6  F   -0.167648  -0.000726   0.015830   0.374336   0.007736   9.109332
     7  C    0.685224   0.002772  -0.031768  -1.985210  -0.127601  -0.089533
     8  F    0.020453   0.003736   0.006670  -0.116037   0.011378  -0.000770
     9  F   -0.017680  -0.002632   0.004423  -0.074797  -0.000033   0.019166
    10  C   -0.456865  -0.011036   0.028670   0.729118   0.020603  -0.012778
    11  F    0.002145   0.000042   0.000052   0.031930  -0.000044  -0.000870
    12  F    0.025680   0.000012  -0.000090  -0.018712   0.006895   0.002601
    13  F   -0.011798  -0.000805   0.000030   0.006069   0.003480  -0.002768
    14  H    0.445401  -0.039439  -0.038860  -0.058902   0.002332   0.004508
               7          8          9         10         11         12
     1  C    0.685224   0.020453  -0.017680  -0.456865   0.002145   0.025680
     2  F    0.002772   0.003736  -0.002632  -0.011036   0.000042   0.000012
     3  F   -0.031768   0.006670   0.004423   0.028670   0.000052  -0.000090
     4  C   -1.985210  -0.116037  -0.074797   0.729118   0.031930  -0.018712
     5  F   -0.127601   0.011378  -0.000033   0.020603  -0.000044   0.006895
     6  F   -0.089533  -0.000770   0.019166  -0.012778  -0.000870   0.002601
     7  C    8.017979   0.320404   0.360846  -1.240812  -0.129979  -0.063351
     8  F    0.320404   9.121114   0.008084  -0.144387   0.020113   0.000435
     9  F    0.360846   0.008084   9.082823  -0.158231   0.020144   0.016286
    10  C   -1.240812  -0.144387  -0.158231   5.428744   0.243043   0.224821
    11  F   -0.129979   0.020113   0.020144   0.243043   9.111970   0.002360
    12  F   -0.063351   0.000435   0.016286   0.224821   0.002360   9.086537
    13  F   -0.081003   0.022789  -0.001209   0.288988  -0.007965   0.008538
    14  H    0.020192   0.000123  -0.000468   0.003295   0.000009  -0.000004
              13         14
     1  C   -0.011798   0.445401
     2  F   -0.000805  -0.039439
     3  F    0.000030  -0.038860
     4  C    0.006069  -0.058902
     5  F    0.003480   0.002332
     6  F   -0.002768   0.004508
     7  C   -0.081003   0.020192
     8  F    0.022789   0.000123
     9  F   -0.001209  -0.000468
    10  C    0.288988   0.003295
    11  F   -0.007965   0.000009
    12  F    0.008538  -0.000004
    13  F    9.050539   0.000002
    14  H    0.000002   0.498505
 Mulliken charges:
               1
     1  C    0.589577
     2  F   -0.269374
     3  F   -0.275894
     4  C    0.321800
     5  F   -0.278997
     6  F   -0.258416
     7  C    0.341840
     8  F   -0.274105
     9  F   -0.256721
    10  C    1.056827
    11  F   -0.292950
    12  F   -0.292008
    13  F   -0.274885
    14  H    0.163305
 Sum of Mulliken charges =  -0.00000
 Mulliken charges with hydrogens summed into heavy atoms:
               1
     1  C    0.752882
     2  F   -0.269374
     3  F   -0.275894
     4  C    0.321800
     5  F   -0.278997
     6  F   -0.258416
     7  C    0.341840
     8  F   -0.274105
     9  F   -0.256721
    10  C    1.056827
    11  F   -0.292950
    12  F   -0.292008
    13  F   -0.274885
 APT charges:
               1
     1  C    1.026148
     2  F   -0.484165
     3  F   -0.482613
     4  C    0.919001
     5  F   -0.477635
     6  F   -0.477991
     7  C    0.917412
     8  F   -0.467020
     9  F   -0.465598
    10  C    1.549015
    11  F   -0.538456
    12  F   -0.505182
    13  F   -0.501781
    14  H   -0.011134
 Sum of APT charges =  -0.00000
 APT charges with hydrogens summed into heavy atoms:
               1
     1  C    1.015013
     2  F   -0.484165
     3  F   -0.482613
     4  C    0.919001
     5  F   -0.477635
     6  F   -0.477991
     7  C    0.917412
     8  F   -0.467020
     9  F   -0.465598
    10  C    1.549015
    11  F   -0.538456
    12  F   -0.505182
    13  F   -0.501781
 Electronic spatial extent (au):  <R**2>=           1908.9563
 Charge=              0.0000 electrons
 Dipole moment (field-independent basis, Debye):
    X=              1.1362    Y=              1.0757    Z=             -0.3797  Tot=              1.6100
 Quadrupole moment (field-independent basis, Debye-Ang):
   XX=            -65.4617   YY=            -69.6611   ZZ=            -71.1335
   XY=              3.6489   XZ=             -1.4772   YZ=             -0.5768
 Traceless Quadrupole moment (field-independent basis, Debye-Ang):
   XX=              3.2904   YY=             -0.9090   ZZ=             -2.3814
   XY=              3.6489   XZ=             -1.4772   YZ=             -0.5768
 Octapole moment (field-independent basis, Debye-Ang**2):
  XXX=              8.0702  YYY=             -2.1998  ZZZ=              1.1324  XYY=              0.1017
  XXY=             11.0853  XXZ=             -3.9927  XZZ=             -4.7603  YZZ=             -1.4331
  YYZ=              0.6768  XYZ=             -1.6730
 Hexadecapole moment (field-independent basis, Debye-Ang**3):
 XXXX=          -1155.7864 YYYY=           -370.9086 ZZZZ=           -329.8252 XXXY=             21.1061
 XXXZ=             -9.8936 YYYX=             -5.0740 YYYZ=              0.3360 ZZZX=              1.6298
 ZZZY=              2.1238 XXYY=           -257.2403 XXZZ=           -263.4930 YYZZ=           -118.1710
 XXYZ=             -4.7030 YYXZ=              0.5759 ZZXY=             -1.5421
 N-N= 1.044027921590D+03 E-N=-4.587214455384D+03  KE= 1.048964738587D+03
  Exact polarizability:  57.590   0.660  52.343  -0.005   0.361  53.501
 Approx polarizability:  54.128   0.166  58.899   0.339   1.177  63.792
 Calling FoFJK, ICntrl=    100127 FMM=F ISym2X=0 I1Cent= 0 IOpClX= 0 NMat=1 NMatS=1 NMatT=0.
 Full mass-weighted force constant matrix:
 Low frequencies ---   -0.0015   -0.0012   -0.0001    5.2029    7.5095    9.1312
 Low frequencies ---   30.0216   67.2120   87.4149
 Diagonal vibrational polarizability:
       16.6353896      13.8822220      22.7452260
 Harmonic frequencies (cm**-1), IR intensities (KM/Mole), Raman scattering
 activities (A**4/AMU), depolarization ratios for plane and unpolarized
 incident light, reduced masses (AMU), force constants (mDyne/A),
 and normal coordinates:
                      1                      2                      3
                      A                      A                      A
 Frequencies --     30.0112                67.2051                87.4140
 Red. masses --     18.2856                18.0388                11.8803
 Frc consts  --      0.0097                 0.0480                 0.0535
 IR Inten    --      0.1160                 0.0603                 1.3505
  Atom  AN      X      Y      Z        X      Y      Z        X      Y      Z
     1   6    -0.02   0.01   0.05    -0.01  -0.06   0.06    -0.01   0.08   0.16
     2   9    -0.11   0.33   0.13    -0.04   0.11   0.09    -0.25  -0.28   0.14
     3   9    -0.02  -0.18   0.35    -0.12  -0.19   0.22     0.29   0.34  -0.13
     4   6    -0.00  -0.02  -0.13     0.03   0.05   0.02     0.00  -0.03  -0.04
     5   9    -0.10   0.07  -0.27     0.05  -0.01   0.10    -0.10   0.07  -0.19
     6   9     0.10  -0.17  -0.19     0.08   0.18   0.06     0.11  -0.19  -0.10
     7   6     0.00  -0.03  -0.11     0.00   0.04  -0.14    -0.02  -0.03  -0.02
     8   9     0.11  -0.14  -0.20     0.06  -0.17  -0.28    -0.03  -0.10  -0.07
     9   9    -0.12   0.06  -0.19    -0.06   0.24  -0.31    -0.07   0.01  -0.06
    10   6     0.03   0.00   0.09     0.01  -0.02   0.01     0.01   0.02   0.06
    11   9    -0.03   0.06  -0.12     0.08  -0.09   0.44    -0.03   0.05   0.20
    12   9     0.03   0.27   0.31    -0.22  -0.31  -0.15    -0.04  -0.03   0.03
    13   9     0.13  -0.27   0.27     0.15   0.26  -0.13     0.12   0.10   0.04
    14   1     0.02  -0.09  -0.11     0.08  -0.18  -0.06    -0.04   0.27   0.55
                      4                      5                      6
                      A                      A                      A
 Frequencies --    141.4982               186.8128               210.7969
 Red. masses --     15.9098                17.7747                18.3217
 Frc consts  --      0.1877                 0.3655                 0.4797
 IR Inten    --      0.3392                 0.3075                 3.1218
  Atom  AN      X      Y      Z        X      Y      Z        X      Y      Z
     1   6     0.03   0.13  -0.05     0.19  -0.03  -0.01     0.01   0.07   0.10
     2   9     0.19   0.32  -0.05     0.35   0.10  -0.02     0.40  -0.06   0.00
     3   9     0.24   0.13   0.03     0.46  -0.00   0.05    -0.30   0.11  -0.10
     4   6    -0.07  -0.16   0.05     0.11  -0.11   0.01    -0.00   0.04   0.18
     5   9    -0.14  -0.28   0.18     0.23  -0.07   0.01    -0.17   0.24  -0.12
     6   9    -0.20  -0.06   0.10     0.17  -0.12  -0.01     0.17  -0.30   0.04
     7   6    -0.04  -0.20  -0.00    -0.12   0.10  -0.02    -0.00   0.01   0.17
     8   9    -0.07  -0.29  -0.06    -0.21   0.07  -0.02     0.12  -0.28  -0.03
     9   9    -0.13  -0.16  -0.04    -0.21   0.12  -0.05    -0.15   0.27  -0.05
    10   6     0.03   0.04  -0.02    -0.20   0.05  -0.00    -0.01  -0.01   0.11
    11   9    -0.22   0.25   0.04    -0.03  -0.11  -0.02     0.01  -0.02  -0.02
    12   9     0.23   0.03  -0.09    -0.41   0.04   0.06     0.29  -0.10  -0.06
    13   9     0.15   0.17  -0.08    -0.32  -0.03   0.03    -0.35   0.08  -0.01
    14   1    -0.19   0.25  -0.19    -0.00   0.10  -0.09    -0.03   0.05  -0.02
                      7                      8                      9
                      A                      A                      A
 Frequencies --    238.2594               244.7732               290.2732
 Red. masses --     18.6286                18.5056                18.2404
 Frc consts  --      0.6231                 0.6533                 0.9055
 IR Inten    --      0.1186                 0.0603                 3.6615
  Atom  AN      X      Y      Z        X      Y      Z        X      Y      Z
     1   6     0.01   0.02   0.10     0.00  -0.05  -0.07     0.01   0.02  -0.02
     2   9     0.26  -0.06   0.02    -0.30  -0.00  -0.00    -0.04   0.03  -0.01
     3   9    -0.15   0.05  -0.04     0.22  -0.06   0.03    -0.07   0.01  -0.02
     4   6    -0.00  -0.02  -0.05     0.02  -0.02  -0.16     0.02  -0.09   0.00
     5   9    -0.48  -0.21   0.04     0.08  -0.16   0.06    -0.26  -0.21   0.06
     6   9     0.52   0.19  -0.01    -0.01   0.21  -0.06    -0.11  -0.15  -0.01
     7   6    -0.02  -0.03  -0.17     0.02   0.03   0.04     0.06   0.04  -0.01
     8   9     0.16   0.28  -0.01     0.47   0.10  -0.04    -0.25  -0.01   0.03
     9   9    -0.18  -0.29   0.05    -0.46  -0.02   0.05    -0.18   0.02  -0.00
    10   6    -0.03   0.00  -0.04     0.01   0.01   0.13     0.22   0.20  -0.02
    11   9    -0.08   0.04   0.06     0.08  -0.04  -0.00     0.72  -0.19  -0.04
    12   9    -0.14   0.03   0.00     0.30  -0.07  -0.03    -0.03   0.21   0.06
    13   9     0.12  -0.03  -0.00    -0.39   0.07   0.01     0.02   0.19  -0.04
    14   1    -0.02   0.02   0.04     0.05  -0.04   0.05     0.03  -0.00  -0.02
                     10                     11                     12
                      A                      A                      A
 Frequencies --    328.7381               344.5196               365.3022
 Red. masses --     18.4523                17.0569                18.4847
 Frc consts  --      1.1749                 1.1928                 1.4533
 IR Inten    --      0.0535                 0.2696                 0.0993
  Atom  AN      X      Y      Z        X      Y      Z        X      Y      Z
     1   6     0.02  -0.12   0.03     0.00  -0.05  -0.20     0.05  -0.10  -0.01
     2   9     0.13  -0.22   0.00    -0.20   0.13  -0.17     0.20  -0.21  -0.06
     3   9     0.17  -0.15   0.12     0.09  -0.12  -0.10     0.28  -0.17   0.17
     4   6    -0.09  -0.06   0.00     0.03  -0.02  -0.10    -0.10   0.06  -0.04
     5   9    -0.35  -0.14   0.01    -0.19  -0.16  -0.03    -0.29   0.13  -0.17
     6   9    -0.33  -0.18  -0.02     0.33   0.15  -0.08    -0.20   0.22   0.02
     7   6     0.09   0.05  -0.02     0.02  -0.01   0.03    -0.09   0.09  -0.00
     8   9     0.42   0.13  -0.06    -0.29  -0.12   0.04    -0.29   0.24   0.13
     9   9     0.40   0.16  -0.09     0.42   0.07  -0.02    -0.16   0.23  -0.12
    10   6    -0.06   0.10   0.00    -0.03   0.01   0.15     0.06  -0.09   0.03
    11   9    -0.05   0.10   0.01    -0.04   0.02   0.25    -0.00  -0.04   0.07
    12   9    -0.19   0.14   0.06     0.20   0.03   0.11     0.33  -0.17  -0.09
    13   9    -0.17   0.17  -0.05    -0.34   0.05   0.10     0.18  -0.20   0.10
    14   1    -0.01  -0.09   0.04     0.03  -0.09  -0.26     0.00  -0.07  -0.04
                     13                     14                     15
                      A                      A                      A
 Frequencies --    380.3921               451.4454               522.9257
 Red. masses --     17.8568                16.1884                11.5541
 Frc consts  --      1.5224                 1.9439                 1.8615
 IR Inten    --      0.7105                 0.8775                35.6493
  Atom  AN      X      Y      Z        X      Y      Z        X      Y      Z
     1   6     0.11  -0.01   0.02    -0.01   0.09   0.19     0.26   0.11   0.03
     2   9     0.15  -0.16  -0.00     0.20  -0.08   0.17     0.01  -0.04   0.09
     3   9     0.10  -0.08   0.13    -0.18   0.17   0.10    -0.12   0.04   0.03
     4   6     0.03   0.12  -0.04    -0.01  -0.02  -0.12     0.23   0.04  -0.13
     5   9    -0.07   0.30  -0.27     0.24  -0.09   0.01    -0.04  -0.17  -0.01
     6   9    -0.11   0.42   0.06    -0.20  -0.01  -0.14    -0.12   0.04  -0.16
     7   6     0.03  -0.11   0.01    -0.03  -0.03  -0.29     0.17   0.08   0.03
     8   9    -0.03  -0.40  -0.14    -0.13   0.23  -0.18    -0.06  -0.09  -0.01
     9   9     0.00  -0.38   0.21     0.09  -0.26  -0.19    -0.00   0.03   0.10
    10   6    -0.01   0.06   0.00    -0.01  -0.02  -0.03     0.09   0.18   0.04
    11   9     0.10  -0.02  -0.01     0.02  -0.05   0.34     0.05   0.31  -0.03
    12   9    -0.12   0.13   0.09     0.25   0.16   0.04    -0.14  -0.21  -0.24
    13   9    -0.14   0.15  -0.06    -0.24  -0.10  -0.02    -0.09  -0.17   0.26
    14   1     0.20  -0.07   0.05    -0.02   0.14   0.28     0.54  -0.06   0.17
                     16                     17                     18
                      A                      A                      A
 Frequencies --    545.9382               558.3474               593.2235
 Red. masses --     16.5050                13.4765                 9.9168
 Frc consts  --      2.8984                 2.4753                 2.0562
 IR Inten    --      3.2131                14.1528                44.3050
  Atom  AN      X      Y      Z        X      Y      Z        X      Y      Z
     1   6     0.06   0.05   0.11    -0.18   0.24  -0.10    -0.31  -0.19   0.09
     2   9     0.11  -0.03   0.17     0.04  -0.23  -0.33     0.09   0.07   0.11
     3   9    -0.14   0.12   0.03    -0.00   0.11   0.41     0.06  -0.00  -0.11
     4   6     0.06  -0.11  -0.22    -0.14   0.15  -0.09    -0.24  -0.12   0.01
     5   9     0.09  -0.29  -0.20     0.06  -0.02   0.25     0.07  -0.01  -0.07
     6   9    -0.06   0.23  -0.19     0.10  -0.07  -0.29     0.02   0.03   0.06
     7   6     0.03  -0.13   0.09    -0.07   0.08   0.02    -0.17   0.07  -0.08
     8   9    -0.05  -0.03   0.27    -0.04  -0.07  -0.11    -0.02   0.07  -0.21
     9   9     0.03   0.15  -0.14     0.03  -0.00   0.14     0.12  -0.08   0.05
    10   6    -0.01  -0.15   0.17    -0.03  -0.01   0.07    -0.03   0.10   0.15
    11   9    -0.12  -0.13  -0.28     0.01  -0.04  -0.10     0.13   0.07  -0.17
    12   9    -0.01  -0.15   0.31     0.03  -0.08   0.03     0.03  -0.20  -0.06
    13   9     0.06   0.33  -0.06     0.05   0.09   0.06     0.00   0.14   0.29
    14   1     0.11   0.06   0.25    -0.32   0.35  -0.13    -0.63   0.03   0.01
                     19                     20                     21
                      A                      A                      A
 Frequencies --    619.5009               628.3399               715.1990
 Red. masses --     10.5012                14.1013                15.8273
 Frc consts  --      2.3745                 3.2802                 4.7699
 IR Inten    --     29.3469                 1.6712                 6.7830
  Atom  AN      X      Y      Z        X      Y      Z        X      Y      Z
     1   6     0.29   0.05  -0.05     0.11  -0.16   0.08     0.20   0.16  -0.07
     2   9    -0.08   0.02  -0.01     0.07   0.08   0.27    -0.09  -0.03  -0.16
     3   9     0.02  -0.09  -0.06     0.04  -0.10  -0.22    -0.11   0.10   0.14
     4   6     0.17   0.17   0.08    -0.00   0.18  -0.11     0.22  -0.20   0.07
     5   9    -0.10   0.19   0.19    -0.09  -0.03   0.18     0.01  -0.24  -0.32
     6   9    -0.05  -0.15   0.04    -0.06   0.00  -0.32    -0.03  -0.05   0.40
     7   6     0.09  -0.00  -0.16    -0.10   0.25   0.05    -0.01   0.22  -0.03
     8   9    -0.11   0.16  -0.13    -0.04  -0.08  -0.24    -0.04   0.12  -0.35
     9   9    -0.02  -0.20  -0.14     0.00   0.14   0.38     0.02   0.11   0.28
    10   6     0.04  -0.07   0.14    -0.11  -0.08  -0.03    -0.10  -0.02   0.01
    11   9    -0.07  -0.00  -0.16    -0.11  -0.21   0.02    -0.12  -0.18  -0.02
    12   9     0.04  -0.21   0.20     0.10   0.08   0.03     0.09   0.00   0.02
    13   9    -0.04   0.19   0.07     0.12   0.00  -0.10     0.06   0.05   0.02
    14   1     0.59  -0.19  -0.03     0.30  -0.29   0.17     0.25   0.15  -0.05
                     22                     23                     24
                      A                      A                      A
 Frequencies --    768.9344              1009.5131              1142.0292
 Red. masses --     14.7920                 8.8773                 8.7699
 Frc consts  --      5.1530                 5.3303                 6.7390
 IR Inten    --      5.9490                78.0979                 2.9100
  Atom  AN      X      Y      Z        X      Y      Z        X      Y      Z
     1   6     0.19   0.07  -0.03    -0.34  -0.13   0.07     0.01   0.51   0.02
     2   9    -0.03  -0.01   0.00     0.03   0.02  -0.03     0.01  -0.06   0.11
     3   9    -0.02  -0.01   0.00     0.04   0.01  -0.00     0.03  -0.27  -0.12
     4   6     0.06   0.02  -0.00     0.19   0.11  -0.02    -0.24  -0.04  -0.09
     5   9    -0.01   0.03   0.04    -0.02  -0.01  -0.01     0.04   0.00   0.00
     6   9    -0.00   0.00  -0.03    -0.03  -0.02   0.02     0.04  -0.01   0.04
     7   6    -0.12  -0.11   0.02     0.56   0.10  -0.07     0.11  -0.28   0.00
     8   9     0.08  -0.04   0.15    -0.07  -0.01   0.01    -0.03   0.07  -0.08
     9   9     0.05  -0.08  -0.16    -0.07  -0.01   0.01    -0.01   0.09   0.08
    10   6    -0.35   0.13   0.03     0.20  -0.02  -0.02     0.18  -0.10   0.02
    11   9    -0.07  -0.38  -0.02    -0.18  -0.15  -0.00    -0.03  -0.02  -0.00
    12   9     0.05   0.24  -0.39    -0.03   0.07  -0.07    -0.04   0.05  -0.06
    13   9     0.09   0.18   0.41    -0.03   0.07   0.10    -0.03   0.04   0.05
    14   1     0.38  -0.06   0.02    -0.59   0.03  -0.01    -0.08   0.61   0.08
                     25                     26                     27
                      A                      A                      A
 Frequencies --   1154.3537              1164.4970              1189.1789
 Red. masses --      6.7217                13.1810                12.6705
 Frc consts  --      5.2772                10.5311                10.5570
 IR Inten    --     59.7309               216.7595                72.7553
  Atom  AN      X      Y      Z        X      Y      Z        X      Y      Z
     1   6     0.00   0.05   0.53    -0.16   0.23  -0.03     0.01   0.11   0.15
     2   9    -0.02   0.07  -0.27     0.04  -0.03   0.08    -0.04   0.01  -0.07
     3   9     0.01  -0.11  -0.07     0.05  -0.13  -0.06     0.03  -0.09  -0.05
     4   6     0.09  -0.08  -0.13    -0.07   0.58  -0.19    -0.00   0.20   0.78
     5   9    -0.01   0.04   0.03     0.04  -0.21  -0.11     0.04  -0.18  -0.16
     6   9    -0.03   0.00   0.01     0.02  -0.12   0.22    -0.03   0.07  -0.25
     7   6    -0.07   0.04  -0.15    -0.06   0.43  -0.05    -0.00  -0.00  -0.08
     8   9     0.02  -0.04   0.06     0.03  -0.13   0.15     0.02   0.01   0.01
     9   9     0.01   0.02   0.03     0.00  -0.13  -0.11    -0.02  -0.01   0.01
    10   6    -0.06   0.05   0.02    -0.22  -0.12   0.06    -0.05  -0.10  -0.30
    11   9     0.01   0.00  -0.00     0.07   0.07  -0.00     0.03   0.04   0.02
    12   9     0.02  -0.02   0.02     0.03  -0.01   0.01     0.02  -0.03   0.06
    13   9     0.01  -0.01  -0.02     0.03  -0.02  -0.04    -0.02   0.06   0.10
    14   1     0.01   0.13   0.73     0.19   0.01   0.09    -0.15   0.14  -0.06
                     28                     29                     30
                      A                      A                      A
 Frequencies --   1209.2681              1221.5700              1251.9525
 Red. masses --      5.9822                 9.5756                10.5267
 Frc consts  --      5.1541                 8.4189                 9.7212
 IR Inten    --    182.7551               173.1504               443.0392
  Atom  AN      X      Y      Z        X      Y      Z        X      Y      Z
     1   6    -0.07   0.18  -0.04    -0.01  -0.07   0.18    -0.01   0.04   0.03
     2   9     0.00  -0.03   0.07     0.00   0.04  -0.11    -0.01  -0.00  -0.01
     3   9     0.00  -0.10  -0.04     0.00   0.01  -0.01     0.00  -0.04  -0.02
     4   6     0.16  -0.16   0.02    -0.02   0.07  -0.08     0.12  -0.04   0.26
     5   9    -0.02   0.04   0.02    -0.00  -0.04  -0.01    -0.00  -0.02  -0.03
     6   9    -0.01   0.03  -0.05     0.01   0.01  -0.00    -0.02   0.04  -0.10
     7   6     0.03   0.16   0.23     0.05  -0.02   0.68     0.02   0.05   0.06
     8   9     0.01  -0.00  -0.02    -0.05   0.11  -0.19    -0.02   0.04  -0.05
     9   9     0.01  -0.09  -0.10    -0.00  -0.09  -0.14     0.01  -0.05  -0.05
    10   6    -0.12   0.37  -0.10    -0.01  -0.27  -0.11    -0.05  -0.09   0.74
    11   9    -0.04  -0.07   0.01     0.04   0.06   0.01     0.02   0.03  -0.04
    12   9     0.04  -0.10   0.10    -0.03   0.06  -0.04    -0.05   0.12  -0.18
    13   9     0.03  -0.06  -0.06     0.00   0.04   0.05     0.04  -0.09  -0.21
    14   1    -0.54   0.54  -0.10     0.25  -0.18   0.44    -0.36   0.27  -0.11
                     31                     32                     33
                      A                      A                      A
 Frequencies --   1259.0197              1309.7876              1357.2519
 Red. masses --      5.9569                 8.7162                 5.4478
 Frc consts  --      5.5633                 8.8101                 5.9128
 IR Inten    --    254.9293                23.8732                81.4269
  Atom  AN      X      Y      Z        X      Y      Z        X      Y      Z
     1   6     0.04  -0.04   0.07     0.33  -0.05   0.02     0.02  -0.01  -0.03
     2   9     0.00   0.02  -0.06    -0.03   0.01  -0.02    -0.01  -0.00   0.02
     3   9     0.01   0.02   0.00    -0.04   0.00   0.01    -0.01  -0.02  -0.00
     4   6    -0.25   0.19   0.07    -0.42  -0.26   0.03     0.22   0.06  -0.02
     5   9     0.04  -0.08  -0.06     0.02   0.04   0.02    -0.02  -0.01   0.00
     6   9     0.02  -0.02   0.01     0.02   0.03  -0.03    -0.02  -0.01   0.01
     7   6    -0.04  -0.04   0.08     0.17   0.47  -0.02    -0.37   0.09   0.02
     8   9     0.00   0.01  -0.02     0.00  -0.08   0.07     0.03  -0.02   0.03
     9   9     0.01  -0.03  -0.03    -0.01  -0.09  -0.07     0.03  -0.03  -0.02
    10   6     0.28   0.38   0.10     0.13  -0.14  -0.02     0.40  -0.10  -0.04
    11   9    -0.11  -0.13  -0.01    -0.04  -0.01   0.00    -0.06  -0.04   0.00
    12   9    -0.02  -0.03   0.00    -0.01   0.03  -0.02    -0.04   0.04  -0.04
    13   9    -0.01  -0.06  -0.06    -0.01   0.03   0.03    -0.04   0.03   0.05
    14   1     0.59  -0.44   0.21    -0.29   0.49   0.02    -0.58   0.52   0.04
                     34                     35                     36
                      A                      A                      A
 Frequencies --   1378.8712              1445.2330              3105.8078
 Red. masses --      1.2204                 2.0786                 1.0876
 Frc consts  --      1.3671                 2.5580                 6.1813
 IR Inten    --     11.9038                 6.9381                13.5120
  Atom  AN      X      Y      Z        X      Y      Z        X      Y      Z
     1   6    -0.00  -0.05  -0.11    -0.16   0.11  -0.05    -0.05  -0.06   0.03
     2   9     0.01   0.02  -0.00     0.02  -0.00   0.01     0.00   0.00   0.00
     3   9    -0.01  -0.01   0.01     0.02  -0.01  -0.00     0.00  -0.00  -0.00
     4   6    -0.00   0.01   0.02     0.04  -0.16   0.05     0.00  -0.00   0.00
     5   9    -0.00   0.00  -0.00    -0.00   0.03   0.01    -0.00   0.00   0.00
     6   9     0.00  -0.00   0.00    -0.00   0.02  -0.02    -0.00   0.00  -0.00
     7   6     0.02  -0.02  -0.02    -0.04   0.11  -0.01     0.00  -0.00   0.00
     8   9    -0.00   0.00  -0.00     0.01  -0.01   0.02    -0.00   0.00  -0.00
     9   9    -0.00   0.00   0.01     0.00  -0.02  -0.01    -0.00   0.00  -0.00
    10   6    -0.02   0.01   0.00     0.07  -0.05  -0.00     0.00  -0.00   0.00
    11   9     0.00   0.00  -0.00    -0.01  -0.00  -0.00     0.00   0.00  -0.00
    12   9     0.00  -0.00   0.00    -0.01   0.01  -0.01    -0.00   0.00  -0.00
    13   9     0.00  -0.00  -0.00    -0.01   0.01   0.01    -0.00   0.00   0.00
    14   1     0.03   0.36   0.92     0.75  -0.53   0.25     0.61   0.73  -0.30

 -------------------
 - Thermochemistry -
 -------------------
 Temperature   298.150 Kelvin.  Pressure   1.00000 Atm.
 Atom     1 has atomic number  6 and mass  12.00000
 Atom     2 has atomic number  9 and mass  18.99840
 Atom     3 has atomic number  9 and mass  18.99840
 Atom     4 has atomic number  6 and mass  12.00000
 Atom     5 has atomic number  9 and mass  18.99840
 Atom     6 has atomic number  9 and mass  18.99840
 Atom     7 has atomic number  6 and mass  12.00000
 Atom     8 has atomic number  9 and mass  18.99840
 Atom     9 has atomic number  9 and mass  18.99840
 Atom    10 has atomic number  6 and mass  12.00000
 Atom    11 has atomic number  9 and mass  18.99840
 Atom    12 has atomic number  9 and mass  18.99840
 Atom    13 has atomic number  9 and mass  18.99840
 Atom    14 has atomic number  1 and mass   1.00783
 Molecular mass:   219.99345 amu.
 Principal axes and moments of inertia in atomic units:
                           1         2         3
     Eigenvalues --  1358.833082934.144143000.23151
           X            0.99996   0.00849  -0.00302
           Y           -0.00856   0.99965  -0.02504
           Z            0.00280   0.02507   0.99968
 This molecule is an asymmetric top.
 Rotational symmetry number  1.
 Warning -- assumption of classical behavior for rotation
           may cause significant error
 Rotational temperatures (Kelvin)      0.06374     0.02952     0.02887
 Rotational constants (GHZ):           1.32816     0.61508     0.60153
 Zero-point vibrational energy     164595.3 (Joules/Mol)
                                   39.33922 (Kcal/Mol)
 Warning -- explicit consideration of  19 degrees of freedom as
           vibrations may cause significant error
 Vibrational temperatures:     43.18    96.69   125.77   203.58   268.78
          (Kelvin)            303.29   342.80   352.17   417.64   472.98
                              495.69   525.59   547.30   649.53   752.37
                              785.48   803.34   853.52   891.32   904.04
                             1029.01  1106.33  1452.46  1643.13  1660.86
                             1675.45  1710.96  1739.87  1757.57  1801.28
                             1811.45  1884.49  1952.78  1983.89  2079.37
                             4468.56
 
 Zero-point correction=                           0.062691 (Hartree/Particle)
 Thermal correction to Energy=                    0.074305
 Thermal correction to Enthalpy=                  0.075249
 Thermal correction to Gibbs Free Energy=         0.023828
 Sum of electronic and zero-point Energies=          -1051.593110
 Sum of electronic and thermal Energies=             -1051.581497
 Sum of electronic and thermal Enthalpies=           -1051.580552
 Sum of electronic and thermal Free Energies=        -1051.631974
 
                     E (Thermal)             CV                S
                      KCal/Mol        Cal/Mol-Kelvin    Cal/Mol-Kelvin
 Total                   46.627             40.806            108.225
 Electronic               0.000              0.000              0.000
 Translational            0.889              2.981             42.068
 Rotational               0.889              2.981             30.859
 Vibrational             44.850             34.845             35.298
 Vibration     1          0.594              1.984              5.829
 Vibration     2          0.598              1.970              4.234
 Vibration     3          0.601              1.958              3.717
 Vibration     4          0.615              1.912              2.784
 Vibration     5          0.632              1.858              2.259
 Vibration     6          0.643              1.824              2.037
 Vibration     7          0.656              1.782              1.816
 Vibration     8          0.660              1.771              1.768
 Vibration     9          0.686              1.692              1.472
 Vibration    10          0.712              1.618              1.266
 Vibration    11          0.723              1.586              1.191
 Vibration    12          0.739              1.544              1.099
 Vibration    13          0.750              1.512              1.038
 Vibration    14          0.810              1.358              0.791
 Vibration    15          0.878              1.199              0.603
 Vibration    16          0.901              1.149              0.553
 Vibration    17          0.914              1.121              0.527
 Vibration    18          0.951              1.046              0.461
 Vibration    19          0.979              0.991              0.417
                       Q            Log10(Q)             Ln(Q)
 Total Bot       0.109667D-10        -10.959925        -25.236159
 Total V=0       0.751492D+18         17.875924         41.160837
 Vib (Bot)       0.690653D-25        -25.160740        -57.934745
 Vib (Bot)    1  0.689889D+01          0.838779          1.931360
 Vib (Bot)    2  0.306999D+01          0.487137          1.121675
 Vib (Bot)    3  0.235313D+01          0.371645          0.855745
 Vib (Bot)    4  0.143643D+01          0.157286          0.362164
 Vib (Bot)    5  0.107257D+01          0.030427          0.070060
 Vib (Bot)    6  0.941914D+00         -0.025989         -0.059842
 Vib (Bot)    7  0.823622D+00         -0.084272         -0.194044
 Vib (Bot)    8  0.799314D+00         -0.097283         -0.224002
 Vib (Bot)    9  0.658706D+00         -0.181309         -0.417479
 Vib (Bot)   10  0.568814D+00         -0.245030         -0.564202
 Vib (Bot)   11  0.537421D+00         -0.269686         -0.620974
 Vib (Bot)   12  0.499970D+00         -0.301056         -0.693207
 Vib (Bot)   13  0.475183D+00         -0.323139         -0.744056
 Vib (Bot)   14  0.379416D+00         -0.420884         -0.969121
 Vib (Bot)   15  0.307845D+00         -0.511668         -1.178159
 Vib (Bot)   16  0.288574D+00         -0.539743         -1.242804
 Vib (Bot)   17  0.278809D+00         -0.554693         -1.277229
 Vib (Bot)   18  0.253461D+00         -0.596088         -1.372544
 Vib (Bot)   19  0.236186D+00         -0.626746         -1.443136
 Vib (V=0)       0.473270D+04          3.675109          8.462252
 Vib (V=0)    1  0.741698D+01          0.870227          2.003773
 Vib (V=0)    2  0.361044D+01          0.557561          1.283831
 Vib (V=0)    3  0.290566D+01          0.463245          1.066661
 Vib (V=0)    4  0.202097D+01          0.305559          0.703577
 Vib (V=0)    5  0.168339D+01          0.226185          0.520810
 Vib (V=0)    6  0.156640D+01          0.194902          0.448778
 Vib (V=0)    7  0.146351D+01          0.165396          0.380838
 Vib (V=0)    8  0.144282D+01          0.159211          0.366597
 Vib (V=0)    9  0.132698D+01          0.122864          0.282904
 Vib (V=0)   10  0.125733D+01          0.099449          0.228991
 Vib (V=0)   11  0.123404D+01          0.091331          0.210297
 Vib (V=0)   12  0.120709D+01          0.081738          0.188209
 Vib (V=0)   13  0.118978D+01          0.075467          0.173770
 Vib (V=0)   14  0.112766D+01          0.052178          0.120144
 Vib (V=0)   15  0.108717D+01          0.036297          0.083578
 Vib (V=0)   16  0.107730D+01          0.032337          0.074458
 Vib (V=0)   17  0.107248D+01          0.030390          0.069975
 Vib (V=0)   18  0.106057D+01          0.025541          0.058810
 Vib (V=0)   19  0.105298D+01          0.022419          0.051622
 Electronic      0.100000D+01          0.000000          0.000000
 Translational   0.128253D+09          8.108069         18.669518
 Rotational      0.123807D+07          6.092747         14.029068
 ***** Axes restored to original set *****
 -------------------------------------------------------------------
 Center     Atomic                   Forces (Hartrees/Bohr)
 Number     Number              X              Y              Z
 -------------------------------------------------------------------
      1        6           0.000031157   -0.000025424    0.000034965
      2        9           0.000002396    0.000017061   -0.000027908
      3        9           0.000000512    0.000012435   -0.000000070
      4        6          -0.000011509    0.000014930    0.000031694
      5        9          -0.000018661   -0.000017757    0.000002051
      6        9          -0.000006239    0.000007547   -0.000035865
      7        6           0.000023135   -0.000035948   -0.000031744
      8        9          -0.000002709   -0.000014842    0.000005683
      9        9           0.000004042    0.000022725    0.000023897
     10        6          -0.000013515    0.000040703    0.000002434
     11        9          -0.000003896    0.000000135    0.000004079
     12        9          -0.000015241   -0.000007634    0.000007626
     13        9           0.000007959   -0.000009283   -0.000018416
     14        1           0.000002568   -0.000004650    0.000001573
 -------------------------------------------------------------------
 Cartesian Forces:  Max     0.000040703 RMS     0.000018532

 GradGradGradGradGradGradGradGradGradGradGradGradGradGradGradGradGradGrad
 Berny optimization.
 Search for a local minimum.
 Step number   1 out of a maximum of    2
 All quantities printed in internal units (Hartrees-Bohrs-Radians)
 Second derivative matrix not updated -- analytic derivatives used.
 ITU=  0
     Eigenvalues ---    0.00063   0.00302   0.00371   0.01194   0.02351
     Eigenvalues ---    0.03082   0.03994   0.04158   0.04977   0.05832
     Eigenvalues ---    0.07460   0.07528   0.09307   0.10530   0.11185
     Eigenvalues ---    0.15268   0.15889   0.19885   0.21418   0.22532
     Eigenvalues ---    0.25584   0.29328   0.31503   0.37509   0.44702
     Eigenvalues ---    0.63240   0.71220   0.73561   0.73690   0.76313
     Eigenvalues ---    0.78012   0.81368   0.82706   0.83562   0.91244
     Eigenvalues ---    0.97257
 Angle between quadratic step and forces=  79.74 degrees.
 Linear search not attempted -- first point.
 B after Tr=    -0.000013    0.000018    0.000019
         Rot=    1.000000   -0.000003    0.000002   -0.000004 Ang=  -0.00 deg.
 Variable       Old X    -DE/DX   Delta X   Delta X   Delta X     New X
                                 (Linear)    (Quad)   (Total)
    X1        4.18182   0.00003   0.00000   0.00010   0.00008   4.18190
    Y1        0.33697  -0.00003   0.00000   0.00002   0.00007   0.33705
    Z1        0.00058   0.00003   0.00000   0.00037   0.00041   0.00099
    X2        4.60566   0.00000   0.00000  -0.00001  -0.00004   4.60562
    Y2       -0.12085   0.00002   0.00000   0.00126   0.00131  -0.11955
    Z2        2.45940  -0.00003   0.00000   0.00053   0.00057   2.45997
    X3        4.67529   0.00000   0.00000  -0.00003  -0.00002   4.67527
    Y3       -1.77215   0.00001   0.00000  -0.00061  -0.00055  -1.77270
    Z3       -1.32945  -0.00000   0.00000   0.00134   0.00137  -1.32808
    X4        1.41584  -0.00001   0.00000   0.00002   0.00000   1.41584
    Y4        1.15352   0.00001   0.00000  -0.00007  -0.00003   1.15349
    Z4       -0.42123   0.00003   0.00000  -0.00012  -0.00009  -0.42133
    X5        0.94396  -0.00002   0.00000  -0.00055  -0.00059   0.94337
    Y5        3.08970  -0.00002   0.00000  -0.00024  -0.00022   3.08949
    Z5        1.15654   0.00000   0.00000  -0.00018  -0.00014   1.15639
    X6        1.24452  -0.00001   0.00000   0.00034   0.00032   1.24484
    Y6        2.00686   0.00001   0.00000  -0.00002   0.00002   2.00689
    Z6       -2.80945  -0.00004   0.00000  -0.00024  -0.00021  -2.80966
    X7       -0.60596   0.00002   0.00000   0.00002   0.00002  -0.60594
    Y7       -0.94217  -0.00004   0.00000  -0.00021  -0.00019  -0.94236
    Z7       -0.03421  -0.00003   0.00000  -0.00071  -0.00070  -0.03491
    X8       -0.09551  -0.00000   0.00000   0.00019   0.00019  -0.09532
    Y8       -2.22202  -0.00001   0.00000  -0.00108  -0.00107  -2.22310
    Z8        2.09116   0.00001   0.00000  -0.00122  -0.00122   2.08994
    X9       -0.50618   0.00000   0.00000  -0.00038  -0.00037  -0.50655
    Y9       -2.53258   0.00002   0.00000   0.00059   0.00061  -2.53197
    Z9       -1.99833   0.00002   0.00000  -0.00123  -0.00123  -1.99956
   X10       -3.36749  -0.00001   0.00000   0.00007   0.00005  -3.36744
   Y10        0.04786   0.00004   0.00000   0.00012   0.00011   0.04797
   Z10        0.17282   0.00000   0.00000   0.00017   0.00018   0.17299
   X11       -4.93381  -0.00000   0.00000  -0.00007  -0.00007  -4.93387
   Y11       -1.90988   0.00000   0.00000   0.00016   0.00014  -1.90974
   Z11        0.11640   0.00000   0.00000   0.00100   0.00099   0.11739
   X12       -3.90579  -0.00002   0.00000  -0.00067  -0.00069  -3.90647
   Y12        1.56979  -0.00001   0.00000  -0.00011  -0.00012   1.56967
   Z12       -1.74854   0.00001   0.00000   0.00023   0.00024  -1.74830
   X13       -3.71305   0.00001   0.00000   0.00093   0.00090  -3.71215
   Y13        1.28708  -0.00001   0.00000   0.00030   0.00027   1.28735
   Z13        2.32128  -0.00002   0.00000   0.00015   0.00016   2.32144
   X14        5.41884   0.00000   0.00000   0.00023   0.00021   5.41905
   Y14        1.85935  -0.00000   0.00000  -0.00041  -0.00034   1.85901
   Z14       -0.63890   0.00000   0.00000  -0.00037  -0.00032  -0.63921
         Item               Value     Threshold  Converged?
 Maximum Force            0.000041     0.000450     YES
 RMS     Force            0.000019     0.000300     YES
 Maximum Displacement     0.001369     0.001800     YES
 RMS     Displacement     0.000555     0.001200     YES
 Predicted change in Energy=-3.916707D-08
 Optimization completed.
    -- Stationary point found.
 GradGradGradGradGradGradGradGradGradGradGradGradGradGradGradGradGradGrad


 ----------------------------------------------------------------------

 Electric dipole moment (input orientation):
 (Debye = 10**-18 statcoulomb cm , SI units = C m)
                  (au)            (Debye)         (10**-30 SI)
   Tot        0.633431D+00      0.161002D+01      0.537046D+01
   x          0.447014D+00      0.113620D+01      0.378994D+01
   y          0.423203D+00      0.107567D+01      0.358806D+01
   z         -0.149377D+00     -0.379679D+00     -0.126647D+01

 Dipole polarizability, Alpha (input orientation).
 (esu units = cm**3 , SI units = C**2 m**2 J**-1)
 Alpha(0;0):
               (au)            (10**-24 esu)      (10**-40 SI)
   iso        0.544780D+02      0.807280D+01      0.898220D+01
   aniso      0.494868D+01      0.733318D+00      0.815926D+00
   xx         0.575897D+02      0.853391D+01      0.949526D+01
   yx         0.659985D+00      0.977997D-01      0.108817D+00
   yy         0.523430D+02      0.775644D+01      0.863020D+01
   zx        -0.539265D-02     -0.799108D-03     -0.889127D-03
   zy         0.360659D+00      0.534441D-01      0.594646D-01
   zz         0.535011D+02      0.792805D+01      0.882115D+01

 ----------------------------------------------------------------------

 Dipole orientation:
     6          2.36847000          1.37978517          3.17611643
     9          4.53137194          0.19118219          2.58949680
     9          2.52914553          3.80398155          2.42887902
     6          0.10792890          0.08472345          1.86917846
     9          0.20095532         -2.38627520          2.45768510
     9         -2.00528324          1.06983517          2.88159859
     6         -0.02645649          0.39352982         -1.04903627
     9          2.26645186         -0.01412371         -2.04510092
     9         -0.74620104          2.75981829         -1.57800544
     6         -1.90675306         -1.43079145         -2.38522004
     9         -2.13477295         -0.74006226         -4.78525613
     9         -4.16466939         -1.32469260         -1.29518354
     9         -1.06966702         -3.78965901         -2.30780691
     1          2.07489510          1.30646875          5.21700323

 Electric dipole moment (dipole orientation):
 (Debye = 10**-18 statcoulomb cm , SI units = C m)
                  (au)            (Debye)         (10**-30 SI)
   Tot        0.633431D+00      0.161002D+01      0.537046D+01
   x          0.000000D+00      0.000000D+00      0.000000D+00
   y          0.000000D+00      0.000000D+00      0.000000D+00
   z          0.633431D+00      0.161002D+01      0.537046D+01

 Dipole polarizability, Alpha (dipole orientation).
 (esu units = cm**3 , SI units = C**2 m**2 J**-1)
 Alpha(0;0):
               (au)            (10**-24 esu)      (10**-40 SI)
   iso        0.544780D+02      0.807280D+01      0.898220D+01
   aniso      0.494868D+01      0.733318D+00      0.815926D+00
   xx         0.542904D+02      0.804501D+01      0.895129D+01
   yx         0.231286D+00      0.342730D-01      0.381339D-01
   yy         0.536126D+02      0.794456D+01      0.883952D+01
   zx         0.230389D+01      0.341402D+00      0.379860D+00
   zy         0.136213D+01      0.201847D+00      0.224585D+00
   zz         0.555308D+02      0.822882D+01      0.915580D+01

 ----------------------------------------------------------------------
 1\1\GINC-CCLEARZN\Freq\RwB97XD\6-311+G(2d,2p)\C4H1F9\RAPPE\11-Dec-2021
 \0\\# freq wb97xd/6-311+g(2d,2p) geom=connectivity\\Title Card Require
 d\\0,1\C,2.212924,0.178319,0.000309\F,2.43721,-0.063952,1.301461\F,2.4
 74058,-0.937783,-0.703512\C,0.749231,0.610417,-0.222907\F,0.499523,1.6
 35001,0.612012\F,0.658572,1.061986,-1.486695\C,-0.320662,-0.498574,-0.
 018101\F,-0.050541,-1.175844,1.106592\F,-0.267858,-1.340184,-1.057472\
 C,-1.781999,0.025328,0.091451\F,-2.610858,-1.010663,0.061597\F,-2.0668
 53,0.830695,-0.925287\F,-1.964863,0.681092,1.228369\H,2.867525,0.98392
 7,-0.338089\\Version=EM64M-G16RevA.03\State=1-A\HF=-1051.6558013\RMSD=
 4.471e-09\RMSF=1.853e-05\ZeroPoint=0.062691\Thermal=0.0743048\Dipole=0
 .4470137,0.4232027,-0.1493773\DipoleDeriv=0.8039963,-0.0899923,0.04452
 16,-0.3404539,0.9770372,0.1504478,0.1367156,0.1698864,1.2974092,-0.340
 2219,0.0326879,-0.1507464,0.0714006,-0.2674399,0.1456954,-0.1858522,0.
 0426918,-0.8448346,-0.3489222,0.1375741,0.0870874,0.1847685,-0.6665904
 ,-0.3230449,0.0694981,-0.2208771,-0.4323261,0.5790266,-0.0845696,-0.03
 34107,-0.0067152,0.9772695,0.0512106,-0.045256,0.0670249,1.2007062,-0.
 3370009,0.0729116,0.075602,0.0714974,-0.6373294,-0.3285823,0.0585618,-
 0.228356,-0.4585749,-0.3084771,-0.0066492,-0.0456933,-0.0051907,-0.350
 75,0.2613399,-0.0175383,0.1658278,-0.7747462,0.6156217,-0.1072848,0.07
 31442,0.0695719,0.9355998,0.030821,0.0563007,0.0222914,1.2010146,-0.33
 15761,0.0549181,-0.0973529,0.0579456,-0.4256098,0.317456,-0.0855021,0.
 221144,-0.6438747,-0.2979216,0.0095213,0.0320414,-0.0043084,-0.5142458
 ,-0.3422931,0.0122522,-0.2539191,-0.5846271,1.4986692,0.1947031,-0.000
 9574,0.0147955,1.5507794,-0.0028688,0.0070169,-0.0226197,1.5975977,-0.
 7126447,-0.3748379,0.0035166,-0.2964627,-0.6440714,-0.0081409,0.002697
 7,-0.0058448,-0.258652,-0.402834,0.1323957,-0.1565531,0.0963526,-0.499
 4195,0.3009359,-0.0810824,0.2770155,-0.6132919,-0.3767029,0.0910433,0.
 1473147,0.067206,-0.4169079,-0.2761617,0.079096,-0.2562654,-0.7117311,
 -0.0410123,-0.0624212,0.021486,0.0195927,-0.0183216,0.023185,-0.006908
 3,0.0220002,0.0259309\Polar=57.5896826,0.6599849,52.3430377,-0.0053926
 ,0.3606589,53.5011371\Quadrupole=2.4463229,-0.6758143,-1.7705086,2.712
 8389,-1.0982593,-0.4288271\PG=C01 [X(C4H1F9)]\NImag=0\\0.55641457,0.05
 237678,0.61802121,-0.01952796,-0.05584615,0.51926218,-0.08627158,0.010
 48084,-0.03602816,0.07308549,0.00712958,-0.09248310,0.05944682,-0.0136
 0903,0.08126930,-0.03835072,0.07609336,-0.26675055,0.05585521,-0.06012
 385,0.38638587,-0.08874575,0.03926656,0.01883121,0.01142157,-0.0040801
 5,0.00052583,0.07388277,0.03888087,-0.24965677,-0.07095993,-0.00260943
 ,0.01082381,-0.03260697,-0.05920795,0.29911304,0.02192749,-0.08623104,
 -0.10316759,0.00541328,-0.04391362,-0.06009201,-0.03154284,0.14583557,
 0.15883307,-0.19615342,-0.00329321,-0.00757924,0.00448021,0.00124543,-
 0.00440496,0.00481309,0.00324985,0.00351482,0.54122947,0.01409071,-0.0
 8095598,0.01709856,0.00829687,0.00065936,-0.00074511,0.03280365,-0.020
 35281,-0.00805012,-0.00729384,0.55545886,-0.01217401,0.01361285,-0.043
 33852,-0.03450545,0.01114066,-0.03129018,0.02071024,-0.02088955,-0.006
 57571,0.00289922,-0.01003997,0.51755011,0.00134408,0.03369290,0.022506
 78,-0.00060475,0.00087670,-0.00005820,-0.01079935,0.00762028,0.0016610
 3,-0.08904952,0.03330740,0.02104577,0.08309636,0.00196258,-0.02262874,
 -0.02440546,0.00023723,0.00115802,0.00288942,0.00803493,-0.00274850,-0
 .00073294,0.03582447,-0.22192560,-0.08625932,-0.04973476,0.26159643,0.
 00115963,-0.01189038,-0.01033412,-0.00042036,0.00183074,0.00635175,0.0
 0264733,-0.00060718,0.00130881,0.02672849,-0.10154331,-0.12536316,-0.0
 4000777,0.15727705,0.20110474,0.00435972,0.01522280,-0.03491112,-0.009
 14868,0.00369284,-0.00639412,-0.00088620,0.00085353,0.00069440,-0.0819
 0998,0.00522198,-0.01743715,0.01114147,-0.00180244,0.00883749,0.071236
 64,-0.00331972,-0.00229724,0.01969427,0.00523603,-0.00023157,0.0023975
 5,-0.00009637,0.00090367,-0.00039278,0.00941531,-0.11236762,0.07904055
 ,-0.00227961,0.01908669,-0.03288222,-0.00845148,0.10974932,0.00237219,
 0.00993937,-0.03382484,-0.00798245,0.00194865,-0.00170352,-0.00241855,
 0.00359179,0.00511445,-0.02402048,0.09499862,-0.23937324,0.00613910,-0
 .02048237,-0.07028705,0.02447013,-0.10297819,0.36481253,-0.02483101,-0
 .03064660,0.00659713,0.00265281,0.00187923,-0.00144312,0.00397862,0.00
 193937,-0.00018004,-0.15940490,-0.04015675,0.00945240,0.01233021,0.014
 82255,0.00172679,0.00946511,0.00462352,-0.00262084,0.53085199,-0.00297
 487,0.03044751,-0.00624748,0.00035302,-0.00408696,0.00530799,-0.001088
 90,-0.00807661,-0.00244331,-0.03894202,-0.11464052,0.01626295,-0.01410
 517,-0.02439541,-0.00877092,-0.00803589,-0.00684519,0.00596832,-0.0056
 7655,0.56773391,-0.00211079,-0.00293617,0.01768721,0.00217393,0.002618
 38,-0.00709658,-0.00118636,-0.00211531,-0.00377537,0.00787657,0.010285
 09,-0.04223850,-0.01132334,-0.03175942,-0.00785009,0.01909356,0.029867
 29,-0.03172349,0.00019053,-0.00105969,0.53009105,0.00170094,0.00423465
 ,-0.00374523,-0.00805482,-0.00474801,0.00163711,-0.00094371,-0.0004117
 1,0.00093040,0.01256144,-0.00919595,0.01430835,-0.00046041,-0.00146371
 ,-0.00069475,-0.00294984,-0.00507809,0.00435261,-0.08971229,0.02734044
 ,-0.03391051,0.08660945,0.00240127,-0.00315156,0.00163893,-0.00422806,
 0.00038109,-0.00252642,-0.00060256,0.00179107,-0.00011158,0.01355508,-
 0.01035875,0.03230965,-0.00110046,-0.00083787,-0.00247234,-0.00682765,
 -0.00713835,0.00562413,0.02698110,-0.15408930,0.09932645,-0.03626192,0
 .15878004,-0.00198239,0.00190201,-0.00620276,-0.00071907,-0.00230172,0
 .00502387,0.00100495,0.00001638,0.00090713,-0.00734737,0.01044400,-0.0
 2307290,0.00125757,0.00449575,0.00461162,0.00455116,0.00486890,-0.0017
 3585,-0.03830046,0.11331499,-0.20097894,0.05989488,-0.14422561,0.31129
 168,0.00136032,0.00406315,0.00191862,-0.00014227,-0.00015848,-0.000568
 14,-0.00575842,-0.00203459,-0.00152314,0.00980157,-0.01414088,-0.01609
 061,-0.00321938,-0.00792320,-0.00180157,0.00002331,-0.00117203,-0.0003
 0033,-0.08035138,0.00595749,0.00994645,0.01064986,-0.00462599,-0.01005
 911,0.07105676,0.00210926,-0.00579786,-0.00096031,-0.00027388,0.000565
 68,0.00051481,-0.00109941,0.00427977,0.00175946,0.00418681,-0.02154558
 ,-0.03382936,-0.00641178,-0.00972687,-0.00175451,-0.00088758,-0.000450
 33,0.00075186,0.01256855,-0.18759673,-0.10679721,-0.00372040,0.0260076
 6,-0.00089580,-0.00932222,0.20965350,0.00137063,-0.00376836,-0.0036381
 9,-0.00036813,-0.00025544,0.00190571,-0.00052216,0.00282766,0.00248583
 ,0.00050221,-0.00997133,-0.01700529,-0.00241389,-0.00254535,0.00109804
 ,0.00088250,0.00199001,0.00723003,0.01389678,-0.12113001,-0.17848669,-
 0.00730391,-0.01403033,-0.07680167,-0.01252618,0.16676442,0.27862985,-
 0.00254812,0.00391798,-0.00155363,0.00111532,-0.00044370,0.00125151,0.
 00108032,-0.00097359,-0.00040603,-0.02049812,-0.01086706,0.00596794,0.
 00128644,0.00348589,0.00111301,0.00121048,0.00293032,-0.00403497,-0.17
 463356,0.04869793,0.01033784,-0.00097475,-0.00044210,-0.00166131,0.003
 43244,-0.00711869,-0.00194507,0.59366179,-0.00100118,-0.00631000,0.002
 99093,0.00026074,-0.00006960,-0.00116152,0.00088124,-0.00086004,-0.000
 26369,-0.02954496,0.03092485,-0.00039939,0.00616037,-0.00596627,-0.003
 23508,0.00361868,-0.00457275,0.00375624,0.01477415,-0.06958334,0.00146
 444,0.02256186,-0.01405636,0.01241133,0.02149050,-0.01928372,-0.017576
 68,-0.01545296,0.55493544,0.00030255,0.00021843,0.00188856,-0.00044832
 ,0.00031181,-0.00191943,0.00016383,-0.00063383,-0.00072041,0.00536304,
 0.00147557,0.01792272,0.00262899,-0.00266681,-0.00566716,-0.00381870,0
 .00137568,-0.00612151,0.01260913,-0.00243721,-0.03736081,-0.03302662,0
 .02624429,-0.02440005,0.02554662,-0.02805734,-0.02307233,-0.00412293,0
 .00342276,0.55858038,0.00130251,-0.00522652,0.00175248,-0.00043410,0.0
 0057869,-0.00119315,-0.00023431,0.00106288,0.00036911,-0.00574008,0.01
 128816,-0.00206405,0.00069783,-0.00073706,-0.00046671,0.00018712,-0.00
 126895,0.00199058,-0.03732535,-0.04866748,0.00175327,0.00179225,0.0035
 0318,-0.00179681,0.00159429,0.00212761,0.00052860,-0.19300577,-0.09868
 523,-0.00048814,0.20568522,0.00074627,-0.00183951,0.00025004,-0.000244
 27,0.00037877,-0.00038917,-0.00022704,0.00086664,0.00029737,0.00054959
 ,-0.00005530,-0.00064768,-0.00081450,0.00105441,0.00059256,-0.00060100
 ,0.00051730,0.00007631,-0.00844071,-0.01354814,-0.00104357,0.00024624,
 0.00447621,-0.00215431,0.00328283,0.00521449,0.00178216,-0.10816280,-0
 .17820503,-0.00170414,0.16741880,0.28695992,-0.00003077,-0.00000634,-0
 .00036433,0.00005713,-0.00004793,0.00032329,-0.00001270,0.00014467,0.0
 0012851,-0.00010150,-0.00046314,-0.00167425,-0.00033907,0.00042508,0.0
 0068396,0.00029938,-0.00019049,0.00072008,0.00138096,0.00010826,0.0021
 0736,0.00097824,-0.00246909,0.00313385,0.00145441,0.00323427,0.0027850
 0,-0.00237757,-0.00275465,-0.07453301,0.00421831,0.00742839,0.08210857
 ,0.00083157,-0.00018000,-0.00011604,-0.00035331,-0.00007755,-0.0000518
 4,-0.00024974,0.00008006,0.00012628,0.00219362,0.00169221,0.00036520,-
 0.00074611,-0.00115358,-0.00068891,-0.00596639,-0.00129987,0.00172002,
 0.00437077,0.01803897,-0.02972809,-0.00997999,0.00660738,-0.00448023,-
 0.00088724,0.00145268,0.00317270,-0.11072757,0.04641522,-0.04703421,0.
 01518078,-0.02652059,0.02078031,0.09088433,0.00002208,0.00012162,0.000
 20184,0.00000129,0.00033920,-0.00036213,-0.00006168,0.00038543,-0.0000
 4482,0.00209945,-0.00612513,0.00269691,-0.00085996,0.00171871,-0.00028
 847,-0.00157614,0.00252244,-0.00264276,0.00235376,-0.00826434,0.023555
 73,0.00680012,-0.00280649,0.00233067,0.00010781,0.00085492,-0.00181712
 ,0.05096653,-0.15623040,0.09176342,-0.01479383,-0.05812520,0.04254730,
 -0.04072141,0.20428616,0.00001159,-0.00007033,-0.00073196,0.00007238,-
 0.00032191,0.00075321,-0.00005207,-0.00003498,0.00025896,-0.00077086,0
 .00294469,-0.00591762,-0.00077742,-0.00016813,0.00120596,0.00280702,-0
 .00177025,0.00386287,0.00060858,0.00987309,-0.01540744,-0.00436620,0.0
 0141390,0.00047405,-0.00169715,0.00227094,0.00591466,-0.05554108,0.095
 28996,-0.18283582,0.01253502,0.03486018,-0.00382791,0.05664337,-0.1587
 4723,0.27979201,0.00077075,-0.00049846,0.00061958,-0.00024415,0.000068
 93,-0.00039978,-0.00033203,0.00004392,-0.00004028,0.00130408,0.0013822
 7,-0.00201064,-0.00751746,-0.00352936,0.00199315,-0.00004762,-0.000437
 16,0.00065418,0.00610825,0.01366616,0.02774297,-0.00085073,0.00106161,
 -0.00055215,-0.00790166,0.00707467,0.00532016,-0.10056313,0.03077531,0
 .04221119,0.01142312,-0.02706178,-0.02631610,0.01560218,-0.00472018,-0
 .00921470,0.08246914,-0.00002021,0.00070629,-0.00101274,0.00006509,0.0
 0005508,0.00056405,-0.00014217,0.00055019,0.00030286,0.00244888,-0.006
 90330,-0.00239239,-0.00476226,0.00251772,0.00306210,-0.00002101,0.0006
 5868,0.00055406,0.00273300,-0.00427525,-0.02179250,0.00002291,0.000749
 76,0.00002842,0.00480839,-0.00270942,-0.00253280,0.03390506,-0.1314845
 4,-0.08938529,-0.01717125,-0.04787305,-0.04794142,-0.00439312,0.021353
 23,0.01446323,-0.01789985,0.16676794,-0.00026854,0.00064144,-0.0016825
 4,0.00019117,-0.00015399,0.00113530,-0.00001557,0.00049563,0.00046095,
 0.00052189,-0.00477587,-0.00453145,0.00000790,0.00322197,0.00301156,0.
 00073526,-0.00003275,0.00191507,-0.00316317,-0.00961752,-0.02401290,0.
 00069676,-0.00067500,0.00742551,0.00577218,-0.00287853,-0.00109049,0.0
 5278366,-0.09366724,-0.22179841,-0.01691479,-0.03928620,-0.01159373,-0
 .00069834,0.00081631,-0.08354856,-0.03995481,0.14602816,0.33423369,-0.
 16953458,-0.12341088,0.05123558,0.01249827,0.00764551,-0.00640563,0.01
 277314,0.01150653,-0.00094447,-0.02362746,-0.02642876,0.00953277,0.002
 50059,0.00197645,-0.00012581,0.00328486,0.00119810,-0.00032118,-0.0034
 9929,0.00543686,-0.00085604,0.00061260,-0.00002089,0.00019033,0.000341
 82,-0.00068563,-0.00059423,0.00116422,-0.00225376,0.00011356,-0.001123
 51,-0.00017104,0.00000900,-0.00015292,0.00038215,-0.00025847,-0.000220
 72,0.00042653,0.00030641,0.16498299,-0.11240340,-0.18417587,0.05811068
 ,-0.00396644,0.00124092,0.01014800,-0.01438015,-0.03701887,-0.00601135
 ,0.00649916,0.00818752,-0.00060590,-0.00158915,0.00109728,0.00068195,-
 0.00040667,0.00046495,-0.00110604,0.00224536,-0.00277960,0.00038650,-0
 .00032645,0.00025288,-0.00023500,-0.00033277,0.00053450,0.00026318,-0.
 00044282,0.00076176,0.00007265,0.00057100,0.00017848,-0.00001489,0.000
 05960,-0.00003014,-0.00000317,0.00007391,-0.00011333,-0.00011641,0.124
 39882,0.21139953,0.04730109,0.05834130,-0.06880255,0.01670883,0.029821
 40,-0.03302674,-0.00813315,-0.02506392,0.00483340,-0.00318183,-0.00165
 765,0.00490800,-0.00032745,0.00071054,0.00012513,0.00019020,-0.0009875
 8,0.00111446,-0.00075468,0.00087053,-0.00095481,0.00024888,-0.00004698
 ,0.00032443,-0.00007202,-0.00012269,0.00004554,0.00018863,-0.00027741,
 0.00003727,-0.00022373,-0.00006195,0.00000262,-0.00001020,-0.00000962,
 0.00000759,-0.00005274,0.00005424,0.00007601,-0.05188182,-0.06157021,0
 .09130965\\-0.00003116,0.00002542,-0.00003497,-0.00000240,-0.00001706,
 0.00002791,-0.00000051,-0.00001244,0.00000007,0.00001151,-0.00001493,-
 0.00003169,0.00001866,0.00001776,-0.00000205,0.00000624,-0.00000755,0.
 00003587,-0.00002313,0.00003595,0.00003174,0.00000271,0.00001484,-0.00
 000568,-0.00000404,-0.00002273,-0.00002390,0.00001351,-0.00004070,-0.0
 0000243,0.00000390,-0.00000014,-0.00000408,0.00001524,0.00000763,-0.00
 000763,-0.00000796,0.00000928,0.00001842,-0.00000257,0.00000465,-0.000
 00157\\\@


 You can't act like a skunk without someone's getting wind of it.
 -- Lorene Workman
 Job cpu time:       0 days  3 hours 44 minutes 29.5 seconds.
 Elapsed time:       0 days  0 hours 29 minutes 12.9 seconds.
 File lengths (MBytes):  RWF=    201 Int=      0 D2E=      0 Chk=     10 Scr=      1
 Normal termination of Gaussian 16 at Sat Dec 11 09:19:32 2021.
