 Entering Gaussian System, Link 0=/applications/g16/g16/g16
 Initial command:
 /applications/g16/g16/l1.exe "/scratch/g98/Gau-10345.inp" -scrdir="/scratch/g98/"
 Entering Link 1 = /applications/g16/g16/l1.exe PID=     10346.
  
 Copyright (c) 1988,1990,1992,1993,1995,1998,2003,2009,2016,
            Gaussian, Inc.  All Rights Reserved.
  
 This is part of the Gaussian(R) 16 program.  It is based on
 the Gaussian(R) 09 system (copyright 2009, Gaussian, Inc.),
 the Gaussian(R) 03 system (copyright 2003, Gaussian, Inc.),
 the Gaussian(R) 98 system (copyright 1998, Gaussian, Inc.),
 the Gaussian(R) 94 system (copyright 1995, Gaussian, Inc.),
 the Gaussian 92(TM) system (copyright 1992, Gaussian, Inc.),
 the Gaussian 90(TM) system (copyright 1990, Gaussian, Inc.),
 the Gaussian 88(TM) system (copyright 1988, Gaussian, Inc.),
 the Gaussian 86(TM) system (copyright 1986, Carnegie Mellon
 University), and the Gaussian 82(TM) system (copyright 1983,
 Carnegie Mellon University). Gaussian is a federally registered
 trademark of Gaussian, Inc.
  
 This software contains proprietary and confidential information,
 including trade secrets, belonging to Gaussian, Inc.
  
 This software is provided under written license and may be
 used, copied, transmitted, or stored only in accord with that
 written license.
  
 The following legend is applicable only to US Government
 contracts under FAR:
  
                    RESTRICTED RIGHTS LEGEND
  
 Use, reproduction and disclosure by the US Government is
 subject to restrictions as set forth in subparagraphs (a)
 and (c) of the Commercial Computer Software - Restricted
 Rights clause in FAR 52.227-19.
  
 Gaussian, Inc.
 340 Quinnipiac St., Bldg. 40, Wallingford CT 06492
  
  
 ---------------------------------------------------------------
 Warning -- This program may not be used in any manner that
 competes with the business of Gaussian, Inc. or will provide
 assistance to any competitor of Gaussian, Inc.  The licensee
 of this program is prohibited from giving any competitor of
 Gaussian, Inc. access to this program.  By using this program,
 the user acknowledges that Gaussian, Inc. is engaged in the
 business of creating and licensing software in the field of
 computational chemistry and represents and warrants to the
 licensee that it is not a competitor of Gaussian, Inc. and that
 it will not use this program in any manner prohibited above.
 ---------------------------------------------------------------
  

 Cite this work as:
 Gaussian 16, Revision A.03,
 M. J. Frisch, G. W. Trucks, H. B. Schlegel, G. E. Scuseria, 
 M. A. Robb, J. R. Cheeseman, G. Scalmani, V. Barone, 
 G. A. Petersson, H. Nakatsuji, X. Li, M. Caricato, A. V. Marenich, 
 J. Bloino, B. G. Janesko, R. Gomperts, B. Mennucci, H. P. Hratchian, 
 J. V. Ortiz, A. F. Izmaylov, J. L. Sonnenberg, D. Williams-Young, 
 F. Ding, F. Lipparini, F. Egidi, J. Goings, B. Peng, A. Petrone, 
 T. Henderson, D. Ranasinghe, V. G. Zakrzewski, J. Gao, N. Rega, 
 G. Zheng, W. Liang, M. Hada, M. Ehara, K. Toyota, R. Fukuda, 
 J. Hasegawa, M. Ishida, T. Nakajima, Y. Honda, O. Kitao, H. Nakai, 
 T. Vreven, K. Throssell, J. A. Montgomery, Jr., J. E. Peralta, 
 F. Ogliaro, M. J. Bearpark, J. J. Heyd, E. N. Brothers, K. N. Kudin, 
 V. N. Staroverov, T. A. Keith, R. Kobayashi, J. Normand, 
 K. Raghavachari, A. P. Rendell, J. C. Burant, S. S. Iyengar, 
 J. Tomasi, M. Cossi, J. M. Millam, M. Klene, C. Adamo, R. Cammi, 
 J. W. Ochterski, R. L. Martin, K. Morokuma, O. Farkas, 
 J. B. Foresman, and D. J. Fox, Gaussian, Inc., Wallingford CT, 2016.
 
 ******************************************
 Gaussian 16:  EM64M-G16RevA.03 25-Dec-2016
                 5-Feb-2026 
 ******************************************
 %mem=48GB
 %nprocshared=24
 Will use up to   24 processors via shared memory.
 %chk=21_propene.chk
 --------------------------------------------------
 # opt freq wb97xd/6-311+g(2d,2p) geom=connectivity
 --------------------------------------------------
 1/18=20,19=15,26=3,38=1,57=2/1,3;
 2/9=110,12=2,17=6,18=5,40=1/2;
 3/5=4,6=6,7=212,11=2,25=1,30=1,71=1,74=-58/1,2,3;
 4//1;
 5/5=2,38=5/2;
 6/7=2,8=2,9=2,10=2,28=1/1;
 7//1,2,3,16;
 1/18=20,19=15,26=3/3(2);
 2/9=110/2;
 99//99;
 2/9=110/2;
 3/5=4,6=6,7=212,11=2,25=1,30=1,71=1,74=-58/1,2,3;
 4/5=5,16=3,69=1/1;
 5/5=2,38=5/2;
 7//1,2,3,16;
 1/18=20,19=15,26=3/3(-5);
 2/9=110/2;
 6/7=2,8=2,9=2,10=2,19=2,28=1/1;
 99/9=1/99;
 -------------------
 Title Card Required
 -------------------
 Symbolic Z-matrix:
 Charge =  0 Multiplicity = 1
 C                     2.84264   0.34377   0.38202 
 F                     2.85218   0.18225   1.7184 
 F                     2.79741   1.66312   0.11098 
 C                     4.09937  -0.24973  -0.20888 
 F                     4.26626  -1.52026   0.16539 
 C                     4.94947   0.37424  -0.99225 
 H                     4.77102   1.39838  -1.27497 
 H                     5.82943  -0.13554  -1.35398 
 F                     1.718    -0.22039  -0.10726 
 

 GradGradGradGradGradGradGradGradGradGradGradGradGradGradGradGradGradGrad
 Berny optimization.
 Initialization pass.
                           ----------------------------
                           !    Initial Parameters    !
                           ! (Angstroms and Degrees)  !
 --------------------------                            --------------------------
 ! Name  Definition              Value          Derivative Info.                !
 --------------------------------------------------------------------------------
 ! R1    R(1,2)                  1.3461         estimate D2E/DX2                !
 ! R2    R(1,3)                  1.3477         estimate D2E/DX2                !
 ! R3    R(1,4)                  1.5102         estimate D2E/DX2                !
 ! R4    R(1,9)                  1.35           estimate D2E/DX2                !
 ! R5    R(4,5)                  1.335          estimate D2E/DX2                !
 ! R6    R(4,6)                  1.3137         estimate D2E/DX2                !
 ! R7    R(6,7)                  1.0773         estimate D2E/DX2                !
 ! R8    R(6,8)                  1.0794         estimate D2E/DX2                !
 ! A1    A(2,1,3)              108.5036         estimate D2E/DX2                !
 ! A2    A(2,1,4)              109.5957         estimate D2E/DX2                !
 ! A3    A(2,1,9)              108.3952         estimate D2E/DX2                !
 ! A4    A(3,1,4)              109.5098         estimate D2E/DX2                !
 ! A5    A(3,1,9)              107.9544         estimate D2E/DX2                !
 ! A6    A(4,1,9)              112.7806         estimate D2E/DX2                !
 ! A7    A(1,4,5)              111.6139         estimate D2E/DX2                !
 ! A8    A(1,4,6)              125.8152         estimate D2E/DX2                !
 ! A9    A(5,4,6)              122.5705         estimate D2E/DX2                !
 ! A10   A(4,6,7)              120.0553         estimate D2E/DX2                !
 ! A11   A(4,6,8)              120.2046         estimate D2E/DX2                !
 ! A12   A(7,6,8)              119.7401         estimate D2E/DX2                !
 ! D1    D(2,1,4,5)             53.8278         estimate D2E/DX2                !
 ! D2    D(2,1,4,6)           -125.9192         estimate D2E/DX2                !
 ! D3    D(3,1,4,5)            172.744          estimate D2E/DX2                !
 ! D4    D(3,1,4,6)             -7.003          estimate D2E/DX2                !
 ! D5    D(9,1,4,5)            -67.0238         estimate D2E/DX2                !
 ! D6    D(9,1,4,6)            113.2291         estimate D2E/DX2                !
 ! D7    D(1,4,6,7)             -0.7365         estimate D2E/DX2                !
 ! D8    D(1,4,6,8)            179.175          estimate D2E/DX2                !
 ! D9    D(5,4,6,7)            179.5425         estimate D2E/DX2                !
 ! D10   D(5,4,6,8)             -0.5459         estimate D2E/DX2                !
 --------------------------------------------------------------------------------
 Trust Radius=3.00D-01 FncErr=1.00D-07 GrdErr=1.00D-06 EigMax=2.50D+02 EigMin=1.00D-04
 Number of steps in this run=     40 maximum allowed number of steps=    100.
 GradGradGradGradGradGradGradGradGradGradGradGradGradGradGradGradGradGrad

                          Input orientation:                          
 ---------------------------------------------------------------------
 Center     Atomic      Atomic             Coordinates (Angstroms)
 Number     Number       Type             X           Y           Z
 ---------------------------------------------------------------------
      1          6           0        2.842643    0.343767    0.382023
      2          9           0        2.852183    0.182251    1.718395
      3          9           0        2.797409    1.663121    0.110980
      4          6           0        4.099370   -0.249727   -0.208875
      5          9           0        4.266259   -1.520262    0.165389
      6          6           0        4.949471    0.374235   -0.992254
      7          1           0        4.771021    1.398376   -1.274972
      8          1           0        5.829429   -0.135543   -1.353981
      9          9           0        1.717999   -0.220390   -0.107264
 ---------------------------------------------------------------------
                    Distance matrix (angstroms):
                    1          2          3          4          5
     1  C    0.000000
     2  F    1.346131   0.000000
     3  F    1.347667   2.186266   0.000000
     4  C    1.510218   2.335905   2.335893   0.000000
     5  F    2.355465   2.703699   3.506338   1.334985   0.000000
     6  C    2.515609   3.432651   2.740387   1.313653   2.322937
     7  H    2.752540   3.757811   2.426128   2.074589   3.293611
     8  H    3.487741   4.290044   3.817650   2.077838   2.582524
     9  F    1.350000   2.186670   2.181828   2.383719   2.873610
                    6          7          8          9
     6  C    0.000000
     7  H    1.077329   0.000000
     8  H    1.079373   1.865309   0.000000
     9  F    3.402822   3.647587   4.297134   0.000000
 Stoichiometry    C3H2F4
 Framework group  C1[X(C3H2F4)]
 Deg. of freedom    21
 Full point group                 C1      NOp   1
 Largest Abelian subgroup         C1      NOp   1
 Largest concise Abelian subgroup C1      NOp   1
                         Standard orientation:                         
 ---------------------------------------------------------------------
 Center     Atomic      Atomic             Coordinates (Angstroms)
 Number     Number       Type             X           Y           Z
 ---------------------------------------------------------------------
      1          6           0        0.591289    0.032913    0.002291
      2          9           0        1.041648   -0.712129   -1.024430
      3          9           0        1.028505    1.296996   -0.162456
      4          6           0       -0.918819    0.019038    0.014035
      5          9           0       -1.399116   -1.226545    0.018658
      6          6           0       -1.697305    1.077170    0.014624
      7          1           0       -1.265964    2.064373    0.018212
      8          1           0       -2.770482    0.961768    0.010079
      9          9           0        1.127347   -0.447307    1.144452
 ---------------------------------------------------------------------
 Rotational constants (GHZ):           3.6739309           2.4520158           1.9975767
 Standard basis: 6-311+G(2d,2p) (5D, 7F)
 There are   221 symmetry adapted cartesian basis functions of A   symmetry.
 There are   207 symmetry adapted basis functions of A   symmetry.
   207 basis functions,   316 primitive gaussians,   221 cartesian basis functions
    28 alpha electrons       28 beta electrons
       nuclear repulsion energy       332.1649843406 Hartrees.
 NAtoms=    9 NActive=    9 NUniq=    9 SFac= 1.00D+00 NAtFMM=   60 NAOKFM=F Big=F
 Integral buffers will be    131072 words long.
 Raffenetti 2 integral format.
 Two-electron integral symmetry is turned on.
 Nuclear repulsion after empirical dispersion term =      332.1623023520 Hartrees.
 One-electron integrals computed using PRISM.
 NBasis=   207 RedAO= T EigKep=  5.05D-05  NBF=   207
 NBsUse=   207 1.00D-06 EigRej= -1.00D+00 NBFU=   207
 ExpMin= 4.38D-02 ExpMax= 1.14D+04 ExpMxC= 1.72D+03 IAcc=3 IRadAn=         5 AccDes= 0.00D+00
 Harris functional with IExCor= 4639 and IRadAn=       5 diagonalized for initial guess.
 HarFok:  IExCor= 4639 AccDes= 0.00D+00 IRadAn=         5 IDoV= 1 UseB2=F ITyADJ=14
 ICtDFT=  3500011 ScaDFX=  1.000000  1.000000  1.000000  1.000000
 FoFCou: FMM=F IPFlag=           0 FMFlag=      100000 FMFlg1=           0
         NFxFlg=           0 DoJE=T BraDBF=F KetDBF=T FulRan=T
         wScrn=  0.000000 ICntrl=       500 IOpCl=  0 I1Cent=   200000004 NGrid=           0
         NMat0=    1 NMatS0=      1 NMatT0=    0 NMatD0=    1 NMtDS0=    0 NMtDT0=    0
 Petite list used in FoFCou.
 Keep R1 ints in memory in canonical form, NReq=488665991.
 Requested convergence on RMS density matrix=1.00D-08 within 128 cycles.
 Requested convergence on MAX density matrix=1.00D-06.
 Requested convergence on             energy=1.00D-06.
 No special actions if energy rises.
 SCF Done:  E(RwB97XD) =  -514.889592599     A.U. after   13 cycles
            NFock= 13  Conv=0.32D-08     -V/T= 2.0029

 **********************************************************************

            Population analysis using the SCF density.

 **********************************************************************

 Orbital symmetries:
       Occupied  (A) (A) (A) (A) (A) (A) (A) (A) (A) (A) (A) (A)
                 (A) (A) (A) (A) (A) (A) (A) (A) (A) (A) (A) (A)
                 (A) (A) (A) (A)
       Virtual   (A) (A) (A) (A) (A) (A) (A) (A) (A) (A) (A) (A)
                 (A) (A) (A) (A) (A) (A) (A) (A) (A) (A) (A) (A)
                 (A) (A) (A) (A) (A) (A) (A) (A) (A) (A) (A) (A)
                 (A) (A) (A) (A) (A) (A) (A) (A) (A) (A) (A) (A)
                 (A) (A) (A) (A) (A) (A) (A) (A) (A) (A) (A) (A)
                 (A) (A) (A) (A) (A) (A) (A) (A) (A) (A) (A) (A)
                 (A) (A) (A) (A) (A) (A) (A) (A) (A) (A) (A) (A)
                 (A) (A) (A) (A) (A) (A) (A) (A) (A) (A) (A) (A)
                 (A) (A) (A) (A) (A) (A) (A) (A) (A) (A) (A) (A)
                 (A) (A) (A) (A) (A) (A) (A) (A) (A) (A) (A) (A)
                 (A) (A) (A) (A) (A) (A) (A) (A) (A) (A) (A) (A)
                 (A) (A) (A) (A) (A) (A) (A) (A) (A) (A) (A) (A)
                 (A) (A) (A) (A) (A) (A) (A) (A) (A) (A) (A) (A)
                 (A) (A) (A) (A) (A) (A) (A) (A) (A) (A) (A) (A)
                 (A) (A) (A) (A) (A) (A) (A) (A) (A) (A) (A)
 The electronic state is 1-A.
 Alpha  occ. eigenvalues --  -24.86215 -24.85945 -24.85887 -24.85159 -10.56677
 Alpha  occ. eigenvalues --  -10.41173 -10.31817  -1.43992  -1.36926  -1.35193
 Alpha  occ. eigenvalues --   -1.35000  -0.93430  -0.83971  -0.75202  -0.71105
 Alpha  occ. eigenvalues --   -0.70814  -0.69142  -0.61001  -0.59675  -0.58202
 Alpha  occ. eigenvalues --   -0.57552  -0.57012  -0.55013  -0.53985  -0.52153
 Alpha  occ. eigenvalues --   -0.51873  -0.48126  -0.38722
 Alpha virt. eigenvalues --    0.03309   0.06392   0.08648   0.09618   0.10956
 Alpha virt. eigenvalues --    0.11067   0.12237   0.14737   0.15421   0.15841
 Alpha virt. eigenvalues --    0.16293   0.17672   0.18906   0.20817   0.23346
 Alpha virt. eigenvalues --    0.24999   0.25481   0.27075   0.29606   0.31874
 Alpha virt. eigenvalues --    0.32790   0.34347   0.35961   0.36743   0.37705
 Alpha virt. eigenvalues --    0.38525   0.40559   0.40785   0.41374   0.42872
 Alpha virt. eigenvalues --    0.43338   0.44096   0.45233   0.48550   0.50208
 Alpha virt. eigenvalues --    0.51349   0.53712   0.55149   0.58798   0.59970
 Alpha virt. eigenvalues --    0.62606   0.64594   0.66204   0.67105   0.69687
 Alpha virt. eigenvalues --    0.72930   0.73857   0.75644   0.79184   0.80553
 Alpha virt. eigenvalues --    0.88229   0.91787   0.93918   0.95453   0.96770
 Alpha virt. eigenvalues --    1.05205   1.05725   1.09558   1.12927   1.17994
 Alpha virt. eigenvalues --    1.21820   1.24135   1.31308   1.33398   1.36530
 Alpha virt. eigenvalues --    1.37055   1.39096   1.39426   1.41741   1.44952
 Alpha virt. eigenvalues --    1.45376   1.46003   1.47668   1.48448   1.50205
 Alpha virt. eigenvalues --    1.50731   1.53169   1.55270   1.57441   1.58988
 Alpha virt. eigenvalues --    1.61999   1.62454   1.74579   1.84049   1.95984
 Alpha virt. eigenvalues --    1.98648   2.01172   2.04266   2.06562   2.07021
 Alpha virt. eigenvalues --    2.11141   2.16600   2.20914   2.21649   2.23621
 Alpha virt. eigenvalues --    2.25508   2.31606   2.33463   2.49814   2.58824
 Alpha virt. eigenvalues --    2.61077   2.66627   2.68289   2.70243   2.72114
 Alpha virt. eigenvalues --    2.73567   2.88950   2.93073   2.95455   3.02819
 Alpha virt. eigenvalues --    3.15533   3.22658   3.25285   3.26096   3.26898
 Alpha virt. eigenvalues --    3.29595   3.34433   3.41314   3.50917   3.52941
 Alpha virt. eigenvalues --    3.53668   3.55375   3.58457   3.59138   3.64506
 Alpha virt. eigenvalues --    3.71560   3.73128   3.79189   3.86742   3.99443
 Alpha virt. eigenvalues --    4.02022   4.05479   4.15874   4.23182   4.28388
 Alpha virt. eigenvalues --    4.32083   4.41593   4.61303   5.12298   5.12657
 Alpha virt. eigenvalues --    6.39569   6.41053   6.44386   6.45935   6.47360
 Alpha virt. eigenvalues --    6.48674   6.49082   6.53713   6.55868   6.80378
 Alpha virt. eigenvalues --    6.83270   6.92301   9.08983   9.10468   9.12032
 Alpha virt. eigenvalues --    9.15338   9.19981   9.21466   9.22819   9.24200
 Alpha virt. eigenvalues --    9.25461   9.30152   9.35624   9.38742   9.49266
 Alpha virt. eigenvalues --    9.57170   9.68163   9.70871   9.76738   9.80323
 Alpha virt. eigenvalues --    9.86635   9.91944  23.87548  24.02802  24.30921
 Alpha virt. eigenvalues --   66.93672  66.94230  66.95380  67.02051
          Condensed to atoms (all electrons):
               1          2          3          4          5          6
     1  C    4.465149   0.237791   0.200271   0.445885  -0.157143  -0.253024
     2  F    0.237791   9.099035   0.007357  -0.089059   0.022778   0.003726
     3  F    0.200271   0.007357   9.143222  -0.052124   0.006949   0.010464
     4  C    0.445885  -0.089059  -0.052124   5.282014   0.261449  -0.031785
     5  F   -0.157143   0.022778   0.006949   0.261449   9.263215  -0.117982
     6  C   -0.253024   0.003726   0.010464  -0.031785  -0.117982   5.795976
     7  H    0.002208   0.000114   0.002022   0.007318   0.007385   0.364005
     8  H    0.011268  -0.000389   0.000026  -0.022437  -0.005063   0.408277
     9  F    0.243115  -0.009071   0.002580  -0.067912   0.016070  -0.009758
               7          8          9
     1  C    0.002208   0.011268   0.243115
     2  F    0.000114  -0.000389  -0.009071
     3  F    0.002022   0.000026   0.002580
     4  C    0.007318  -0.022437  -0.067912
     5  F    0.007385  -0.005063   0.016070
     6  C    0.364005   0.408277  -0.009758
     7  H    0.508582  -0.017535   0.000038
     8  H   -0.017535   0.494280  -0.000371
     9  F    0.000038  -0.000371   9.093643
 Mulliken charges:
               1
     1  C    0.804481
     2  F   -0.272281
     3  F   -0.320768
     4  C    0.266651
     5  F   -0.297658
     6  C   -0.169897
     7  H    0.125863
     8  H    0.131944
     9  F   -0.268334
 Sum of Mulliken charges =  -0.00000
 Mulliken charges with hydrogens summed into heavy atoms:
               1
     1  C    0.804481
     2  F   -0.272281
     3  F   -0.320768
     4  C    0.266651
     5  F   -0.297658
     6  C    0.087909
     9  F   -0.268334
 Electronic spatial extent (au):  <R**2>=            621.4894
 Charge=             -0.0000 electrons
 Dipole moment (field-independent basis, Debye):
    X=             -1.6467    Y=              1.5235    Z=              0.0284  Tot=              2.2435
 Quadrupole moment (field-independent basis, Debye-Ang):
   XX=            -35.6155   YY=            -37.2213   ZZ=            -39.0232
   XY=             -2.8127   XZ=             -0.0341   YZ=              0.0332
 Traceless Quadrupole moment (field-independent basis, Debye-Ang):
   XX=              1.6712   YY=              0.0654   ZZ=             -1.7366
   XY=             -2.8127   XZ=             -0.0341   YZ=              0.0332
 Octapole moment (field-independent basis, Debye-Ang**2):
  XXX=              2.9646  YYY=             -2.9798  ZZZ=             -0.5578  XYY=              1.9416
  XXY=              2.5498  XXZ=             -0.2184  XZZ=              4.4864  YZZ=             -3.1294
  YYZ=              0.3115  XYZ=             -0.0216
 Hexadecapole moment (field-independent basis, Debye-Ang**3):
 XXXX=           -322.2718 YYYY=           -190.9847 ZZZZ=           -102.1325 XXXY=              0.8746
 XXXZ=              0.0668 YYYX=              5.6832 YYYZ=              0.0773 ZZZX=              0.1460
 ZZZY=             -0.1391 XXYY=            -92.2717 XXZZ=            -79.9659 YYZZ=            -51.7386
 XXYZ=              0.0529 YYXZ=              0.2640 ZZXY=              6.6049
 N-N= 3.321623023520D+02 E-N=-1.885589353741D+03  KE= 5.133991184020D+02
 Calling FoFJK, ICntrl=      2127 FMM=F ISym2X=0 I1Cent= 0 IOpClX= 0 NMat=1 NMatS=1 NMatT=0.
 ***** Axes restored to original set *****
 -------------------------------------------------------------------
 Center     Atomic                   Forces (Hartrees/Bohr)
 Number     Number              X              Y              Z
 -------------------------------------------------------------------
      1        6           0.000455725    0.005101509    0.000779720
      2        9          -0.005125839    0.002123830   -0.010483896
      3        9          -0.004078131   -0.010575127    0.004105153
      4        6          -0.002932106   -0.002434248   -0.001357048
      5        9          -0.000960714    0.000674145   -0.000092610
      6        6           0.000280162    0.000127772   -0.000104037
      7        1           0.000309515   -0.000009797    0.000324163
      8        1          -0.000197643   -0.000130699   -0.000231840
      9        9           0.012249031    0.005122616    0.007060394
 -------------------------------------------------------------------
 Cartesian Forces:  Max     0.012249031 RMS     0.004542600

 GradGradGradGradGradGradGradGradGradGradGradGradGradGradGradGradGradGrad
 Berny optimization.
 FormGI is forming the generalized inverse of G from B-inverse, IUseBI=4.
 Internal  Forces:  Max     0.014904022 RMS     0.004727356
 Search for a local minimum.
 Step number   1 out of a maximum of   40
 All quantities printed in internal units (Hartrees-Bohrs-Radians)
 Mixed Optimization -- RFO/linear search
 Second derivative matrix not updated -- first step.
 ITU=  0
     Eigenvalues ---    0.00631   0.01796   0.03231   0.03231   0.10789
     Eigenvalues ---    0.11389   0.16000   0.16000   0.25000   0.25000
     Eigenvalues ---    0.25000   0.25000   0.25000   0.31329   0.36070
     Eigenvalues ---    0.36319   0.55021   0.55521   0.55853   0.58344
     Eigenvalues ---    0.63540
 RFO step:  Lambda=-1.89585048D-03 EMin= 6.30783328D-03
 Linear search not attempted -- first point.
 Iteration  1 RMS(Cart)=  0.03436800 RMS(Int)=  0.00073205
 Iteration  2 RMS(Cart)=  0.00068231 RMS(Int)=  0.00025951
 Iteration  3 RMS(Cart)=  0.00000032 RMS(Int)=  0.00025951
 Variable       Old X    -DE/DX   Delta X   Delta X   Delta X     New X
                                 (Linear)    (Quad)   (Total)
    R1        2.54382  -0.01070   0.00000  -0.01909  -0.01909   2.52473
    R2        2.54672  -0.01104   0.00000  -0.01982  -0.01982   2.52690
    R3        2.85390  -0.00164   0.00000  -0.00522  -0.00522   2.84868
    R4        2.55113  -0.01490   0.00000  -0.02699  -0.02699   2.52414
    R5        2.52276  -0.00079   0.00000  -0.00135  -0.00135   2.52141
    R6        2.48244   0.00025   0.00000   0.00040   0.00040   2.48284
    R7        2.03586  -0.00015   0.00000  -0.00040  -0.00040   2.03546
    R8        2.03972  -0.00002   0.00000  -0.00006  -0.00006   2.03966
    A1        1.89375  -0.00485   0.00000  -0.00866  -0.00960   1.88414
    A2        1.91281   0.00723   0.00000   0.02826   0.02781   1.94061
    A3        1.89185  -0.00502   0.00000  -0.03015  -0.03004   1.86181
    A4        1.91131   0.00827   0.00000   0.03824   0.03780   1.94911
    A5        1.88416  -0.00290   0.00000  -0.01114  -0.01101   1.87315
    A6        1.96839  -0.00314   0.00000  -0.01764  -0.01752   1.95088
    A7        1.94803  -0.00161   0.00000  -0.00640  -0.00641   1.94162
    A8        2.19589   0.00123   0.00000   0.00489   0.00488   2.20077
    A9        2.13926   0.00039   0.00000   0.00154   0.00153   2.14079
   A10        2.09536   0.00015   0.00000   0.00092   0.00092   2.09628
   A11        2.09797  -0.00012   0.00000  -0.00076  -0.00076   2.09720
   A12        2.08986  -0.00003   0.00000  -0.00017  -0.00017   2.08969
    D1        0.93947  -0.00182   0.00000   0.02752   0.02710   0.96657
    D2       -2.19770  -0.00202   0.00000   0.01746   0.01705  -2.18065
    D3        3.01495   0.00159   0.00000   0.05698   0.05739   3.07234
    D4       -0.12223   0.00138   0.00000   0.04692   0.04735  -0.07488
    D5       -1.16979   0.00158   0.00000   0.05779   0.05777  -1.11202
    D6        1.97622   0.00138   0.00000   0.04773   0.04773   2.02395
    D7       -0.01285   0.00047   0.00000   0.01624   0.01625   0.00339
    D8        3.12719   0.00040   0.00000   0.01398   0.01399   3.14119
    D9        3.13361   0.00026   0.00000   0.00516   0.00515   3.13875
   D10       -0.00953   0.00018   0.00000   0.00290   0.00289  -0.00663
         Item               Value     Threshold  Converged?
 Maximum Force            0.014904     0.000450     NO 
 RMS     Force            0.004727     0.000300     NO 
 Maximum Displacement     0.093423     0.001800     NO 
 RMS     Displacement     0.034270     0.001200     NO 
 Predicted change in Energy=-9.707876D-04
 GradGradGradGradGradGradGradGradGradGradGradGradGradGradGradGradGradGrad

                          Input orientation:                          
 ---------------------------------------------------------------------
 Center     Atomic      Atomic             Coordinates (Angstroms)
 Number     Number       Type             X           Y           Z
 ---------------------------------------------------------------------
      1          6           0        2.853454    0.351655    0.384155
      2          9           0        2.840059    0.211202    1.712713
      3          9           0        2.747972    1.655414    0.106430
      4          6           0        4.101285   -0.245938   -0.214365
      5          9           0        4.242140   -1.524961    0.138544
      6          6           0        4.960325    0.373811   -0.991668
      7          1           0        4.804884    1.407158   -1.252854
      8          1           0        5.826238   -0.149050   -1.368216
      9          9           0        1.749428   -0.243462   -0.075297
 ---------------------------------------------------------------------
                    Distance matrix (angstroms):
                    1          2          3          4          5
     1  C    0.000000
     2  F    1.336029   0.000000
     3  F    1.337178   2.162030   0.000000
     4  C    1.507456   2.348041   2.355739   0.000000
     5  F    2.347437   2.730952   3.514023   1.334273   0.000000
     6  C    2.516403   3.440297   2.782595   1.313864   2.323468
     7  H    2.757166   3.753057   2.477937   2.075147   3.293932
     8  H    3.486968   4.305713   3.860880   2.077551   2.583180
     9  F    1.335715   2.143169   2.153102   2.355966   2.810975
                    6          7          8          9
     6  C    0.000000
     7  H    1.077118   0.000000
     8  H    1.079341   1.865008   0.000000
     9  F    3.395677   3.667015   4.277959   0.000000
 Stoichiometry    C3H2F4
 Framework group  C1[X(C3H2F4)]
 Deg. of freedom    21
 Full point group                 C1      NOp   1
 Largest Abelian subgroup         C1      NOp   1
 Largest concise Abelian subgroup C1      NOp   1
                         Standard orientation:                         
 ---------------------------------------------------------------------
 Center     Atomic      Atomic             Coordinates (Angstroms)
 Number     Number       Type             X           Y           Z
 ---------------------------------------------------------------------
      1          6           0        0.581787    0.041633   -0.001638
      2          9           0        1.071589   -0.666130   -1.023468
      3          9           0        1.062267    1.286056   -0.094353
      4          6           0       -0.925582    0.025435   -0.000560
      5          9           0       -1.395701   -1.223255    0.006188
      6          6           0       -1.710970    1.078718    0.000502
      7          1           0       -1.286975    2.068871   -0.002497
      8          1           0       -2.783268    0.955609    0.000839
      9          9           0        1.083938   -0.496582    1.112948
 ---------------------------------------------------------------------
 Rotational constants (GHZ):           3.7467825           2.4580980           1.9953750
 Standard basis: 6-311+G(2d,2p) (5D, 7F)
 There are   221 symmetry adapted cartesian basis functions of A   symmetry.
 There are   207 symmetry adapted basis functions of A   symmetry.
   207 basis functions,   316 primitive gaussians,   221 cartesian basis functions
    28 alpha electrons       28 beta electrons
       nuclear repulsion energy       333.5685525844 Hartrees.
 NAtoms=    9 NActive=    9 NUniq=    9 SFac= 1.00D+00 NAtFMM=   60 NAOKFM=F Big=F
 Integral buffers will be    131072 words long.
 Raffenetti 2 integral format.
 Two-electron integral symmetry is turned on.
 Nuclear repulsion after empirical dispersion term =      333.5658744824 Hartrees.
 One-electron integrals computed using PRISM.
 NBasis=   207 RedAO= T EigKep=  5.03D-05  NBF=   207
 NBsUse=   207 1.00D-06 EigRej= -1.00D+00 NBFU=   207
 Initial guess from the checkpoint file:  "21_propene.chk"
 B after Tr=    -0.000000   -0.000000   -0.000000
         Rot=    0.999882   -0.013396    0.007316    0.001597 Ang=  -1.76 deg.
 ExpMin= 4.38D-02 ExpMax= 1.14D+04 ExpMxC= 1.72D+03 IAcc=2 IRadAn=         4 AccDes= 0.00D+00
 Harris functional with IExCor= 4639 and IRadAn=       4 diagonalized for initial guess.
 HarFok:  IExCor= 4639 AccDes= 0.00D+00 IRadAn=         4 IDoV= 1 UseB2=F ITyADJ=14
 ICtDFT=  3500011 ScaDFX=  1.000000  1.000000  1.000000  1.000000
 FoFCou: FMM=F IPFlag=           0 FMFlag=      100000 FMFlg1=           0
         NFxFlg=           0 DoJE=T BraDBF=F KetDBF=T FulRan=T
         wScrn=  0.000000 ICntrl=       500 IOpCl=  0 I1Cent=   200000004 NGrid=           0
         NMat0=    1 NMatS0=      1 NMatT0=    0 NMatD0=    1 NMtDS0=    0 NMtDT0=    0
 Petite list used in FoFCou.
 Keep R1 ints in memory in canonical form, NReq=488665991.
 Requested convergence on RMS density matrix=1.00D-08 within 128 cycles.
 Requested convergence on MAX density matrix=1.00D-06.
 Requested convergence on             energy=1.00D-06.
 No special actions if energy rises.
 SCF Done:  E(RwB97XD) =  -514.890393242     A.U. after   11 cycles
            NFock= 11  Conv=0.53D-08     -V/T= 2.0027
 Calling FoFJK, ICntrl=      2127 FMM=F ISym2X=0 I1Cent= 0 IOpClX= 0 NMat=1 NMatS=1 NMatT=0.
 ***** Axes restored to original set *****
 -------------------------------------------------------------------
 Center     Atomic                   Forces (Hartrees/Bohr)
 Number     Number              X              Y              Z
 -------------------------------------------------------------------
      1        6          -0.004854402    0.002949573    0.002547124
      2        9           0.002601088    0.000391402    0.000666014
      3        9           0.002881736   -0.001917083   -0.000395608
      4        6          -0.000230922    0.000618373   -0.000607177
      5        9          -0.000629057    0.000374394    0.000067015
      6        6           0.000085297   -0.000189094    0.000525644
      7        1          -0.000111339    0.000283406    0.000160227
      8        1          -0.000072818    0.000008177   -0.000264389
      9        9           0.000330419   -0.002519148   -0.002698851
 -------------------------------------------------------------------
 Cartesian Forces:  Max     0.004854402 RMS     0.001653822

 GradGradGradGradGradGradGradGradGradGradGradGradGradGradGradGradGradGrad
 Berny optimization.
 Using GEDIIS/GDIIS optimizer.
 FormGI is forming the generalized inverse of G from B-inverse, IUseBI=4.
 Internal  Forces:  Max     0.004153672 RMS     0.001660081
 Search for a local minimum.
 Step number   2 out of a maximum of   40
 All quantities printed in internal units (Hartrees-Bohrs-Radians)
 Mixed Optimization -- RFO/linear search
 Update second derivatives using D2CorX and points    1    2
 DE= -8.01D-04 DEPred=-9.71D-04 R= 8.25D-01
 TightC=F SS=  1.41D+00  RLast= 1.34D-01 DXNew= 5.0454D-01 4.0115D-01
 Trust test= 8.25D-01 RLast= 1.34D-01 DXMaxT set to 4.01D-01
 ITU=  1  0
 Use linear search instead of GDIIS.
     Eigenvalues ---    0.00604   0.01798   0.03208   0.03232   0.10748
     Eigenvalues ---    0.11429   0.16000   0.16005   0.22740   0.25000
     Eigenvalues ---    0.25000   0.25000   0.31140   0.33237   0.36070
     Eigenvalues ---    0.36331   0.52362   0.55618   0.58138   0.58809
     Eigenvalues ---    0.63567
 RFO step:  Lambda=-2.53460020D-04 EMin= 6.04130983D-03
 Quartic linear search produced a step of -0.13818.
 Iteration  1 RMS(Cart)=  0.02358679 RMS(Int)=  0.00025153
 Iteration  2 RMS(Cart)=  0.00026257 RMS(Int)=  0.00003648
 Iteration  3 RMS(Cart)=  0.00000002 RMS(Int)=  0.00003648
 Variable       Old X    -DE/DX   Delta X   Delta X   Delta X     New X
                                 (Linear)    (Quad)   (Total)
    R1        2.52473   0.00059   0.00264  -0.00409  -0.00145   2.52327
    R2        2.52690  -0.00201   0.00274  -0.00832  -0.00558   2.52132
    R3        2.84868  -0.00118   0.00072  -0.00461  -0.00389   2.84479
    R4        2.52414   0.00178   0.00373  -0.00430  -0.00057   2.52356
    R5        2.52141  -0.00041   0.00019  -0.00095  -0.00077   2.52064
    R6        2.48284  -0.00027  -0.00006  -0.00026  -0.00031   2.48253
    R7        2.03546   0.00025   0.00006   0.00048   0.00054   2.03600
    R8        2.03966   0.00003   0.00001   0.00006   0.00007   2.03972
    A1        1.88414   0.00209   0.00133   0.00147   0.00290   1.88704
    A2        1.94061  -0.00193  -0.00384   0.00100  -0.00280   1.93781
    A3        1.86181   0.00415   0.00415   0.01001   0.01414   1.87595
    A4        1.94911  -0.00370  -0.00522  -0.00476  -0.00998   1.93913
    A5        1.87315   0.00394   0.00152   0.00997   0.01141   1.88455
    A6        1.95088  -0.00385   0.00242  -0.01627  -0.01391   1.93697
    A7        1.94162  -0.00066   0.00089  -0.00396  -0.00308   1.93854
    A8        2.20077  -0.00017  -0.00067   0.00070   0.00002   2.20079
    A9        2.14079   0.00083  -0.00021   0.00324   0.00303   2.14382
   A10        2.09628  -0.00032  -0.00013  -0.00149  -0.00162   2.09467
   A11        2.09720   0.00027   0.00011   0.00128   0.00138   2.09859
   A12        2.08969   0.00005   0.00002   0.00022   0.00024   2.08993
    D1        0.96657   0.00111  -0.00374   0.04772   0.04403   1.01060
    D2       -2.18065   0.00108  -0.00236   0.04299   0.04068  -2.13997
    D3        3.07234  -0.00009  -0.00793   0.04703   0.03902   3.11137
    D4       -0.07488  -0.00013  -0.00654   0.04229   0.03568  -0.03920
    D5       -1.11202  -0.00029  -0.00798   0.04521   0.03726  -1.07476
    D6        2.02395  -0.00032  -0.00659   0.04048   0.03391   2.05786
    D7        0.00339   0.00015  -0.00224   0.00909   0.00684   0.01023
    D8        3.14119   0.00024  -0.00193   0.01075   0.00882  -3.13318
    D9        3.13875   0.00011  -0.00071   0.00382   0.00311  -3.14132
   D10       -0.00663   0.00020  -0.00040   0.00549   0.00509  -0.00155
         Item               Value     Threshold  Converged?
 Maximum Force            0.004154     0.000450     NO 
 RMS     Force            0.001660     0.000300     NO 
 Maximum Displacement     0.051905     0.001800     NO 
 RMS     Displacement     0.023606     0.001200     NO 
 Predicted change in Energy=-1.462881D-04
 GradGradGradGradGradGradGradGradGradGradGradGradGradGradGradGradGradGrad

                          Input orientation:                          
 ---------------------------------------------------------------------
 Center     Atomic      Atomic             Coordinates (Angstroms)
 Number     Number       Type             X           Y           Z
 ---------------------------------------------------------------------
      1          6           0        2.851389    0.351758    0.384923
      2          9           0        2.859745    0.237267    1.715239
      3          9           0        2.745192    1.646451    0.080533
      4          6           0        4.095127   -0.246219   -0.216548
      5          9           0        4.220044   -1.531136    0.118989
      6          6           0        4.960946    0.377178   -0.983060
      7          1           0        4.815584    1.416862   -1.225388
      8          1           0        5.820459   -0.148002   -1.370973
      9          9           0        1.757298   -0.268332   -0.064274
 ---------------------------------------------------------------------
                    Distance matrix (angstroms):
                    1          2          3          4          5
     1  C    0.000000
     2  F    1.335259   0.000000
     3  F    1.334227   2.161292   0.000000
     4  C    1.505399   2.343444   2.343668   0.000000
     5  F    2.342909   2.743296   3.503387   1.333867   0.000000
     6  C    2.514409   3.422781   2.766198   1.313699   2.324889
     7  H    2.754198   3.723443   2.458589   2.074284   3.294345
     8  H    3.485442   4.294061   3.845022   2.078247   2.587349
     9  F    1.335412   2.153529   2.159467   2.342887   2.773693
                    6          7          8          9
     6  C    0.000000
     7  H    1.077403   0.000000
     8  H    1.079376   1.865413   0.000000
     9  F    3.394733   3.679833   4.269803   0.000000
 Stoichiometry    C3H2F4
 Framework group  C1[X(C3H2F4)]
 Deg. of freedom    21
 Full point group                 C1      NOp   1
 Largest Abelian subgroup         C1      NOp   1
 Largest concise Abelian subgroup C1      NOp   1
                         Standard orientation:                         
 ---------------------------------------------------------------------
 Center     Atomic      Atomic             Coordinates (Angstroms)
 Number     Number       Type             X           Y           Z
 ---------------------------------------------------------------------
      1          6           0        0.585809    0.041483   -0.000863
      2          9           0        1.074992   -0.619639   -1.052782
      3          9           0        1.051699    1.291022   -0.042824
      4          6           0       -0.919484    0.023853   -0.004110
      5          9           0       -1.384423   -1.226353    0.000237
      6          6           0       -1.705826    1.076212   -0.000843
      7          1           0       -1.281123    2.066368   -0.004869
      8          1           0       -2.778192    0.953502    0.004177
      9          9           0        1.068434   -0.541604    1.099323
 ---------------------------------------------------------------------
 Rotational constants (GHZ):           3.7330682           2.4747602           2.0095487
 Standard basis: 6-311+G(2d,2p) (5D, 7F)
 There are   221 symmetry adapted cartesian basis functions of A   symmetry.
 There are   207 symmetry adapted basis functions of A   symmetry.
   207 basis functions,   316 primitive gaussians,   221 cartesian basis functions
    28 alpha electrons       28 beta electrons
       nuclear repulsion energy       333.9922125335 Hartrees.
 NAtoms=    9 NActive=    9 NUniq=    9 SFac= 1.00D+00 NAtFMM=   60 NAOKFM=F Big=F
 Integral buffers will be    131072 words long.
 Raffenetti 2 integral format.
 Two-electron integral symmetry is turned on.
 Nuclear repulsion after empirical dispersion term =      333.9895408727 Hartrees.
 One-electron integrals computed using PRISM.
 NBasis=   207 RedAO= T EigKep=  5.00D-05  NBF=   207
 NBsUse=   207 1.00D-06 EigRej= -1.00D+00 NBFU=   207
 Initial guess from the checkpoint file:  "21_propene.chk"
 B after Tr=     0.000000    0.000000    0.000000
         Rot=    0.999912   -0.013120    0.001742   -0.001101 Ang=  -1.52 deg.
 ExpMin= 4.38D-02 ExpMax= 1.14D+04 ExpMxC= 1.72D+03 IAcc=2 IRadAn=         4 AccDes= 0.00D+00
 Harris functional with IExCor= 4639 and IRadAn=       4 diagonalized for initial guess.
 HarFok:  IExCor= 4639 AccDes= 0.00D+00 IRadAn=         4 IDoV= 1 UseB2=F ITyADJ=14
 ICtDFT=  3500011 ScaDFX=  1.000000  1.000000  1.000000  1.000000
 FoFCou: FMM=F IPFlag=           0 FMFlag=      100000 FMFlg1=           0
         NFxFlg=           0 DoJE=T BraDBF=F KetDBF=T FulRan=T
         wScrn=  0.000000 ICntrl=       500 IOpCl=  0 I1Cent=   200000004 NGrid=           0
         NMat0=    1 NMatS0=      1 NMatT0=    0 NMatD0=    1 NMtDS0=    0 NMtDT0=    0
 Petite list used in FoFCou.
 Keep R1 ints in memory in canonical form, NReq=488665991.
 Requested convergence on RMS density matrix=1.00D-08 within 128 cycles.
 Requested convergence on MAX density matrix=1.00D-06.
 Requested convergence on             energy=1.00D-06.
 No special actions if energy rises.
 SCF Done:  E(RwB97XD) =  -514.890541122     A.U. after   10 cycles
            NFock= 10  Conv=0.70D-08     -V/T= 2.0027
 Calling FoFJK, ICntrl=      2127 FMM=F ISym2X=0 I1Cent= 0 IOpClX= 0 NMat=1 NMatS=1 NMatT=0.
 ***** Axes restored to original set *****
 -------------------------------------------------------------------
 Center     Atomic                   Forces (Hartrees/Bohr)
 Number     Number              X              Y              Z
 -------------------------------------------------------------------
      1        6           0.000152587    0.000844672   -0.000078433
      2        9          -0.000128429    0.000123851    0.000710767
      3        9          -0.000099651    0.000075971    0.000150909
      4        6           0.000683507    0.000015255   -0.000828330
      5        9           0.000073612   -0.000249962   -0.000045697
      6        6           0.000359926   -0.000267220    0.000219487
      7        1          -0.000054786   -0.000033614   -0.000008996
      8        1           0.000034857    0.000082525   -0.000014503
      9        9          -0.001021622   -0.000591479   -0.000105204
 -------------------------------------------------------------------
 Cartesian Forces:  Max     0.001021622 RMS     0.000394787

 GradGradGradGradGradGradGradGradGradGradGradGradGradGradGradGradGradGrad
 Berny optimization.
 Using GEDIIS/GDIIS optimizer.
 FormGI is forming the generalized inverse of G from B-inverse, IUseBI=4.
 Internal  Forces:  Max     0.001359058 RMS     0.000383439
 Search for a local minimum.
 Step number   3 out of a maximum of   40
 All quantities printed in internal units (Hartrees-Bohrs-Radians)
 Mixed Optimization -- En-DIIS/RFO-DIIS
 Update second derivatives using D2CorX and points    1    2    3
 DE= -1.48D-04 DEPred=-1.46D-04 R= 1.01D+00
 TightC=F SS=  1.41D+00  RLast= 9.90D-02 DXNew= 6.7465D-01 2.9697D-01
 Trust test= 1.01D+00 RLast= 9.90D-02 DXMaxT set to 4.01D-01
 ITU=  1  1  0
 Use linear search instead of GDIIS.
     Eigenvalues ---    0.00489   0.01817   0.03229   0.03233   0.10997
     Eigenvalues ---    0.11522   0.15961   0.16001   0.22835   0.24999
     Eigenvalues ---    0.25000   0.25092   0.30699   0.36070   0.36295
     Eigenvalues ---    0.40396   0.52899   0.55599   0.57890   0.58500
     Eigenvalues ---    0.63561
 RFO step:  Lambda=-2.35355469D-05 EMin= 4.88590304D-03
 Quartic linear search produced a step of  0.00761.
 Iteration  1 RMS(Cart)=  0.01138372 RMS(Int)=  0.00005527
 Iteration  2 RMS(Cart)=  0.00006428 RMS(Int)=  0.00000095
 Iteration  3 RMS(Cart)=  0.00000000 RMS(Int)=  0.00000095
 Variable       Old X    -DE/DX   Delta X   Delta X   Delta X     New X
                                 (Linear)    (Quad)   (Total)
    R1        2.52327   0.00070  -0.00001   0.00095   0.00094   2.52421
    R2        2.52132   0.00005  -0.00004  -0.00056  -0.00060   2.52072
    R3        2.84479   0.00136  -0.00003   0.00398   0.00396   2.84875
    R4        2.52356   0.00115  -0.00000   0.00179   0.00178   2.52535
    R5        2.52064   0.00024  -0.00001   0.00033   0.00033   2.52097
    R6        2.48253   0.00000  -0.00000  -0.00002  -0.00002   2.48251
    R7        2.03600  -0.00003   0.00000  -0.00003  -0.00002   2.03597
    R8        2.03972  -0.00001   0.00000  -0.00001  -0.00001   2.03971
    A1        1.88704  -0.00032   0.00002  -0.00152  -0.00150   1.88554
    A2        1.93781   0.00020  -0.00002   0.00047   0.00044   1.93826
    A3        1.87595  -0.00029   0.00011  -0.00057  -0.00046   1.87549
    A4        1.93913   0.00021  -0.00008   0.00052   0.00045   1.93958
    A5        1.88455  -0.00007   0.00009   0.00122   0.00130   1.88586
    A6        1.93697   0.00024  -0.00011  -0.00017  -0.00027   1.93669
    A7        1.93854  -0.00005  -0.00002  -0.00051  -0.00054   1.93800
    A8        2.20079   0.00035   0.00000   0.00146   0.00146   2.20225
    A9        2.14382  -0.00030   0.00002  -0.00092  -0.00090   2.14292
   A10        2.09467  -0.00011  -0.00001  -0.00081  -0.00082   2.09385
   A11        2.09859   0.00014   0.00001   0.00098   0.00099   2.09958
   A12        2.08993  -0.00003   0.00000  -0.00017  -0.00017   2.08976
    D1        1.01060   0.00007   0.00033   0.01790   0.01823   1.02883
    D2       -2.13997   0.00016   0.00031   0.02223   0.02254  -2.11743
    D3        3.11137  -0.00005   0.00030   0.01664   0.01694   3.12830
    D4       -0.03920   0.00003   0.00027   0.02098   0.02125  -0.01795
    D5       -1.07476   0.00016   0.00028   0.01842   0.01870  -1.05606
    D6        2.05786   0.00024   0.00026   0.02275   0.02301   2.08087
    D7        0.01023  -0.00009   0.00005  -0.00315  -0.00310   0.00714
    D8       -3.13318  -0.00007   0.00007  -0.00253  -0.00246  -3.13564
    D9       -3.14132   0.00001   0.00002   0.00167   0.00169  -3.13963
   D10       -0.00155   0.00002   0.00004   0.00229   0.00233   0.00078
         Item               Value     Threshold  Converged?
 Maximum Force            0.001359     0.000450     NO 
 RMS     Force            0.000383     0.000300     NO 
 Maximum Displacement     0.023812     0.001800     NO 
 RMS     Displacement     0.011386     0.001200     NO 
 Predicted change in Energy=-1.181194D-05
 GradGradGradGradGradGradGradGradGradGradGradGradGradGradGradGradGradGrad

                          Input orientation:                          
 ---------------------------------------------------------------------
 Center     Atomic      Atomic             Coordinates (Angstroms)
 Number     Number       Type             X           Y           Z
 ---------------------------------------------------------------------
      1          6           0        2.849580    0.352040    0.384363
      2          9           0        2.867223    0.249466    1.716057
      3          9           0        2.736449    1.643708    0.071149
      4          6           0        4.093154   -0.247138   -0.221480
      5          9           0        4.213089   -1.534685    0.106388
      6          6           0        4.964634    0.377751   -0.980306
      7          1           0        4.824086    1.419755   -1.215343
      8          1           0        5.823265   -0.147790   -1.369662
      9          9           0        1.754304   -0.277279   -0.051727
 ---------------------------------------------------------------------
                    Distance matrix (angstroms):
                    1          2          3          4          5
     1  C    0.000000
     2  F    1.335756   0.000000
     3  F    1.333907   2.160263   0.000000
     4  C    1.507492   2.345969   2.345544   0.000000
     5  F    2.344388   2.754194   3.504838   1.334039   0.000000
     6  C    2.517227   3.418474   2.770020   1.313689   2.324464
     7  H    2.756401   3.713757   2.462406   2.073778   3.293783
     8  H    3.488443   4.291580   3.848875   2.078817   2.587445
     9  F    1.336356   2.154324   2.160995   2.345195   2.766169
                    6          7          8          9
     6  C    0.000000
     7  H    1.077390   0.000000
     8  H    1.079370   1.865307   0.000000
     9  F    3.405516   3.695604   4.279038   0.000000
 Stoichiometry    C3H2F4
 Framework group  C1[X(C3H2F4)]
 Deg. of freedom    21
 Full point group                 C1      NOp   1
 Largest Abelian subgroup         C1      NOp   1
 Largest concise Abelian subgroup C1      NOp   1
                         Standard orientation:                         
 ---------------------------------------------------------------------
 Center     Atomic      Atomic             Coordinates (Angstroms)
 Number     Number       Type             X           Y           Z
 ---------------------------------------------------------------------
      1          6           0        0.586591    0.042192   -0.000303
      2          9           0        1.075599   -0.596553   -1.066662
      3          9           0        1.052463    1.291975   -0.018013
      4          6           0       -0.920791    0.024063   -0.002315
      5          9           0       -1.384714   -1.226710   -0.001135
      6          6           0       -1.708989    1.075024    0.000045
      7          1           0       -1.285221    2.065569   -0.002881
      8          1           0       -2.781258    0.951479    0.003809
      9          9           0        1.070607   -0.564792    1.087422
 ---------------------------------------------------------------------
 Rotational constants (GHZ):           3.7325420           2.4700679           2.0068695
 Standard basis: 6-311+G(2d,2p) (5D, 7F)
 There are   221 symmetry adapted cartesian basis functions of A   symmetry.
 There are   207 symmetry adapted basis functions of A   symmetry.
   207 basis functions,   316 primitive gaussians,   221 cartesian basis functions
    28 alpha electrons       28 beta electrons
       nuclear repulsion energy       333.8283812295 Hartrees.
 NAtoms=    9 NActive=    9 NUniq=    9 SFac= 1.00D+00 NAtFMM=   60 NAOKFM=F Big=F
 Integral buffers will be    131072 words long.
 Raffenetti 2 integral format.
 Two-electron integral symmetry is turned on.
 Nuclear repulsion after empirical dispersion term =      333.8257075572 Hartrees.
 One-electron integrals computed using PRISM.
 NBasis=   207 RedAO= T EigKep=  5.00D-05  NBF=   207
 NBsUse=   207 1.00D-06 EigRej= -1.00D+00 NBFU=   207
 Initial guess from the checkpoint file:  "21_propene.chk"
 B after Tr=    -0.000000    0.000000   -0.000000
         Rot=    0.999978   -0.006633   -0.000150   -0.000263 Ang=  -0.76 deg.
 ExpMin= 4.38D-02 ExpMax= 1.14D+04 ExpMxC= 1.72D+03 IAcc=2 IRadAn=         4 AccDes= 0.00D+00
 Harris functional with IExCor= 4639 and IRadAn=       4 diagonalized for initial guess.
 HarFok:  IExCor= 4639 AccDes= 0.00D+00 IRadAn=         4 IDoV= 1 UseB2=F ITyADJ=14
 ICtDFT=  3500011 ScaDFX=  1.000000  1.000000  1.000000  1.000000
 FoFCou: FMM=F IPFlag=           0 FMFlag=      100000 FMFlg1=           0
         NFxFlg=           0 DoJE=T BraDBF=F KetDBF=T FulRan=T
         wScrn=  0.000000 ICntrl=       500 IOpCl=  0 I1Cent=   200000004 NGrid=           0
         NMat0=    1 NMatS0=      1 NMatT0=    0 NMatD0=    1 NMtDS0=    0 NMtDT0=    0
 Petite list used in FoFCou.
 Keep R1 ints in memory in canonical form, NReq=488665991.
 Requested convergence on RMS density matrix=1.00D-08 within 128 cycles.
 Requested convergence on MAX density matrix=1.00D-06.
 Requested convergence on             energy=1.00D-06.
 No special actions if energy rises.
 SCF Done:  E(RwB97XD) =  -514.890555662     A.U. after    9 cycles
            NFock=  9  Conv=0.91D-08     -V/T= 2.0027
 Calling FoFJK, ICntrl=      2127 FMM=F ISym2X=0 I1Cent= 0 IOpClX= 0 NMat=1 NMatS=1 NMatT=0.
 ***** Axes restored to original set *****
 -------------------------------------------------------------------
 Center     Atomic                   Forces (Hartrees/Bohr)
 Number     Number              X              Y              Z
 -------------------------------------------------------------------
      1        6           0.000382455    0.000161906   -0.000260155
      2        9          -0.000038474   -0.000102637    0.000337213
      3        9          -0.000104048    0.000010997   -0.000097133
      4        6          -0.000022361    0.000068548   -0.000169288
      5        9          -0.000038912   -0.000132131   -0.000030166
      6        6           0.000046307   -0.000015367    0.000164361
      7        1          -0.000059269    0.000003354   -0.000081059
      8        1           0.000016630    0.000040015    0.000067466
      9        9          -0.000182329   -0.000034685    0.000068762
 -------------------------------------------------------------------
 Cartesian Forces:  Max     0.000382455 RMS     0.000139458

 GradGradGradGradGradGradGradGradGradGradGradGradGradGradGradGradGradGrad
 Berny optimization.
 Using GEDIIS/GDIIS optimizer.
 FormGI is forming the generalized inverse of G from B-inverse, IUseBI=4.
 Internal  Forces:  Max     0.000342948 RMS     0.000097598
 Search for a local minimum.
 Step number   4 out of a maximum of   40
 All quantities printed in internal units (Hartrees-Bohrs-Radians)
 Mixed Optimization -- En-DIIS/RFO-DIIS
 Swapping is turned off.
 Update second derivatives using D2CorX and points    1    2    3    4
 DE= -1.45D-05 DEPred=-1.18D-05 R= 1.23D+00
 TightC=F SS=  1.41D+00  RLast= 5.01D-02 DXNew= 6.7465D-01 1.5036D-01
 Trust test= 1.23D+00 RLast= 5.01D-02 DXMaxT set to 4.01D-01
 ITU=  1  1  1  0
     Eigenvalues ---    0.00334   0.01777   0.03229   0.03275   0.11081
     Eigenvalues ---    0.11705   0.15999   0.16008   0.23743   0.24979
     Eigenvalues ---    0.25000   0.25394   0.32801   0.36078   0.36270
     Eigenvalues ---    0.40059   0.52880   0.55490   0.57230   0.58658
     Eigenvalues ---    0.63612
 En-DIIS/RFO-DIIS/Sim-DIIS IScMMF=       -3 using points:     4    3
 RFO step:  Lambda=-5.31398220D-06.
 DidBck=F Rises=F RFO-DIIS coefs:    1.66724   -0.66724
 Iteration  1 RMS(Cart)=  0.00732628 RMS(Int)=  0.00002291
 Iteration  2 RMS(Cart)=  0.00002923 RMS(Int)=  0.00000113
 Iteration  3 RMS(Cart)=  0.00000000 RMS(Int)=  0.00000113
 Variable       Old X    -DE/DX   Delta X   Delta X   Delta X     New X
                                 (Linear)    (Quad)   (Total)
    R1        2.52421   0.00034   0.00063   0.00020   0.00083   2.52504
    R2        2.52072   0.00004  -0.00040   0.00012  -0.00028   2.52044
    R3        2.84875  -0.00001   0.00264  -0.00230   0.00034   2.84909
    R4        2.52535   0.00014   0.00119  -0.00070   0.00049   2.52584
    R5        2.52097   0.00012   0.00022   0.00006   0.00028   2.52125
    R6        2.48251  -0.00007  -0.00001  -0.00016  -0.00017   2.48234
    R7        2.03597   0.00003  -0.00002   0.00013   0.00011   2.03609
    R8        2.03971  -0.00003  -0.00001  -0.00010  -0.00011   2.03961
    A1        1.88554   0.00006  -0.00100   0.00161   0.00062   1.88616
    A2        1.93826  -0.00003   0.00030  -0.00038  -0.00009   1.93817
    A3        1.87549  -0.00014  -0.00031  -0.00037  -0.00068   1.87481
    A4        1.93958   0.00006   0.00030  -0.00005   0.00025   1.93983
    A5        1.88586  -0.00013   0.00087  -0.00097  -0.00010   1.88576
    A6        1.93669   0.00017  -0.00018   0.00017  -0.00002   1.93668
    A7        1.93800   0.00000  -0.00036   0.00016  -0.00020   1.93780
    A8        2.20225  -0.00004   0.00098  -0.00096   0.00001   2.20226
    A9        2.14292   0.00004  -0.00060   0.00080   0.00020   2.14312
   A10        2.09385  -0.00001  -0.00055   0.00030  -0.00025   2.09359
   A11        2.09958   0.00001   0.00066  -0.00039   0.00027   2.09984
   A12        2.08976  -0.00000  -0.00011   0.00010  -0.00001   2.08975
    D1        1.02883  -0.00004   0.01216  -0.00096   0.01121   1.04003
    D2       -2.11743   0.00000   0.01504  -0.00046   0.01458  -2.10285
    D3        3.12830   0.00006   0.01130   0.00080   0.01210   3.14040
    D4       -0.01795   0.00010   0.01418   0.00129   0.01547  -0.00248
    D5       -1.05606   0.00005   0.01248  -0.00035   0.01213  -1.04393
    D6        2.08087   0.00009   0.01536   0.00015   0.01550   2.09637
    D7        0.00714  -0.00011  -0.00207  -0.00316  -0.00523   0.00191
    D8       -3.13564  -0.00009  -0.00164  -0.00259  -0.00423  -3.13986
    D9       -3.13963  -0.00006   0.00113  -0.00261  -0.00148  -3.14112
   D10        0.00078  -0.00004   0.00156  -0.00204  -0.00049   0.00029
         Item               Value     Threshold  Converged?
 Maximum Force            0.000343     0.000450     YES
 RMS     Force            0.000098     0.000300     YES
 Maximum Displacement     0.015888     0.001800     NO 
 RMS     Displacement     0.007326     0.001200     NO 
 Predicted change in Energy=-2.657669D-06
 GradGradGradGradGradGradGradGradGradGradGradGradGradGradGradGradGradGrad

                          Input orientation:                          
 ---------------------------------------------------------------------
 Center     Atomic      Atomic             Coordinates (Angstroms)
 Number     Number       Type             X           Y           Z
 ---------------------------------------------------------------------
      1          6           0        2.849353    0.352191    0.383801
      2          9           0        2.873275    0.256309    1.716336
      3          9           0        2.731767    1.641661    0.063880
      4          6           0        4.091356   -0.248028   -0.224676
      5          9           0        4.207455   -1.537394    0.097981
      6          6           0        4.966377    0.378418   -0.977969
      7          1           0        4.827704    1.421459   -1.209775
      8          1           0        5.825419   -0.146748   -1.366769
      9          9           0        1.753078   -0.282041   -0.043369
 ---------------------------------------------------------------------
                    Distance matrix (angstroms):
                    1          2          3          4          5
     1  C    0.000000
     2  F    1.336195   0.000000
     3  F    1.333757   2.160980   0.000000
     4  C    1.507673   2.346403   2.345777   0.000000
     5  F    2.344496   2.759797   3.505026   1.334185   0.000000
     6  C    2.517318   3.413980   2.770328   1.313600   2.324643
     7  H    2.756210   3.706682   2.462446   2.073599   3.293895
     8  H    3.488610   4.287557   3.849136   2.078847   2.587894
     9  F    1.336616   2.154350   2.161009   2.345543   2.760409
                    6          7          8          9
     6  C    0.000000
     7  H    1.077450   0.000000
     8  H    1.079313   1.865302   0.000000
     9  F    3.411007   3.703477   4.284116   0.000000
 Stoichiometry    C3H2F4
 Framework group  C1[X(C3H2F4)]
 Deg. of freedom    21
 Full point group                 C1      NOp   1
 Largest Abelian subgroup         C1      NOp   1
 Largest concise Abelian subgroup C1      NOp   1
                         Standard orientation:                         
 ---------------------------------------------------------------------
 Center     Atomic      Atomic             Coordinates (Angstroms)
 Number     Number       Type             X           Y           Z
 ---------------------------------------------------------------------
      1          6           0        0.586544    0.042677   -0.000340
      2          9           0        1.074581   -0.583146   -1.075320
      3          9           0        1.052268    1.292479   -0.002302
      4          6           0       -0.921014    0.024084   -0.000854
      5          9           0       -1.384350   -1.227063   -0.000374
      6          6           0       -1.709487    1.074729   -0.000295
      7          1           0       -1.285744    2.065355   -0.001167
      8          1           0       -2.781702    0.951147    0.000865
      9          9           0        1.072078   -0.578431    1.079023
 ---------------------------------------------------------------------
 Rotational constants (GHZ):           3.7317499           2.4698220           2.0064862
 Standard basis: 6-311+G(2d,2p) (5D, 7F)
 There are   221 symmetry adapted cartesian basis functions of A   symmetry.
 There are   207 symmetry adapted basis functions of A   symmetry.
   207 basis functions,   316 primitive gaussians,   221 cartesian basis functions
    28 alpha electrons       28 beta electrons
       nuclear repulsion energy       333.7982273189 Hartrees.
 NAtoms=    9 NActive=    9 NUniq=    9 SFac= 1.00D+00 NAtFMM=   60 NAOKFM=F Big=F
 Integral buffers will be    131072 words long.
 Raffenetti 2 integral format.
 Two-electron integral symmetry is turned on.
 Nuclear repulsion after empirical dispersion term =      333.7955535440 Hartrees.
 One-electron integrals computed using PRISM.
 NBasis=   207 RedAO= T EigKep=  5.00D-05  NBF=   207
 NBsUse=   207 1.00D-06 EigRej= -1.00D+00 NBFU=   207
 Initial guess from the checkpoint file:  "21_propene.chk"
 B after Tr=     0.000000   -0.000000    0.000000
         Rot=    0.999992   -0.003876   -0.000235   -0.000103 Ang=  -0.45 deg.
 Keep R1 ints in memory in canonical form, NReq=488665991.
 Requested convergence on RMS density matrix=1.00D-08 within 128 cycles.
 Requested convergence on MAX density matrix=1.00D-06.
 Requested convergence on             energy=1.00D-06.
 No special actions if energy rises.
 SCF Done:  E(RwB97XD) =  -514.890558589     A.U. after    9 cycles
            NFock=  9  Conv=0.48D-08     -V/T= 2.0027
 Calling FoFJK, ICntrl=      2127 FMM=F ISym2X=0 I1Cent= 0 IOpClX= 0 NMat=1 NMatS=1 NMatT=0.
 ***** Axes restored to original set *****
 -------------------------------------------------------------------
 Center     Atomic                   Forces (Hartrees/Bohr)
 Number     Number              X              Y              Z
 -------------------------------------------------------------------
      1        6           0.000099567   -0.000198471   -0.000281622
      2        9           0.000018761    0.000032412    0.000047918
      3        9          -0.000029226    0.000030508    0.000053762
      4        6          -0.000122760   -0.000014039    0.000108526
      5        9           0.000007137    0.000017463   -0.000019335
      6        6          -0.000000258    0.000063685    0.000021529
      7        1          -0.000007434   -0.000013911   -0.000022395
      8        1           0.000014727    0.000001629    0.000017407
      9        9           0.000019486    0.000080724    0.000074208
 -------------------------------------------------------------------
 Cartesian Forces:  Max     0.000281622 RMS     0.000082318

 GradGradGradGradGradGradGradGradGradGradGradGradGradGradGradGradGradGrad
 Berny optimization.
 Using GEDIIS/GDIIS optimizer.
 FormGI is forming the generalized inverse of G from B-inverse, IUseBI=4.
 Internal  Forces:  Max     0.000151929 RMS     0.000053285
 Search for a local minimum.
 Step number   5 out of a maximum of   40
 All quantities printed in internal units (Hartrees-Bohrs-Radians)
 Mixed Optimization -- En-DIIS/RFO-DIIS
 Swapping is turned off.
 Update second derivatives using D2CorX and points    1    2    3    4    5
 DE= -2.93D-06 DEPred=-2.66D-06 R= 1.10D+00
 TightC=F SS=  1.41D+00  RLast= 3.41D-02 DXNew= 6.7465D-01 1.0223D-01
 Trust test= 1.10D+00 RLast= 3.41D-02 DXMaxT set to 4.01D-01
 ITU=  1  1  1  1  0
     Eigenvalues ---    0.00301   0.01734   0.03125   0.03231   0.11084
     Eigenvalues ---    0.12341   0.16002   0.16017   0.23114   0.24978
     Eigenvalues ---    0.25076   0.25337   0.32651   0.36080   0.36310
     Eigenvalues ---    0.41732   0.52799   0.55316   0.58482   0.58896
     Eigenvalues ---    0.63662
 En-DIIS/RFO-DIIS/Sim-DIIS IScMMF=       -3 using points:     5    4    3
 RFO step:  Lambda=-5.35694477D-07.
 DidBck=F Rises=F RFO-DIIS coefs:    1.17941   -0.17805   -0.00136
 Iteration  1 RMS(Cart)=  0.00142099 RMS(Int)=  0.00000106
 Iteration  2 RMS(Cart)=  0.00000119 RMS(Int)=  0.00000019
 Iteration  3 RMS(Cart)=  0.00000000 RMS(Int)=  0.00000019
 Variable       Old X    -DE/DX   Delta X   Delta X   Delta X     New X
                                 (Linear)    (Quad)   (Total)
    R1        2.52504   0.00005   0.00015   0.00004   0.00019   2.52523
    R2        2.52044   0.00002  -0.00005   0.00006   0.00001   2.52044
    R3        2.84909  -0.00015   0.00007  -0.00047  -0.00041   2.84868
    R4        2.52584  -0.00008   0.00009  -0.00013  -0.00004   2.52580
    R5        2.52125  -0.00002   0.00005  -0.00006  -0.00001   2.52123
    R6        2.48234   0.00002  -0.00003   0.00005   0.00002   2.48236
    R7        2.03609  -0.00001   0.00002  -0.00004  -0.00002   2.03607
    R8        2.03961   0.00001  -0.00002   0.00003   0.00001   2.03962
    A1        1.88616  -0.00007   0.00011  -0.00066  -0.00055   1.88561
    A2        1.93817  -0.00005  -0.00002  -0.00035  -0.00036   1.93781
    A3        1.87481  -0.00004  -0.00012   0.00006  -0.00007   1.87474
    A4        1.93983   0.00006   0.00005   0.00013   0.00018   1.94001
    A5        1.88576  -0.00007  -0.00002   0.00002   0.00000   1.88576
    A6        1.93668   0.00015  -0.00000   0.00077   0.00077   1.93744
    A7        1.93780   0.00004  -0.00004   0.00017   0.00014   1.93793
    A8        2.20226  -0.00005   0.00000  -0.00017  -0.00017   2.20210
    A9        2.14312   0.00001   0.00003  -0.00000   0.00003   2.14316
   A10        2.09359   0.00001  -0.00005   0.00010   0.00005   2.09364
   A11        2.09984  -0.00001   0.00005  -0.00009  -0.00004   2.09981
   A12        2.08975  -0.00000  -0.00000  -0.00001  -0.00002   2.08973
    D1        1.04003   0.00003   0.00204  -0.00001   0.00203   1.04206
    D2       -2.10285   0.00004   0.00265   0.00066   0.00331  -2.09954
    D3        3.14040  -0.00005   0.00219  -0.00098   0.00121  -3.14158
    D4       -0.00248  -0.00003   0.00280  -0.00031   0.00249   0.00001
    D5       -1.04393   0.00001   0.00220  -0.00036   0.00184  -1.04208
    D6        2.09637   0.00002   0.00281   0.00031   0.00313   2.09950
    D7        0.00191  -0.00003  -0.00094  -0.00079  -0.00173   0.00018
    D8       -3.13986  -0.00003  -0.00076  -0.00077  -0.00153  -3.14139
    D9       -3.14112  -0.00001  -0.00026  -0.00004  -0.00031  -3.14142
   D10        0.00029  -0.00001  -0.00008  -0.00002  -0.00011   0.00019
         Item               Value     Threshold  Converged?
 Maximum Force            0.000152     0.000450     YES
 RMS     Force            0.000053     0.000300     YES
 Maximum Displacement     0.003211     0.001800     NO 
 RMS     Displacement     0.001421     0.001200     NO 
 Predicted change in Energy=-2.678662D-07
 GradGradGradGradGradGradGradGradGradGradGradGradGradGradGradGradGradGrad

                          Input orientation:                          
 ---------------------------------------------------------------------
 Center     Atomic      Atomic             Coordinates (Angstroms)
 Number     Number       Type             X           Y           Z
 ---------------------------------------------------------------------
      1          6           0        2.849281    0.351960    0.383306
      2          9           0        2.874897    0.257525    1.716014
      3          9           0        2.731161    1.641249    0.062837
      4          6           0        4.090816   -0.248387   -0.225469
      5          9           0        4.206615   -1.537937    0.096538
      6          6           0        4.966589    0.378574   -0.977470
      7          1           0        4.827998    1.421667   -1.209043
      8          1           0        5.826109   -0.146316   -1.365603
      9          9           0        1.752318   -0.282508   -0.041670
 ---------------------------------------------------------------------
                    Distance matrix (angstroms):
                    1          2          3          4          5
     1  C    0.000000
     2  F    1.336295   0.000000
     3  F    1.333761   2.160635   0.000000
     4  C    1.507459   2.346010   2.345742   0.000000
     5  F    2.344419   2.760410   3.505043   1.334180   0.000000
     6  C    2.517025   3.412431   2.770150   1.313608   2.324665
     7  H    2.755933   3.704832   2.462239   2.073628   3.293920
     8  H    3.488333   4.285919   3.848965   2.078838   2.587899
     9  F    1.336593   2.154361   2.160995   2.345958   2.760213
                    6          7          8          9
     6  C    0.000000
     7  H    1.077440   0.000000
     8  H    1.079319   1.865290   0.000000
     9  F    3.412373   3.704967   4.285688   0.000000
 Stoichiometry    C3H2F4
 Framework group  C1[X(C3H2F4)]
 Deg. of freedom    21
 Full point group                 C1      NOp   1
 Largest Abelian subgroup         C1      NOp   1
 Largest concise Abelian subgroup C1      NOp   1
                         Standard orientation:                         
 ---------------------------------------------------------------------
 Center     Atomic      Atomic             Coordinates (Angstroms)
 Number     Number       Type             X           Y           Z
 ---------------------------------------------------------------------
      1          6           0        0.586338    0.042585   -0.000067
      2          9           0        1.073522   -0.580508   -1.077143
      3          9           0        1.052351    1.292286    0.000142
      4          6           0       -0.921007    0.024072   -0.000062
      5          9           0       -1.384574   -1.226984   -0.000251
      6          6           0       -1.709255    1.074895    0.000113
      7          1           0       -1.285351    2.065441    0.000104
      8          1           0       -2.781498    0.951507    0.000286
      9          9           0        1.073189   -0.581045    1.077219
 ---------------------------------------------------------------------
 Rotational constants (GHZ):           3.7319749           2.4697870           2.0065359
 Standard basis: 6-311+G(2d,2p) (5D, 7F)
 There are   221 symmetry adapted cartesian basis functions of A   symmetry.
 There are   207 symmetry adapted basis functions of A   symmetry.
   207 basis functions,   316 primitive gaussians,   221 cartesian basis functions
    28 alpha electrons       28 beta electrons
       nuclear repulsion energy       333.8023853276 Hartrees.
 NAtoms=    9 NActive=    9 NUniq=    9 SFac= 1.00D+00 NAtFMM=   60 NAOKFM=F Big=F
 Integral buffers will be    131072 words long.
 Raffenetti 2 integral format.
 Two-electron integral symmetry is turned on.
 Nuclear repulsion after empirical dispersion term =      333.7997115960 Hartrees.
 One-electron integrals computed using PRISM.
 NBasis=   207 RedAO= T EigKep=  5.00D-05  NBF=   207
 NBsUse=   207 1.00D-06 EigRej= -1.00D+00 NBFU=   207
 Initial guess from the checkpoint file:  "21_propene.chk"
 B after Tr=     0.000000   -0.000000    0.000000
         Rot=    1.000000   -0.000753   -0.000204    0.000044 Ang=  -0.09 deg.
 Keep R1 ints in memory in canonical form, NReq=488665991.
 Requested convergence on RMS density matrix=1.00D-08 within 128 cycles.
 Requested convergence on MAX density matrix=1.00D-06.
 Requested convergence on             energy=1.00D-06.
 No special actions if energy rises.
 SCF Done:  E(RwB97XD) =  -514.890558883     A.U. after    7 cycles
            NFock=  7  Conv=0.80D-08     -V/T= 2.0027
 Calling FoFJK, ICntrl=      2127 FMM=F ISym2X=0 I1Cent= 0 IOpClX= 0 NMat=1 NMatS=1 NMatT=0.
 ***** Axes restored to original set *****
 -------------------------------------------------------------------
 Center     Atomic                   Forces (Hartrees/Bohr)
 Number     Number              X              Y              Z
 -------------------------------------------------------------------
      1        6          -0.000043866   -0.000076485   -0.000092222
      2        9           0.000010831   -0.000036111    0.000061452
      3        9          -0.000013852    0.000035007   -0.000035022
      4        6          -0.000047475   -0.000029602    0.000054766
      5        9           0.000004213    0.000020890   -0.000015793
      6        6          -0.000004732    0.000029055   -0.000008209
      7        1          -0.000000828   -0.000003447   -0.000005705
      8        1           0.000004718   -0.000000017    0.000004417
      9        9           0.000090991    0.000060709    0.000036316
 -------------------------------------------------------------------
 Cartesian Forces:  Max     0.000092222 RMS     0.000040942

 GradGradGradGradGradGradGradGradGradGradGradGradGradGradGradGradGradGrad
 Berny optimization.
 Using GEDIIS/GDIIS optimizer.
 FormGI is forming the generalized inverse of G from B-inverse, IUseBI=4.
 Internal  Forces:  Max     0.000115664 RMS     0.000030148
 Search for a local minimum.
 Step number   6 out of a maximum of   40
 All quantities printed in internal units (Hartrees-Bohrs-Radians)
 Mixed Optimization -- En-DIIS/RFO-DIIS
 Swapping is turned off.
 Update second derivatives using D2CorX and points    1    2    3    4    5
                                                      6
 DE= -2.94D-07 DEPred=-2.68D-07 R= 1.10D+00
 Trust test= 1.10D+00 RLast= 6.53D-03 DXMaxT set to 4.01D-01
 ITU=  0  1  1  1  1  0
     Eigenvalues ---    0.00296   0.01734   0.02992   0.03230   0.11107
     Eigenvalues ---    0.13649   0.15990   0.16010   0.21327   0.24962
     Eigenvalues ---    0.25031   0.25352   0.31450   0.36086   0.36307
     Eigenvalues ---    0.42614   0.53471   0.55356   0.58478   0.58673
     Eigenvalues ---    0.63667
 En-DIIS/RFO-DIIS/Sim-DIIS IScMMF=       -3 using points:     6    5    4    3
 RFO step:  Lambda=-7.05428910D-08.
 DidBck=F Rises=F RFO-DIIS coefs:    1.07342   -0.00567   -0.11980    0.05205
 Iteration  1 RMS(Cart)=  0.00016234 RMS(Int)=  0.00000008
 Iteration  2 RMS(Cart)=  0.00000002 RMS(Int)=  0.00000008
 Variable       Old X    -DE/DX   Delta X   Delta X   Delta X     New X
                                 (Linear)    (Quad)   (Total)
    R1        2.52523   0.00006   0.00002   0.00012   0.00014   2.52538
    R2        2.52044   0.00005   0.00001   0.00009   0.00010   2.52055
    R3        2.84868  -0.00005  -0.00021   0.00003  -0.00018   2.84851
    R4        2.52580  -0.00012  -0.00006  -0.00014  -0.00020   2.52559
    R5        2.52123  -0.00002   0.00000  -0.00004  -0.00004   2.52119
    R6        2.48236   0.00001  -0.00001   0.00004   0.00003   2.48239
    R7        2.03607  -0.00000   0.00001  -0.00003  -0.00002   2.03605
    R8        2.03962   0.00000  -0.00001   0.00002   0.00001   2.03963
    A1        1.88561   0.00004   0.00008   0.00006   0.00014   1.88575
    A2        1.93781  -0.00003  -0.00006  -0.00010  -0.00016   1.93765
    A3        1.87474   0.00000  -0.00003  -0.00000  -0.00003   1.87471
    A4        1.94001  -0.00001   0.00001   0.00001   0.00001   1.94002
    A5        1.88576  -0.00001  -0.00007  -0.00002  -0.00009   1.88567
    A6        1.93744   0.00001   0.00007   0.00006   0.00013   1.93757
    A7        1.93793   0.00002   0.00002   0.00007   0.00010   1.93803
    A8        2.20210  -0.00002  -0.00009   0.00001  -0.00008   2.20202
    A9        2.14316  -0.00000   0.00006  -0.00009  -0.00002   2.14313
   A10        2.09364   0.00001   0.00003   0.00003   0.00006   2.09371
   A11        2.09981  -0.00001  -0.00004  -0.00002  -0.00006   2.09975
   A12        2.08973  -0.00000   0.00001  -0.00001  -0.00001   2.08973
    D1        1.04206  -0.00001  -0.00004  -0.00000  -0.00004   1.04202
    D2       -2.09954  -0.00001   0.00006  -0.00002   0.00004  -2.09951
    D3       -3.14158   0.00001   0.00003   0.00001   0.00003  -3.14154
    D4        0.00001   0.00001   0.00012  -0.00001   0.00011   0.00012
    D5       -1.04208  -0.00000  -0.00002   0.00003   0.00001  -1.04207
    D6        2.09950  -0.00000   0.00008   0.00001   0.00009   2.09959
    D7        0.00018  -0.00000  -0.00032   0.00004  -0.00028  -0.00009
    D8       -3.14139  -0.00000  -0.00027  -0.00000  -0.00027   3.14152
    D9       -3.14142  -0.00001  -0.00021   0.00002  -0.00019   3.14157
   D10        0.00019  -0.00001  -0.00016  -0.00002  -0.00019   0.00000
         Item               Value     Threshold  Converged?
 Maximum Force            0.000116     0.000450     YES
 RMS     Force            0.000030     0.000300     YES
 Maximum Displacement     0.000467     0.001800     YES
 RMS     Displacement     0.000162     0.001200     YES
 Predicted change in Energy=-3.503830D-08
 Optimization completed.
    -- Stationary point found.
                           ----------------------------
                           !   Optimized Parameters   !
                           ! (Angstroms and Degrees)  !
 --------------------------                            --------------------------
 ! Name  Definition              Value          Derivative Info.                !
 --------------------------------------------------------------------------------
 ! R1    R(1,2)                  1.3363         -DE/DX =    0.0001              !
 ! R2    R(1,3)                  1.3338         -DE/DX =    0.0                 !
 ! R3    R(1,4)                  1.5075         -DE/DX =   -0.0001              !
 ! R4    R(1,9)                  1.3366         -DE/DX =   -0.0001              !
 ! R5    R(4,5)                  1.3342         -DE/DX =    0.0                 !
 ! R6    R(4,6)                  1.3136         -DE/DX =    0.0                 !
 ! R7    R(6,7)                  1.0774         -DE/DX =    0.0                 !
 ! R8    R(6,8)                  1.0793         -DE/DX =    0.0                 !
 ! A1    A(2,1,3)              108.0375         -DE/DX =    0.0                 !
 ! A2    A(2,1,4)              111.0281         -DE/DX =    0.0                 !
 ! A3    A(2,1,9)              107.4148         -DE/DX =    0.0                 !
 ! A4    A(3,1,4)              111.1541         -DE/DX =    0.0                 !
 ! A5    A(3,1,9)              108.0461         -DE/DX =    0.0                 !
 ! A6    A(4,1,9)              111.0073         -DE/DX =    0.0                 !
 ! A7    A(1,4,5)              111.0354         -DE/DX =    0.0                 !
 ! A8    A(1,4,6)              126.1708         -DE/DX =    0.0                 !
 ! A9    A(5,4,6)              122.7938         -DE/DX =    0.0                 !
 ! A10   A(4,6,7)              119.957          -DE/DX =    0.0                 !
 ! A11   A(4,6,8)              120.3101         -DE/DX =    0.0                 !
 ! A12   A(7,6,8)              119.7329         -DE/DX =    0.0                 !
 ! D1    D(2,1,4,5)             59.7056         -DE/DX =    0.0                 !
 ! D2    D(2,1,4,6)           -120.295          -DE/DX =    0.0                 !
 ! D3    D(3,1,4,5)           -179.9991         -DE/DX =    0.0                 !
 ! D4    D(3,1,4,6)              0.0003         -DE/DX =    0.0                 !
 ! D5    D(9,1,4,5)            -59.7069         -DE/DX =    0.0                 !
 ! D6    D(9,1,4,6)            120.2925         -DE/DX =    0.0                 !
 ! D7    D(1,4,6,7)              0.0104         -DE/DX =    0.0                 !
 ! D8    D(1,4,6,8)            180.0115         -DE/DX =    0.0                 !
 ! D9    D(5,4,6,7)            180.0097         -DE/DX =    0.0                 !
 ! D10   D(5,4,6,8)              0.0108         -DE/DX =    0.0                 !
 --------------------------------------------------------------------------------
 GradGradGradGradGradGradGradGradGradGradGradGradGradGradGradGradGradGrad

                          Input orientation:                          
 ---------------------------------------------------------------------
 Center     Atomic      Atomic             Coordinates (Angstroms)
 Number     Number       Type             X           Y           Z
 ---------------------------------------------------------------------
      1          6           0        2.849281    0.351960    0.383306
      2          9           0        2.874897    0.257525    1.716014
      3          9           0        2.731161    1.641249    0.062837
      4          6           0        4.090816   -0.248387   -0.225469
      5          9           0        4.206615   -1.537937    0.096538
      6          6           0        4.966589    0.378574   -0.977470
      7          1           0        4.827998    1.421667   -1.209043
      8          1           0        5.826109   -0.146316   -1.365603
      9          9           0        1.752318   -0.282508   -0.041670
 ---------------------------------------------------------------------
                    Distance matrix (angstroms):
                    1          2          3          4          5
     1  C    0.000000
     2  F    1.336295   0.000000
     3  F    1.333761   2.160635   0.000000
     4  C    1.507459   2.346010   2.345742   0.000000
     5  F    2.344419   2.760410   3.505043   1.334180   0.000000
     6  C    2.517025   3.412431   2.770150   1.313608   2.324665
     7  H    2.755933   3.704832   2.462239   2.073628   3.293920
     8  H    3.488333   4.285919   3.848965   2.078838   2.587899
     9  F    1.336593   2.154361   2.160995   2.345958   2.760213
                    6          7          8          9
     6  C    0.000000
     7  H    1.077440   0.000000
     8  H    1.079319   1.865290   0.000000
     9  F    3.412373   3.704967   4.285688   0.000000
 Stoichiometry    C3H2F4
 Framework group  C1[X(C3H2F4)]
 Deg. of freedom    21
 Full point group                 C1      NOp   1
 Largest Abelian subgroup         C1      NOp   1
 Largest concise Abelian subgroup C1      NOp   1
                         Standard orientation:                         
 ---------------------------------------------------------------------
 Center     Atomic      Atomic             Coordinates (Angstroms)
 Number     Number       Type             X           Y           Z
 ---------------------------------------------------------------------
      1          6           0        0.586338    0.042585   -0.000067
      2          9           0        1.073522   -0.580508   -1.077143
      3          9           0        1.052351    1.292286    0.000142
      4          6           0       -0.921007    0.024072   -0.000062
      5          9           0       -1.384574   -1.226984   -0.000251
      6          6           0       -1.709255    1.074895    0.000113
      7          1           0       -1.285351    2.065441    0.000104
      8          1           0       -2.781498    0.951507    0.000286
      9          9           0        1.073189   -0.581045    1.077219
 ---------------------------------------------------------------------
 Rotational constants (GHZ):           3.7319749           2.4697870           2.0065359

 **********************************************************************

            Population analysis using the SCF density.

 **********************************************************************

 Orbital symmetries:
       Occupied  (A) (A) (A) (A) (A) (A) (A) (A) (A) (A) (A) (A)
                 (A) (A) (A) (A) (A) (A) (A) (A) (A) (A) (A) (A)
                 (A) (A) (A) (A)
       Virtual   (A) (A) (A) (A) (A) (A) (A) (A) (A) (A) (A) (A)
                 (A) (A) (A) (A) (A) (A) (A) (A) (A) (A) (A) (A)
                 (A) (A) (A) (A) (A) (A) (A) (A) (A) (A) (A) (A)
                 (A) (A) (A) (A) (A) (A) (A) (A) (A) (A) (A) (A)
                 (A) (A) (A) (A) (A) (A) (A) (A) (A) (A) (A) (A)
                 (A) (A) (A) (A) (A) (A) (A) (A) (A) (A) (A) (A)
                 (A) (A) (A) (A) (A) (A) (A) (A) (A) (A) (A) (A)
                 (A) (A) (A) (A) (A) (A) (A) (A) (A) (A) (A) (A)
                 (A) (A) (A) (A) (A) (A) (A) (A) (A) (A) (A) (A)
                 (A) (A) (A) (A) (A) (A) (A) (A) (A) (A) (A) (A)
                 (A) (A) (A) (A) (A) (A) (A) (A) (A) (A) (A) (A)
                 (A) (A) (A) (A) (A) (A) (A) (A) (A) (A) (A) (A)
                 (A) (A) (A) (A) (A) (A) (A) (A) (A) (A) (A) (A)
                 (A) (A) (A) (A) (A) (A) (A) (A) (A) (A) (A) (A)
                 (A) (A) (A) (A) (A) (A) (A) (A) (A) (A) (A)
 The electronic state is 1-A.
 Alpha  occ. eigenvalues --  -24.86296 -24.85708 -24.85699 -24.85163 -10.56313
 Alpha  occ. eigenvalues --  -10.41095 -10.31801  -1.44741  -1.37002  -1.35530
 Alpha  occ. eigenvalues --   -1.35143  -0.93412  -0.83957  -0.75517  -0.71389
 Alpha  occ. eigenvalues --   -0.71049  -0.69262  -0.61005  -0.59810  -0.58325
 Alpha  occ. eigenvalues --   -0.57590  -0.57246  -0.54988  -0.53845  -0.51987
 Alpha  occ. eigenvalues --   -0.51940  -0.48072  -0.38711
 Alpha virt. eigenvalues --    0.03424   0.06388   0.08710   0.09632   0.10961
 Alpha virt. eigenvalues --    0.11087   0.12247   0.14740   0.15449   0.15880
 Alpha virt. eigenvalues --    0.16405   0.17674   0.19221   0.20862   0.23442
 Alpha virt. eigenvalues --    0.25486   0.25862   0.28808   0.29892   0.31962
 Alpha virt. eigenvalues --    0.33056   0.34459   0.36277   0.36611   0.37654
 Alpha virt. eigenvalues --    0.38495   0.40601   0.41154   0.41156   0.43148
 Alpha virt. eigenvalues --    0.43351   0.44294   0.45296   0.48617   0.51015
 Alpha virt. eigenvalues --    0.51062   0.53769   0.55211   0.58730   0.60011
 Alpha virt. eigenvalues --    0.62313   0.64557   0.66389   0.67064   0.69602
 Alpha virt. eigenvalues --    0.73388   0.73589   0.76217   0.79674   0.80382
 Alpha virt. eigenvalues --    0.88441   0.92149   0.93959   0.95285   0.96594
 Alpha virt. eigenvalues --    1.05340   1.05498   1.09465   1.13272   1.18415
 Alpha virt. eigenvalues --    1.21684   1.24577   1.30629   1.33349   1.36534
 Alpha virt. eigenvalues --    1.37210   1.38960   1.39003   1.42084   1.44392
 Alpha virt. eigenvalues --    1.45855   1.46957   1.47074   1.48066   1.50298
 Alpha virt. eigenvalues --    1.50776   1.52938   1.55950   1.57947   1.58651
 Alpha virt. eigenvalues --    1.61971   1.62483   1.74512   1.84739   1.96179
 Alpha virt. eigenvalues --    1.97687   2.02006   2.04063   2.06815   2.06917
 Alpha virt. eigenvalues --    2.12482   2.17472   2.22382   2.23374   2.24424
 Alpha virt. eigenvalues --    2.24903   2.31838   2.35516   2.53025   2.59474
 Alpha virt. eigenvalues --    2.62136   2.68209   2.68587   2.71252   2.72895
 Alpha virt. eigenvalues --    2.74632   2.90280   2.93577   2.95310   3.03187
 Alpha virt. eigenvalues --    3.17090   3.22842   3.26057   3.27803   3.28276
 Alpha virt. eigenvalues --    3.30053   3.34127   3.41773   3.51584   3.52913
 Alpha virt. eigenvalues --    3.55027   3.55714   3.58551   3.58902   3.65272
 Alpha virt. eigenvalues --    3.71935   3.72560   3.79445   3.86855   3.99535
 Alpha virt. eigenvalues --    4.01948   4.05387   4.15866   4.23467   4.28979
 Alpha virt. eigenvalues --    4.33011   4.42162   4.61762   5.12365   5.13002
 Alpha virt. eigenvalues --    6.40146   6.41020   6.44641   6.45703   6.47528
 Alpha virt. eigenvalues --    6.49214   6.49685   6.55076   6.56506   6.81977
 Alpha virt. eigenvalues --    6.85553   6.94812   9.09040   9.10804   9.12113
 Alpha virt. eigenvalues --    9.15360   9.20359   9.22920   9.23988   9.25125
 Alpha virt. eigenvalues --    9.25535   9.30625   9.37267   9.39059   9.51009
 Alpha virt. eigenvalues --    9.57485   9.69108   9.72013   9.77423   9.80530
 Alpha virt. eigenvalues --    9.86878   9.93849  23.87957  24.06229  24.31301
 Alpha virt. eigenvalues --   66.93996  66.94141  66.95745  67.02812
          Condensed to atoms (all electrons):
               1          2          3          4          5          6
     1  C    4.486360   0.238196   0.193935   0.444842  -0.160605  -0.264414
     2  F    0.238196   9.101546   0.004766  -0.081118   0.020844  -0.002236
     3  F    0.193935   0.004766   9.146872  -0.048691   0.007207   0.012435
     4  C    0.444842  -0.081118  -0.048691   5.292359   0.257739  -0.042752
     5  F   -0.160605   0.020844   0.007207   0.257739   9.265263  -0.113665
     6  C   -0.264414  -0.002236   0.012435  -0.042752  -0.113665   5.814255
     7  H    0.002719   0.000097   0.002498   0.005910   0.007433   0.364622
     8  H    0.010929  -0.000405  -0.000082  -0.021350  -0.005124   0.407672
     9  F    0.238167  -0.009908   0.004802  -0.081126   0.020848  -0.002241
               7          8          9
     1  C    0.002719   0.010929   0.238167
     2  F    0.000097  -0.000405  -0.009908
     3  F    0.002498  -0.000082   0.004802
     4  C    0.005910  -0.021350  -0.081126
     5  F    0.007433  -0.005124   0.020848
     6  C    0.364622   0.407672  -0.002241
     7  H    0.508816  -0.017482   0.000097
     8  H   -0.017482   0.494576  -0.000405
     9  F    0.000097  -0.000405   9.101646
 Mulliken charges:
               1
     1  C    0.809870
     2  F   -0.271781
     3  F   -0.323743
     4  C    0.274188
     5  F   -0.299940
     6  C   -0.173676
     7  H    0.125291
     8  H    0.131670
     9  F   -0.271878
 Sum of Mulliken charges =  -0.00000
 Mulliken charges with hydrogens summed into heavy atoms:
               1
     1  C    0.809870
     2  F   -0.271781
     3  F   -0.323743
     4  C    0.274188
     5  F   -0.299940
     6  C    0.083284
     9  F   -0.271878
 Electronic spatial extent (au):  <R**2>=            617.5529
 Charge=             -0.0000 electrons
 Dipole moment (field-independent basis, Debye):
    X=             -1.6576    Y=              1.5600    Z=             -0.0009  Tot=              2.2762
 Quadrupole moment (field-independent basis, Debye-Ang):
   XX=            -35.5293   YY=            -37.1675   ZZ=            -38.9737
   XY=             -2.7544   XZ=             -0.0019   YZ=              0.0008
 Traceless Quadrupole moment (field-independent basis, Debye-Ang):
   XX=              1.6942   YY=              0.0560   ZZ=             -1.7502
   XY=             -2.7544   XZ=             -0.0019   YZ=              0.0008
 Octapole moment (field-independent basis, Debye-Ang**2):
  XXX=              3.0724  YYY=             -3.0999  ZZZ=             -0.0032  XYY=              2.0425
  XXY=              2.4673  XXZ=              0.0010  XZZ=              4.6299  YZZ=             -3.0918
  YYZ=             -0.0008  XYZ=              0.0004
 Hexadecapole moment (field-independent basis, Debye-Ang**3):
 XXXX=           -321.8876 YYYY=           -189.4388 ZZZZ=           -100.2259 XXXY=              1.1332
 XXXZ=             -0.0078 YYYX=              5.7719 YYYZ=              0.0004 ZZZX=             -0.0012
 ZZZY=              0.0002 XXYY=            -91.9534 XXZZ=            -79.6839 YYZZ=            -51.1461
 XXYZ=              0.0022 YYXZ=             -0.0019 ZZXY=              6.7075
 N-N= 3.337997115960D+02 E-N=-1.888921056654D+03  KE= 5.134987199600D+02
 1\1\GINC-CCLEARCO\FOpt\RwB97XD\6-311+G(2d,2p)\C3H2F4\RAPPE\05-Feb-2026
 \0\\# opt freq wb97xd/6-311+g(2d,2p) geom=connectivity\\Title Card Req
 uired\\0,1\C,2.8492810014,0.3519599037,0.3833059904\F,2.8748970214,0.2
 575254997,1.7160140458\F,2.7311611493,1.6412492053,0.0628374438\C,4.09
 08155697,-0.2483871207,-0.225468984\F,4.2066152294,-1.537936616,0.0965
 377001\C,4.9665893678,0.3785738268,-0.9774701654\H,4.8279977609,1.4216
 667666,-1.2090425622\H,5.8261088009,-0.1463158067,-1.3656028363\F,1.75
 23178592,-0.2825079286,-0.0416697621\\Version=EM64M-G16RevA.03\State=1
 -A\HF=-514.8905589\RMSD=7.977e-09\RMSF=4.094e-05\Dipole=0.6702116,0.29
 20101,-0.5172441\Quadrupole=1.230279,-1.2675151,0.0372361,0.7663784,-1
 .8537605,-0.499855\PG=C01 [X(C3H2F4)]\\@


 HONESTY IN A LAWYER IS LIKE A HEN'S HIND LEGS.
  -- MAGNUS OLESON, LAKE WOBEGON PATRIARCH, C.1875
 Job cpu time:       0 days  0 hours 37 minutes 40.4 seconds.
 Elapsed time:       0 days  0 hours  1 minutes 51.0 seconds.
 File lengths (MBytes):  RWF=     21 Int=      0 D2E=      0 Chk=      4 Scr=      1
 Normal termination of Gaussian 16 at Thu Feb  5 09:49:35 2026.
 Link1:  Proceeding to internal job step number  2.
 ----------------------------------------------------------------------
 #N Geom=AllCheck Guess=TCheck SCRF=Check GenChk RwB97XD/6-311+G(2d,2p)
  Freq
 ----------------------------------------------------------------------
 1/10=4,29=7,30=1,38=1,40=1/1,3;
 2/12=2,40=1/2;
 3/5=4,6=6,7=212,11=2,14=-4,25=1,30=1,70=2,71=2,74=-58,116=1,140=1/1,2,3;
 4/5=101/1;
 5/5=2,38=6,98=1/2;
 8/6=4,10=90,11=11/1;
 11/6=1,8=1,9=11,15=111,16=1/1,2,10;
 10/6=1/2;
 6/7=2,8=2,9=2,10=2,28=1/1;
 7/8=1,10=1,25=1/1,2,3,16;
 1/10=4,30=1/3;
 99//99;
 Structure from the checkpoint file:  "21_propene.chk"
 -------------------
 Title Card Required
 -------------------
 Charge =  0 Multiplicity = 1
 Redundant internal coordinates found in file.  (old form).
 C,0,2.8492810014,0.3519599037,0.3833059904
 F,0,2.8748970214,0.2575254997,1.7160140458
 F,0,2.7311611493,1.6412492053,0.0628374438
 C,0,4.0908155697,-0.2483871207,-0.225468984
 F,0,4.2066152294,-1.537936616,0.0965377001
 C,0,4.9665893678,0.3785738268,-0.9774701654
 H,0,4.8279977609,1.4216667666,-1.2090425622
 H,0,5.8261088009,-0.1463158067,-1.3656028363
 F,0,1.7523178592,-0.2825079286,-0.0416697621
 Recover connectivity data from disk.

 GradGradGradGradGradGradGradGradGradGradGradGradGradGradGradGradGradGrad
 Berny optimization.
 Initialization pass.
                           ----------------------------
                           !    Initial Parameters    !
                           ! (Angstroms and Degrees)  !
 --------------------------                            --------------------------
 ! Name  Definition              Value          Derivative Info.                !
 --------------------------------------------------------------------------------
 ! R1    R(1,2)                  1.3363         calculate D2E/DX2 analytically  !
 ! R2    R(1,3)                  1.3338         calculate D2E/DX2 analytically  !
 ! R3    R(1,4)                  1.5075         calculate D2E/DX2 analytically  !
 ! R4    R(1,9)                  1.3366         calculate D2E/DX2 analytically  !
 ! R5    R(4,5)                  1.3342         calculate D2E/DX2 analytically  !
 ! R6    R(4,6)                  1.3136         calculate D2E/DX2 analytically  !
 ! R7    R(6,7)                  1.0774         calculate D2E/DX2 analytically  !
 ! R8    R(6,8)                  1.0793         calculate D2E/DX2 analytically  !
 ! A1    A(2,1,3)              108.0375         calculate D2E/DX2 analytically  !
 ! A2    A(2,1,4)              111.0281         calculate D2E/DX2 analytically  !
 ! A3    A(2,1,9)              107.4148         calculate D2E/DX2 analytically  !
 ! A4    A(3,1,4)              111.1541         calculate D2E/DX2 analytically  !
 ! A5    A(3,1,9)              108.0461         calculate D2E/DX2 analytically  !
 ! A6    A(4,1,9)              111.0073         calculate D2E/DX2 analytically  !
 ! A7    A(1,4,5)              111.0354         calculate D2E/DX2 analytically  !
 ! A8    A(1,4,6)              126.1708         calculate D2E/DX2 analytically  !
 ! A9    A(5,4,6)              122.7938         calculate D2E/DX2 analytically  !
 ! A10   A(4,6,7)              119.957          calculate D2E/DX2 analytically  !
 ! A11   A(4,6,8)              120.3101         calculate D2E/DX2 analytically  !
 ! A12   A(7,6,8)              119.7329         calculate D2E/DX2 analytically  !
 ! D1    D(2,1,4,5)             59.7056         calculate D2E/DX2 analytically  !
 ! D2    D(2,1,4,6)           -120.295          calculate D2E/DX2 analytically  !
 ! D3    D(3,1,4,5)           -179.9991         calculate D2E/DX2 analytically  !
 ! D4    D(3,1,4,6)              0.0003         calculate D2E/DX2 analytically  !
 ! D5    D(9,1,4,5)            -59.7069         calculate D2E/DX2 analytically  !
 ! D6    D(9,1,4,6)            120.2925         calculate D2E/DX2 analytically  !
 ! D7    D(1,4,6,7)              0.0104         calculate D2E/DX2 analytically  !
 ! D8    D(1,4,6,8)           -179.9885         calculate D2E/DX2 analytically  !
 ! D9    D(5,4,6,7)           -179.9903         calculate D2E/DX2 analytically  !
 ! D10   D(5,4,6,8)              0.0108         calculate D2E/DX2 analytically  !
 --------------------------------------------------------------------------------
 Trust Radius=3.00D-01 FncErr=1.00D-07 GrdErr=1.00D-07 EigMax=2.50D+02 EigMin=1.00D-04
 Number of steps in this run=      2 maximum allowed number of steps=      2.
 GradGradGradGradGradGradGradGradGradGradGradGradGradGradGradGradGradGrad

                          Input orientation:                          
 ---------------------------------------------------------------------
 Center     Atomic      Atomic             Coordinates (Angstroms)
 Number     Number       Type             X           Y           Z
 ---------------------------------------------------------------------
      1          6           0        2.849281    0.351960    0.383306
      2          9           0        2.874897    0.257525    1.716014
      3          9           0        2.731161    1.641249    0.062837
      4          6           0        4.090816   -0.248387   -0.225469
      5          9           0        4.206615   -1.537937    0.096538
      6          6           0        4.966589    0.378574   -0.977470
      7          1           0        4.827998    1.421667   -1.209043
      8          1           0        5.826109   -0.146316   -1.365603
      9          9           0        1.752318   -0.282508   -0.041670
 ---------------------------------------------------------------------
                    Distance matrix (angstroms):
                    1          2          3          4          5
     1  C    0.000000
     2  F    1.336295   0.000000
     3  F    1.333761   2.160635   0.000000
     4  C    1.507459   2.346010   2.345742   0.000000
     5  F    2.344419   2.760410   3.505043   1.334180   0.000000
     6  C    2.517025   3.412431   2.770150   1.313608   2.324665
     7  H    2.755933   3.704832   2.462239   2.073628   3.293920
     8  H    3.488333   4.285919   3.848965   2.078838   2.587899
     9  F    1.336593   2.154361   2.160995   2.345958   2.760213
                    6          7          8          9
     6  C    0.000000
     7  H    1.077440   0.000000
     8  H    1.079319   1.865290   0.000000
     9  F    3.412373   3.704967   4.285688   0.000000
 Stoichiometry    C3H2F4
 Framework group  C1[X(C3H2F4)]
 Deg. of freedom    21
 Full point group                 C1      NOp   1
 Largest Abelian subgroup         C1      NOp   1
 Largest concise Abelian subgroup C1      NOp   1
                         Standard orientation:                         
 ---------------------------------------------------------------------
 Center     Atomic      Atomic             Coordinates (Angstroms)
 Number     Number       Type             X           Y           Z
 ---------------------------------------------------------------------
      1          6           0        0.586338    0.042585   -0.000067
      2          9           0        1.073522   -0.580508   -1.077143
      3          9           0        1.052351    1.292286    0.000142
      4          6           0       -0.921007    0.024072   -0.000062
      5          9           0       -1.384574   -1.226984   -0.000251
      6          6           0       -1.709255    1.074895    0.000113
      7          1           0       -1.285351    2.065441    0.000104
      8          1           0       -2.781498    0.951507    0.000286
      9          9           0        1.073189   -0.581045    1.077219
 ---------------------------------------------------------------------
 Rotational constants (GHZ):           3.7319749           2.4697870           2.0065359
 Standard basis: 6-311+G(2d,2p) (5D, 7F)
 There are   221 symmetry adapted cartesian basis functions of A   symmetry.
 There are   207 symmetry adapted basis functions of A   symmetry.
   207 basis functions,   316 primitive gaussians,   221 cartesian basis functions
    28 alpha electrons       28 beta electrons
       nuclear repulsion energy       333.8023853276 Hartrees.
 NAtoms=    9 NActive=    9 NUniq=    9 SFac= 1.00D+00 NAtFMM=   60 NAOKFM=F Big=F
 Integral buffers will be    131072 words long.
 Raffenetti 2 integral format.
 Two-electron integral symmetry is turned on.
 Nuclear repulsion after empirical dispersion term =      333.7997115960 Hartrees.
 One-electron integrals computed using PRISM.
 NBasis=   207 RedAO= T EigKep=  5.00D-05  NBF=   207
 NBsUse=   207 1.00D-06 EigRej= -1.00D+00 NBFU=   207
 Initial guess from the checkpoint file:  "21_propene.chk"
 B after Tr=     0.000000   -0.000000    0.000000
         Rot=    1.000000   -0.000000    0.000000   -0.000000 Ang=   0.00 deg.
 Keep R1 ints in memory in canonical form, NReq=488665991.
 Requested convergence on RMS density matrix=1.00D-08 within 128 cycles.
 Requested convergence on MAX density matrix=1.00D-06.
 Requested convergence on             energy=1.00D-06.
 No special actions if energy rises.
 SCF Done:  E(RwB97XD) =  -514.890558883     A.U. after    1 cycles
            NFock=  1  Conv=0.35D-08     -V/T= 2.0027
 DoSCS=F DFT=T ScalE2(SS,OS)=  1.000000  1.000000
 Range of M.O.s used for correlation:     1   207
 NBasis=   207 NAE=    28 NBE=    28 NFC=     0 NFV=     0
 NROrb=    207 NOA=    28 NOB=    28 NVA=   179 NVB=   179

 **** Warning!!: The largest alpha MO coefficient is  0.64228708D+02

 Symmetrizing basis deriv contribution to polar:
 IMax=3 JMax=2 DiffMx= 0.00D+00
 G2DrvN: will do    10 centers at a time, making    1 passes.
 Calling FoFCou, ICntrl=  3107 FMM=F I1Cent=   0 AccDes= 0.00D+00.
 End of G2Drv F.D. properties file   721 does not exist.
 End of G2Drv F.D. properties file   722 does not exist.
 End of G2Drv F.D. properties file   788 does not exist.
          IDoAtm=111111111
          Differentiating once with respect to electric field.
                with respect to dipole field.
          Differentiating once with respect to nuclear coordinates.
 Keep R1 ints in memory in canonical form, NReq=488590765.
          There are    30 degrees of freedom in the 1st order CPHF.  IDoFFX=6 NUNeed=     3.
     27 vectors produced by pass  0 Test12= 1.67D-14 3.33D-09 XBig12= 1.61D+01 2.07D+00.
 AX will form    27 AO Fock derivatives at one time.
     27 vectors produced by pass  1 Test12= 1.67D-14 3.33D-09 XBig12= 2.30D+00 3.13D-01.
     27 vectors produced by pass  2 Test12= 1.67D-14 3.33D-09 XBig12= 7.13D-02 5.87D-02.
     27 vectors produced by pass  3 Test12= 1.67D-14 3.33D-09 XBig12= 1.07D-03 7.05D-03.
     27 vectors produced by pass  4 Test12= 1.67D-14 3.33D-09 XBig12= 1.41D-05 7.81D-04.
     27 vectors produced by pass  5 Test12= 1.67D-14 3.33D-09 XBig12= 9.85D-08 6.84D-05.
     26 vectors produced by pass  6 Test12= 1.67D-14 3.33D-09 XBig12= 6.47D-10 4.88D-06.
      9 vectors produced by pass  7 Test12= 1.67D-14 3.33D-09 XBig12= 3.59D-12 3.14D-07.
      3 vectors produced by pass  8 Test12= 1.67D-14 3.33D-09 XBig12= 2.05D-14 2.27D-08.
 InvSVY:  IOpt=1 It=  1 EMax= 1.22D-15
 Solved reduced A of dimension   200 with    30 vectors.
 Isotropic polarizability for W=    0.000000       39.13 Bohr**3.
 End of Minotr F.D. properties file   721 does not exist.
 End of Minotr F.D. properties file   722 does not exist.
 End of Minotr F.D. properties file   788 does not exist.

 **********************************************************************

            Population analysis using the SCF density.

 **********************************************************************

 Orbital symmetries:
       Occupied  (A) (A) (A) (A) (A) (A) (A) (A) (A) (A) (A) (A)
                 (A) (A) (A) (A) (A) (A) (A) (A) (A) (A) (A) (A)
                 (A) (A) (A) (A)
       Virtual   (A) (A) (A) (A) (A) (A) (A) (A) (A) (A) (A) (A)
                 (A) (A) (A) (A) (A) (A) (A) (A) (A) (A) (A) (A)
                 (A) (A) (A) (A) (A) (A) (A) (A) (A) (A) (A) (A)
                 (A) (A) (A) (A) (A) (A) (A) (A) (A) (A) (A) (A)
                 (A) (A) (A) (A) (A) (A) (A) (A) (A) (A) (A) (A)
                 (A) (A) (A) (A) (A) (A) (A) (A) (A) (A) (A) (A)
                 (A) (A) (A) (A) (A) (A) (A) (A) (A) (A) (A) (A)
                 (A) (A) (A) (A) (A) (A) (A) (A) (A) (A) (A) (A)
                 (A) (A) (A) (A) (A) (A) (A) (A) (A) (A) (A) (A)
                 (A) (A) (A) (A) (A) (A) (A) (A) (A) (A) (A) (A)
                 (A) (A) (A) (A) (A) (A) (A) (A) (A) (A) (A) (A)
                 (A) (A) (A) (A) (A) (A) (A) (A) (A) (A) (A) (A)
                 (A) (A) (A) (A) (A) (A) (A) (A) (A) (A) (A) (A)
                 (A) (A) (A) (A) (A) (A) (A) (A) (A) (A) (A) (A)
                 (A) (A) (A) (A) (A) (A) (A) (A) (A) (A) (A)
 The electronic state is 1-A.
 Alpha  occ. eigenvalues --  -24.86296 -24.85708 -24.85699 -24.85163 -10.56313
 Alpha  occ. eigenvalues --  -10.41095 -10.31801  -1.44741  -1.37002  -1.35530
 Alpha  occ. eigenvalues --   -1.35143  -0.93412  -0.83957  -0.75517  -0.71389
 Alpha  occ. eigenvalues --   -0.71049  -0.69262  -0.61005  -0.59810  -0.58325
 Alpha  occ. eigenvalues --   -0.57590  -0.57246  -0.54988  -0.53845  -0.51987
 Alpha  occ. eigenvalues --   -0.51940  -0.48072  -0.38711
 Alpha virt. eigenvalues --    0.03424   0.06388   0.08710   0.09632   0.10961
 Alpha virt. eigenvalues --    0.11087   0.12247   0.14740   0.15449   0.15880
 Alpha virt. eigenvalues --    0.16405   0.17674   0.19221   0.20862   0.23442
 Alpha virt. eigenvalues --    0.25486   0.25862   0.28808   0.29892   0.31962
 Alpha virt. eigenvalues --    0.33056   0.34459   0.36277   0.36611   0.37654
 Alpha virt. eigenvalues --    0.38495   0.40601   0.41154   0.41156   0.43148
 Alpha virt. eigenvalues --    0.43351   0.44294   0.45296   0.48617   0.51015
 Alpha virt. eigenvalues --    0.51062   0.53769   0.55211   0.58730   0.60011
 Alpha virt. eigenvalues --    0.62313   0.64557   0.66389   0.67064   0.69602
 Alpha virt. eigenvalues --    0.73388   0.73590   0.76217   0.79674   0.80382
 Alpha virt. eigenvalues --    0.88441   0.92149   0.93959   0.95285   0.96594
 Alpha virt. eigenvalues --    1.05340   1.05498   1.09465   1.13272   1.18415
 Alpha virt. eigenvalues --    1.21684   1.24577   1.30629   1.33349   1.36534
 Alpha virt. eigenvalues --    1.37210   1.38960   1.39003   1.42084   1.44392
 Alpha virt. eigenvalues --    1.45855   1.46957   1.47074   1.48066   1.50298
 Alpha virt. eigenvalues --    1.50776   1.52938   1.55950   1.57947   1.58651
 Alpha virt. eigenvalues --    1.61971   1.62483   1.74512   1.84739   1.96179
 Alpha virt. eigenvalues --    1.97687   2.02006   2.04063   2.06815   2.06917
 Alpha virt. eigenvalues --    2.12482   2.17472   2.22382   2.23374   2.24424
 Alpha virt. eigenvalues --    2.24903   2.31838   2.35516   2.53025   2.59474
 Alpha virt. eigenvalues --    2.62136   2.68209   2.68587   2.71252   2.72895
 Alpha virt. eigenvalues --    2.74632   2.90280   2.93577   2.95310   3.03187
 Alpha virt. eigenvalues --    3.17090   3.22842   3.26057   3.27803   3.28276
 Alpha virt. eigenvalues --    3.30053   3.34127   3.41773   3.51584   3.52913
 Alpha virt. eigenvalues --    3.55027   3.55714   3.58551   3.58902   3.65272
 Alpha virt. eigenvalues --    3.71935   3.72560   3.79445   3.86855   3.99535
 Alpha virt. eigenvalues --    4.01948   4.05387   4.15866   4.23467   4.28979
 Alpha virt. eigenvalues --    4.33011   4.42162   4.61762   5.12365   5.13002
 Alpha virt. eigenvalues --    6.40146   6.41020   6.44641   6.45703   6.47528
 Alpha virt. eigenvalues --    6.49214   6.49685   6.55076   6.56506   6.81977
 Alpha virt. eigenvalues --    6.85553   6.94812   9.09040   9.10804   9.12113
 Alpha virt. eigenvalues --    9.15360   9.20359   9.22920   9.23988   9.25125
 Alpha virt. eigenvalues --    9.25535   9.30625   9.37267   9.39059   9.51009
 Alpha virt. eigenvalues --    9.57485   9.69108   9.72013   9.77423   9.80530
 Alpha virt. eigenvalues --    9.86878   9.93849  23.87957  24.06229  24.31301
 Alpha virt. eigenvalues --   66.93996  66.94141  66.95745  67.02812
          Condensed to atoms (all electrons):
               1          2          3          4          5          6
     1  C    4.486360   0.238196   0.193935   0.444842  -0.160605  -0.264414
     2  F    0.238196   9.101546   0.004766  -0.081118   0.020844  -0.002236
     3  F    0.193935   0.004766   9.146872  -0.048691   0.007207   0.012435
     4  C    0.444842  -0.081118  -0.048691   5.292360   0.257739  -0.042752
     5  F   -0.160605   0.020844   0.007207   0.257739   9.265263  -0.113665
     6  C   -0.264414  -0.002236   0.012435  -0.042752  -0.113665   5.814254
     7  H    0.002719   0.000097   0.002498   0.005910   0.007433   0.364622
     8  H    0.010929  -0.000405  -0.000082  -0.021350  -0.005124   0.407672
     9  F    0.238167  -0.009908   0.004802  -0.081126   0.020848  -0.002241
               7          8          9
     1  C    0.002719   0.010929   0.238167
     2  F    0.000097  -0.000405  -0.009908
     3  F    0.002498  -0.000082   0.004802
     4  C    0.005910  -0.021350  -0.081126
     5  F    0.007433  -0.005124   0.020848
     6  C    0.364622   0.407672  -0.002241
     7  H    0.508816  -0.017482   0.000097
     8  H   -0.017482   0.494576  -0.000405
     9  F    0.000097  -0.000405   9.101645
 Mulliken charges:
               1
     1  C    0.809870
     2  F   -0.271781
     3  F   -0.323743
     4  C    0.274187
     5  F   -0.299940
     6  C   -0.173676
     7  H    0.125291
     8  H    0.131670
     9  F   -0.271878
 Sum of Mulliken charges =  -0.00000
 Mulliken charges with hydrogens summed into heavy atoms:
               1
     1  C    0.809870
     2  F   -0.271781
     3  F   -0.323743
     4  C    0.274187
     5  F   -0.299940
     6  C    0.083285
     9  F   -0.271878
 APT charges:
               1
     1  C    1.690913
     2  F   -0.564215
     3  F   -0.519269
     4  C    0.458957
     5  F   -0.490936
     6  C   -0.206479
     7  H    0.099399
     8  H    0.095929
     9  F   -0.564298
 Sum of APT charges =   0.00000
 APT charges with hydrogens summed into heavy atoms:
               1
     1  C    1.690913
     2  F   -0.564215
     3  F   -0.519269
     4  C    0.458957
     5  F   -0.490936
     6  C   -0.011152
     9  F   -0.564298
 Electronic spatial extent (au):  <R**2>=            617.5529
 Charge=              0.0000 electrons
 Dipole moment (field-independent basis, Debye):
    X=             -1.6576    Y=              1.5600    Z=             -0.0009  Tot=              2.2762
 Quadrupole moment (field-independent basis, Debye-Ang):
   XX=            -35.5293   YY=            -37.1675   ZZ=            -38.9737
   XY=             -2.7544   XZ=             -0.0019   YZ=              0.0008
 Traceless Quadrupole moment (field-independent basis, Debye-Ang):
   XX=              1.6942   YY=              0.0560   ZZ=             -1.7502
   XY=             -2.7544   XZ=             -0.0019   YZ=              0.0008
 Octapole moment (field-independent basis, Debye-Ang**2):
  XXX=              3.0724  YYY=             -3.0999  ZZZ=             -0.0032  XYY=              2.0425
  XXY=              2.4673  XXZ=              0.0010  XZZ=              4.6299  YZZ=             -3.0918
  YYZ=             -0.0008  XYZ=              0.0004
 Hexadecapole moment (field-independent basis, Debye-Ang**3):
 XXXX=           -321.8876 YYYY=           -189.4388 ZZZZ=           -100.2259 XXXY=              1.1332
 XXXZ=             -0.0078 YYYX=              5.7719 YYYZ=              0.0004 ZZZX=             -0.0012
 ZZZY=              0.0002 XXYY=            -91.9534 XXZZ=            -79.6839 YYZZ=            -51.1461
 XXYZ=              0.0022 YYXZ=             -0.0019 ZZXY=              6.7075
 N-N= 3.337997115960D+02 E-N=-1.888921052272D+03  KE= 5.134987168152D+02
  Exact polarizability:  42.606  -6.223  43.375  -0.001   0.000  31.411
 Approx polarizability:  41.540  -5.977  48.829  -0.001   0.000  35.007
 Calling FoFJK, ICntrl=    100127 FMM=F ISym2X=0 I1Cent= 0 IOpClX= 0 NMat=1 NMatS=1 NMatT=0.
 Full mass-weighted force constant matrix:
 Low frequencies ---   -3.7052   -2.8714   -0.0010   -0.0006    0.0007    4.7884
 Low frequencies ---   67.0983  237.9033  239.5464
 Diagonal vibrational polarizability:
        7.1805045       9.2159439      15.1555563
 Harmonic frequencies (cm**-1), IR intensities (KM/Mole), Raman scattering
 activities (A**4/AMU), depolarization ratios for plane and unpolarized
 incident light, reduced masses (AMU), force constants (mDyne/A),
 and normal coordinates:
                      1                      2                      3
                      A                      A                      A
 Frequencies --     67.0975               237.9032               239.5462
 Red. masses --      7.1476                 9.5913                 8.1185
 Frc consts  --      0.0190                 0.3198                 0.2745
 IR Inten    --      1.2345                 1.0683                 0.0153
  Atom  AN      X      Y      Z        X      Y      Z        X      Y      Z
     1   6     0.00  -0.00  -0.01    -0.03   0.12   0.01     0.00  -0.00   0.19
     2   9     0.00   0.18  -0.12    -0.27  -0.03  -0.02    -0.36  -0.04   0.04
     3   9    -0.00  -0.00   0.19     0.35  -0.03   0.00    -0.01   0.00   0.09
     4   6     0.00  -0.00  -0.01     0.00   0.14   0.01    -0.00  -0.00   0.16
     5   9    -0.00  -0.00   0.35     0.39  -0.01  -0.01    -0.01   0.00  -0.19
     6   6     0.00   0.00  -0.38    -0.28  -0.07  -0.01     0.01   0.00  -0.24
     7   1     0.00   0.00  -0.66    -0.53   0.04  -0.00     0.02  -0.00  -0.08
     8   1     0.00   0.00  -0.41    -0.24  -0.37  -0.03     0.01   0.01  -0.74
     9   9    -0.00  -0.18  -0.12    -0.24  -0.03   0.02     0.38   0.05   0.04
                      4                      5                      6
                      A                      A                      A
 Frequencies --    370.8568               421.4672               502.2822
 Red. masses --      4.3262                10.0897                11.3610
 Frc consts  --      0.3506                 1.0560                 1.6887
 IR Inten    --      0.5243                 1.3606                 0.5888
  Atom  AN      X      Y      Z        X      Y      Z        X      Y      Z
     1   6    -0.07  -0.01   0.00    -0.00   0.03  -0.00    -0.00  -0.00  -0.20
     2   9    -0.13  -0.01  -0.03    -0.11   0.26  -0.17    -0.06  -0.33  -0.12
     3   9    -0.17   0.03  -0.00     0.33  -0.08   0.00    -0.00  -0.00   0.46
     4   6     0.05  -0.04   0.00    -0.04  -0.25  -0.00    -0.00   0.00  -0.36
     5   9     0.22  -0.09  -0.00    -0.24  -0.23  -0.00     0.00   0.00   0.07
     6   6     0.28   0.13   0.00     0.19  -0.11   0.00    -0.00   0.00   0.06
     7   1     0.65  -0.03  -0.00     0.54  -0.26   0.00    -0.00   0.00  -0.08
     8   1     0.24   0.54   0.00     0.15   0.27   0.00    -0.00  -0.00   0.59
     9   9    -0.13  -0.01   0.03    -0.11   0.26   0.17     0.06   0.33  -0.12
                      7                      8                      9
                      A                      A                      A
 Frequencies --    578.7549               619.8410               690.8684
 Red. masses --      6.4676                 6.3242                 6.6140
 Frc consts  --      1.2764                 1.4316                 1.8600
 IR Inten    --      7.4589                21.8890                 0.8767
  Atom  AN      X      Y      Z        X      Y      Z        X      Y      Z
     1   6     0.08  -0.17  -0.00     0.13   0.11   0.00     0.00  -0.00  -0.11
     2   9    -0.02   0.07  -0.26    -0.13  -0.10   0.03     0.14  -0.13  -0.12
     3   9    -0.17  -0.19  -0.00     0.01   0.29   0.00    -0.00  -0.00   0.09
     4   6     0.19   0.07   0.00     0.28  -0.09  -0.00     0.00  -0.00   0.55
     5   9     0.04   0.20   0.00    -0.14   0.08   0.00    -0.00   0.00  -0.06
     6   6     0.02  -0.08   0.00     0.20  -0.24  -0.00     0.00  -0.00  -0.04
     7   1    -0.47   0.13   0.00    -0.18  -0.09   0.00    -0.00  -0.00  -0.01
     8   1     0.08  -0.65  -0.00     0.25  -0.72   0.00     0.00  -0.00  -0.75
     9   9    -0.02   0.07   0.26    -0.13  -0.10  -0.03    -0.14   0.13  -0.12
                     10                     11                     12
                      A                      A                      A
 Frequencies --    762.6287               800.5812               948.2696
 Red. masses --      1.1057                 9.4209                 1.3735
 Frc consts  --      0.3789                 3.5576                 0.7277
 IR Inten    --      0.8293                 2.2133                49.6611
  Atom  AN      X      Y      Z        X      Y      Z        X      Y      Z
     1   6    -0.00  -0.00   0.00     0.20  -0.00  -0.00     0.00   0.00  -0.00
     2   9     0.01  -0.00  -0.01     0.05  -0.17  -0.31     0.00  -0.00  -0.00
     3   9    -0.00  -0.00  -0.00     0.02   0.33   0.00    -0.00  -0.00   0.00
     4   6     0.00   0.00  -0.07    -0.16   0.04   0.00    -0.00  -0.00   0.07
     5   9     0.00   0.00   0.05    -0.02  -0.14   0.00     0.00   0.00  -0.00
     6   6     0.00  -0.00   0.01    -0.20   0.15   0.00    -0.00  -0.00  -0.17
     7   1     0.00  -0.00   0.79     0.14   0.03   0.00     0.00  -0.00   0.66
     8   1    -0.00  -0.00  -0.61    -0.25   0.63  -0.00     0.00   0.00   0.73
     9   9    -0.01   0.00  -0.01     0.05  -0.17   0.31    -0.00   0.00  -0.00
                     13                     14                     15
                      A                      A                      A
 Frequencies --    969.1569              1171.9804              1179.5230
 Red. masses --      2.0864                 5.2684                12.3159
 Frc consts  --      1.1546                 4.2635                10.0955
 IR Inten    --     25.1268               194.0085               316.9257
  Atom  AN      X      Y      Z        X      Y      Z        X      Y      Z
     1   6    -0.01   0.02  -0.00     0.42  -0.03   0.02    -0.02  -0.01   0.88
     2   9     0.01  -0.01  -0.01    -0.07   0.04   0.07     0.10  -0.10  -0.23
     3   9    -0.00  -0.00   0.00    -0.08  -0.09  -0.00     0.01   0.01  -0.06
     4   6    -0.03  -0.08  -0.00     0.23   0.16  -0.00    -0.01  -0.01  -0.09
     5   9     0.04   0.17   0.00    -0.07  -0.12   0.00     0.00   0.01   0.00
     6   6    -0.07  -0.19   0.00    -0.17  -0.01   0.00     0.01   0.00   0.01
     7   1     0.63  -0.49  -0.00     0.20  -0.14  -0.00    -0.01   0.01  -0.11
     8   1    -0.14   0.52  -0.00    -0.26   0.72   0.01     0.01  -0.04   0.22
     9   9     0.01  -0.01   0.01    -0.08   0.05  -0.08    -0.09   0.10  -0.22
                     16                     17                     18
                      A                      A                      A
 Frequencies --   1213.3537              1386.9175              1432.5032
 Red. masses --     12.8036                 4.6611                 1.3036
 Frc consts  --     11.1060                 5.2825                 1.5761
 IR Inten    --    316.1027               131.0537                57.7438
  Atom  AN      X      Y      Z        X      Y      Z        X      Y      Z
     1   6    -0.01   0.91   0.01     0.33   0.03  -0.00    -0.10  -0.02   0.00
     2   9     0.05  -0.11  -0.09    -0.04   0.02   0.03     0.01  -0.00  -0.01
     3   9    -0.10  -0.29  -0.00    -0.03  -0.03   0.00     0.01   0.01   0.00
     4   6     0.06   0.01  -0.00    -0.27  -0.32  -0.00     0.11  -0.04  -0.00
     5   9    -0.05  -0.07   0.00     0.06   0.12   0.00    -0.01   0.00  -0.00
     6   6     0.04  -0.02   0.00     0.08   0.06  -0.00     0.01  -0.05  -0.00
     7   1    -0.10   0.05  -0.00    -0.71   0.39   0.00    -0.62   0.23   0.00
     8   1     0.04   0.07   0.00     0.05   0.17  -0.00    -0.08   0.73   0.00
     9   9     0.05  -0.11   0.09    -0.04   0.02  -0.03     0.01  -0.00   0.01
                     19                     20                     21
                      A                      A                      A
 Frequencies --   1779.0736              3200.9620              3303.6772
 Red. masses --      6.9327                 1.0626                 1.1187
 Frc consts  --     12.9284                 6.4149                 7.1940
 IR Inten    --     53.3926                 3.6382                 1.2584
  Atom  AN      X      Y      Z        X      Y      Z        X      Y      Z
     1   6     0.08  -0.02  -0.00    -0.00   0.00   0.00     0.00  -0.00  -0.00
     2   9     0.00  -0.00  -0.00    -0.00   0.00   0.00     0.00   0.00  -0.00
     3   9    -0.01  -0.01  -0.00     0.00  -0.00   0.00    -0.00   0.00  -0.00
     4   6    -0.35   0.44   0.00     0.01  -0.01  -0.00    -0.00  -0.00   0.00
     5   9    -0.00  -0.05  -0.00    -0.00  -0.00  -0.00     0.00   0.00   0.00
     6   6     0.29  -0.36  -0.00    -0.05   0.05   0.00    -0.08  -0.07   0.00
     7   1    -0.48  -0.12   0.00    -0.25  -0.58   0.00     0.30   0.72   0.00
     8   1     0.29   0.36   0.00     0.77   0.09  -0.00     0.62   0.06  -0.00
     9   9     0.00  -0.00   0.00    -0.00   0.00  -0.00     0.00   0.00   0.00

 -------------------
 - Thermochemistry -
 -------------------
 Temperature   298.150 Kelvin.  Pressure   1.00000 Atm.
 Atom     1 has atomic number  6 and mass  12.00000
 Atom     2 has atomic number  9 and mass  18.99840
 Atom     3 has atomic number  9 and mass  18.99840
 Atom     4 has atomic number  6 and mass  12.00000
 Atom     5 has atomic number  9 and mass  18.99840
 Atom     6 has atomic number  6 and mass  12.00000
 Atom     7 has atomic number  1 and mass   1.00783
 Atom     8 has atomic number  1 and mass   1.00783
 Atom     9 has atomic number  9 and mass  18.99840
 Molecular mass:   114.00926 amu.
 Principal axes and moments of inertia in atomic units:
                           1         2         3
     Eigenvalues --   483.58878 730.72748 899.43133
           X            0.99439  -0.10577  -0.00001
           Y            0.10577   0.99439   0.00001
           Z            0.00001  -0.00002   1.00000
 This molecule is an asymmetric top.
 Rotational symmetry number  1.
 Warning -- assumption of classical behavior for rotation
           may cause significant error
 Rotational temperatures (Kelvin)      0.17911     0.11853     0.09630
 Rotational constants (GHZ):           3.73197     2.46979     2.00654
 Zero-point vibrational energy     130855.0 (Joules/Mol)
                                   31.27509 (Kcal/Mol)
 Warning -- explicit consideration of   8 degrees of freedom as
           vibrations may cause significant error
 Vibrational temperatures:     96.54   342.29   344.65   533.58   606.40
          (Kelvin)            722.67   832.70   891.81   994.01  1097.25
                             1151.86  1364.35  1394.40  1686.22  1697.07
                             1745.75  1995.47  2061.05  2559.69  4605.47
                             4753.25
 
 Zero-point correction=                           0.049840 (Hartree/Particle)
 Thermal correction to Energy=                    0.056088
 Thermal correction to Enthalpy=                  0.057033
 Thermal correction to Gibbs Free Energy=         0.019070
 Sum of electronic and zero-point Energies=           -514.840719
 Sum of electronic and thermal Energies=              -514.834470
 Sum of electronic and thermal Enthalpies=            -514.833526
 Sum of electronic and thermal Free Energies=         -514.871489
 
                     E (Thermal)             CV                S
                      KCal/Mol        Cal/Mol-Kelvin    Cal/Mol-Kelvin
 Total                   35.196             21.694             79.899
 Electronic               0.000              0.000              0.000
 Translational            0.889              2.981             40.109
 Rotational               0.889              2.981             27.255
 Vibrational             33.419             15.732             12.535
 Vibration     1          0.598              1.970              4.237
 Vibration     2          0.656              1.783              1.819
 Vibration     3          0.657              1.780              1.806
 Vibration     4          0.743              1.532              1.076
 Vibration     5          0.784              1.424              0.887
 Vibration     6          0.858              1.245              0.652
 Vibration     7          0.935              1.077              0.488
 Vibration     8          0.980              0.990              0.417
                       Q            Log10(Q)             Ln(Q)
 Total Bot       0.169177D-08         -8.771660        -20.197493
 Total V=0       0.142279D+15         14.153142         32.588814
 Vib (Bot)       0.175199D-21        -21.756469        -50.096122
 Vib (Bot)    1  0.307496D+01          0.487839          1.123292
 Vib (Bot)    2  0.824988D+00         -0.083553         -0.192387
 Vib (Bot)    3  0.818719D+00         -0.086865         -0.200014
 Vib (Bot)    4  0.490627D+00         -0.309249         -0.712072
 Vib (Bot)    5  0.416146D+00         -0.380754         -0.876718
 Vib (Bot)    6  0.326549D+00         -0.486052         -1.119176
 Vib (Bot)    7  0.263621D+00         -0.579020         -1.333243
 Vib (Bot)    8  0.235972D+00         -0.627140         -1.444043
 Vib (V=0)       0.147344D+02          1.168333          2.690186
 Vib (V=0)    1  0.361534D+01          0.558150          1.285187
 Vib (V=0)    2  0.146468D+01          0.165742          0.381636
 Vib (V=0)    3  0.145932D+01          0.164152          0.377973
 Vib (V=0)    4  0.120051D+01          0.079366          0.182747
 Vib (V=0)    5  0.115052D+01          0.060895          0.140215
 Vib (V=0)    6  0.109719D+01          0.040281          0.092751
 Vib (V=0)    7  0.106524D+01          0.027447          0.063200
 Vib (V=0)    8  0.105289D+01          0.022381          0.051535
 Electronic      0.100000D+01          0.000000          0.000000
 Translational   0.478480D+08          7.679864         17.683541
 Rotational      0.201811D+06          5.304945         12.215088
 ***** Axes restored to original set *****
 -------------------------------------------------------------------
 Center     Atomic                   Forces (Hartrees/Bohr)
 Number     Number              X              Y              Z
 -------------------------------------------------------------------
      1        6          -0.000043987   -0.000076526   -0.000092178
      2        9           0.000010845   -0.000036117    0.000061439
      3        9          -0.000013828    0.000035032   -0.000035029
      4        6          -0.000047462   -0.000029525    0.000054695
      5        9           0.000004223    0.000020825   -0.000015746
      6        6          -0.000004681    0.000029068   -0.000008227
      7        1          -0.000000824   -0.000003481   -0.000005696
      8        1           0.000004697   -0.000000000    0.000004437
      9        9           0.000091017    0.000060724    0.000036305
 -------------------------------------------------------------------
 Cartesian Forces:  Max     0.000092178 RMS     0.000040941
 FormGI is forming the generalized inverse of G from B-inverse, IUseBI=4.

 GradGradGradGradGradGradGradGradGradGradGradGradGradGradGradGradGradGrad
 Berny optimization.
 Internal  Forces:  Max     0.000115692 RMS     0.000030148
 Search for a local minimum.
 Step number   1 out of a maximum of    2
 All quantities printed in internal units (Hartrees-Bohrs-Radians)
 Second derivative matrix not updated -- analytic derivatives used.
 ITU=  0
     Eigenvalues ---    0.00303   0.02168   0.03407   0.04142   0.09879
     Eigenvalues ---    0.10618   0.12406   0.13262   0.18038   0.21259
     Eigenvalues ---    0.22474   0.25307   0.27124   0.36963   0.37091
     Eigenvalues ---    0.37527   0.37950   0.40905   0.44355   0.54293
     Eigenvalues ---    0.67259
 Angle between quadratic step and forces=  36.10 degrees.
 Linear search not attempted -- first point.
 Iteration  1 RMS(Cart)=  0.00015868 RMS(Int)=  0.00000002
 Iteration  2 RMS(Cart)=  0.00000002 RMS(Int)=  0.00000000
 Variable       Old X    -DE/DX   Delta X   Delta X   Delta X     New X
                                 (Linear)    (Quad)   (Total)
    R1        2.52523   0.00006   0.00000   0.00022   0.00022   2.52545
    R2        2.52044   0.00005   0.00000   0.00013   0.00013   2.52057
    R3        2.84868  -0.00005   0.00000  -0.00017  -0.00017   2.84852
    R4        2.52580  -0.00012   0.00000  -0.00034  -0.00034   2.52545
    R5        2.52123  -0.00002   0.00000  -0.00006  -0.00006   2.52117
    R6        2.48236   0.00001   0.00000   0.00003   0.00003   2.48239
    R7        2.03607  -0.00000   0.00000  -0.00002  -0.00002   2.03605
    R8        2.03962   0.00000   0.00000   0.00001   0.00001   2.03963
    A1        1.88561   0.00004   0.00000   0.00010   0.00010   1.88571
    A2        1.93781  -0.00003   0.00000  -0.00019  -0.00019   1.93762
    A3        1.87474   0.00000   0.00000  -0.00001  -0.00001   1.87474
    A4        1.94001  -0.00001   0.00000  -0.00002  -0.00002   1.93998
    A5        1.88576  -0.00001   0.00000  -0.00005  -0.00005   1.88571
    A6        1.93744   0.00001   0.00000   0.00018   0.00018   1.93762
    A7        1.93793   0.00002   0.00000   0.00009   0.00009   1.93803
    A8        2.20210  -0.00002   0.00000  -0.00007  -0.00007   2.20203
    A9        2.14316  -0.00000   0.00000  -0.00003  -0.00003   2.14313
   A10        2.09364   0.00001   0.00000   0.00009   0.00009   2.09373
   A11        2.09981  -0.00001   0.00000  -0.00009  -0.00009   2.09972
   A12        2.08973  -0.00000   0.00000  -0.00000  -0.00000   2.08973
    D1        1.04206  -0.00001   0.00000   0.00001   0.00001   1.04207
    D2       -2.09954  -0.00001   0.00000   0.00002   0.00002  -2.09953
    D3       -3.14158   0.00001   0.00000  -0.00001  -0.00001  -3.14159
    D4        0.00001   0.00001   0.00000  -0.00000  -0.00000   0.00000
    D5       -1.04208  -0.00000   0.00000   0.00002   0.00002  -1.04206
    D6        2.09950  -0.00000   0.00000   0.00003   0.00003   2.09953
    D7        0.00018  -0.00000   0.00000  -0.00018  -0.00018   0.00000
    D8       -3.14139  -0.00000   0.00000  -0.00020  -0.00020  -3.14159
    D9       -3.14142  -0.00001   0.00000  -0.00017  -0.00017   3.14159
   D10        0.00019  -0.00001   0.00000  -0.00019  -0.00019  -0.00000
         Item               Value     Threshold  Converged?
 Maximum Force            0.000116     0.000450     YES
 RMS     Force            0.000030     0.000300     YES
 Maximum Displacement     0.000446     0.001800     YES
 RMS     Displacement     0.000159     0.001200     YES
 Predicted change in Energy=-4.538357D-08
 Optimization completed.
    -- Stationary point found.
                           ----------------------------
                           !   Optimized Parameters   !
                           ! (Angstroms and Degrees)  !
 --------------------------                            --------------------------
 ! Name  Definition              Value          Derivative Info.                !
 --------------------------------------------------------------------------------
 ! R1    R(1,2)                  1.3363         -DE/DX =    0.0001              !
 ! R2    R(1,3)                  1.3338         -DE/DX =    0.0                 !
 ! R3    R(1,4)                  1.5075         -DE/DX =   -0.0001              !
 ! R4    R(1,9)                  1.3366         -DE/DX =   -0.0001              !
 ! R5    R(4,5)                  1.3342         -DE/DX =    0.0                 !
 ! R6    R(4,6)                  1.3136         -DE/DX =    0.0                 !
 ! R7    R(6,7)                  1.0774         -DE/DX =    0.0                 !
 ! R8    R(6,8)                  1.0793         -DE/DX =    0.0                 !
 ! A1    A(2,1,3)              108.0375         -DE/DX =    0.0                 !
 ! A2    A(2,1,4)              111.0281         -DE/DX =    0.0                 !
 ! A3    A(2,1,9)              107.4148         -DE/DX =    0.0                 !
 ! A4    A(3,1,4)              111.1541         -DE/DX =    0.0                 !
 ! A5    A(3,1,9)              108.0461         -DE/DX =    0.0                 !
 ! A6    A(4,1,9)              111.0073         -DE/DX =    0.0                 !
 ! A7    A(1,4,5)              111.0354         -DE/DX =    0.0                 !
 ! A8    A(1,4,6)              126.1708         -DE/DX =    0.0                 !
 ! A9    A(5,4,6)              122.7938         -DE/DX =    0.0                 !
 ! A10   A(4,6,7)              119.957          -DE/DX =    0.0                 !
 ! A11   A(4,6,8)              120.3101         -DE/DX =    0.0                 !
 ! A12   A(7,6,8)              119.7329         -DE/DX =    0.0                 !
 ! D1    D(2,1,4,5)             59.7056         -DE/DX =    0.0                 !
 ! D2    D(2,1,4,6)           -120.295          -DE/DX =    0.0                 !
 ! D3    D(3,1,4,5)           -179.9991         -DE/DX =    0.0                 !
 ! D4    D(3,1,4,6)              0.0003         -DE/DX =    0.0                 !
 ! D5    D(9,1,4,5)            -59.7069         -DE/DX =    0.0                 !
 ! D6    D(9,1,4,6)            120.2925         -DE/DX =    0.0                 !
 ! D7    D(1,4,6,7)              0.0104         -DE/DX =    0.0                 !
 ! D8    D(1,4,6,8)           -179.9885         -DE/DX =    0.0                 !
 ! D9    D(5,4,6,7)            180.0097         -DE/DX =    0.0                 !
 ! D10   D(5,4,6,8)              0.0108         -DE/DX =    0.0                 !
 --------------------------------------------------------------------------------
 GradGradGradGradGradGradGradGradGradGradGradGradGradGradGradGradGradGrad


 ----------------------------------------------------------------------

 Electric dipole moment (input orientation):
 (Debye = 10**-18 statcoulomb cm , SI units = C m)
                  (au)            (Debye)         (10**-30 SI)
   Tot        0.895542D+00      0.227624D+01      0.759272D+01
   x          0.670212D+00      0.170351D+01      0.568229D+01
   y          0.292010D+00      0.742216D+00      0.247577D+01
   z         -0.517244D+00     -0.131470D+01     -0.438538D+01

 Dipole polarizability, Alpha (input orientation).
 (esu units = cm**3 , SI units = C**2 m**2 J**-1)
 Alpha(0;0):
               (au)            (10**-24 esu)      (10**-40 SI)
   iso        0.391307D+02      0.579858D+01      0.645179D+01
   aniso      0.158339D+02      0.234634D+01      0.261066D+01
   xx         0.417979D+02      0.619381D+01      0.689155D+01
   yx         0.273202D+01      0.404843D+00      0.450449D+00
   yy         0.382315D+02      0.566532D+01      0.630352D+01
   zx        -0.747358D+01     -0.110747D+01     -0.123223D+01
   zy        -0.383779D+01     -0.568701D+00     -0.632766D+00
   zz         0.373628D+02      0.553660D+01      0.616030D+01

 ----------------------------------------------------------------------

 Dipole orientation:
     6          3.91197270         -0.02359044          3.82809292
     9          5.85557547         -0.67086928          2.35153119
     9          2.93790947         -2.13285024          4.80526231
     6          4.73971319          1.77247438          5.87845811
     9          5.71319989          3.88056674          4.89616825
     6          4.56034247          1.38691070          8.32412228
     1          3.75901500         -0.34922157          9.02361031
     1          5.21245998          2.80236786          9.63989713
     9          2.15941241          1.03578234          2.34961241

 Electric dipole moment (dipole orientation):
 (Debye = 10**-18 statcoulomb cm , SI units = C m)
                  (au)            (Debye)         (10**-30 SI)
   Tot        0.895542D+00      0.227624D+01      0.759272D+01
   x          0.000000D+00      0.000000D+00      0.000000D+00
   y          0.000000D+00      0.000000D+00      0.000000D+00
   z          0.895542D+00      0.227624D+01      0.759272D+01

 Dipole polarizability, Alpha (dipole orientation).
 (esu units = cm**3 , SI units = C**2 m**2 J**-1)
 Alpha(0;0):
               (au)            (10**-24 esu)      (10**-40 SI)
   iso        0.391307D+02      0.579858D+01      0.645179D+01
   aniso      0.158339D+02      0.234634D+01      0.261066D+01
   xx         0.323572D+02      0.479484D+01      0.533498D+01
   yx         0.205068D+01      0.303879D+00      0.338111D+00
   yy         0.358560D+02      0.531331D+01      0.591186D+01
   zx        -0.325909D+00     -0.482947D-01     -0.537351D-01
   zy        -0.687449D+00     -0.101869D+00     -0.113345D+00
   zz         0.491791D+02      0.728758D+01      0.810853D+01

 ----------------------------------------------------------------------
 1\1\GINC-CCLEARCO\Freq\RwB97XD\6-311+G(2d,2p)\C3H2F4\RAPPE\05-Feb-2026
 \0\\#N Geom=AllCheck Guess=TCheck SCRF=Check GenChk RwB97XD/6-311+G(2d
 ,2p) Freq\\Title Card Required\\0,1\C,2.8492810014,0.3519599037,0.3833
 059904\F,2.8748970214,0.2575254997,1.7160140458\F,2.7311611493,1.64124
 92053,0.0628374438\C,4.0908155697,-0.2483871207,-0.225468984\F,4.20661
 52294,-1.537936616,0.0965377001\C,4.9665893678,0.3785738268,-0.9774701
 654\H,4.8279977609,1.4216667666,-1.2090425622\H,5.8261088009,-0.146315
 8067,-1.3656028363\F,1.7523178592,-0.2825079286,-0.0416697621\\Version
 =EM64M-G16RevA.03\State=1-A\HF=-514.8905589\RMSD=3.492e-09\RMSF=4.094e
 -05\ZeroPoint=0.04984\Thermal=0.0560885\Dipole=0.6702119,0.2920104,-0.
 5172443\DipoleDeriv=1.7870834,0.2268709,-0.0948117,-0.0202649,1.504065
 1,0.0879985,-0.0188723,-0.0698954,1.78159,-0.4041687,-0.0084904,0.1183
 549,0.0336612,-0.2747086,-0.001902,0.0796631,0.0746033,-1.013767,-0.36
 67336,0.1246108,0.0181477,0.1035968,-0.8659783,0.1142216,0.0246114,0.1
 007957,-0.3250954,0.1267512,-0.0845536,-0.0972513,0.1860081,1.1071123,
 -0.4791723,-0.1803317,-0.3062628,0.1430082,-0.2159235,0.1302869,0.0423
 73,-0.1311454,-1.0283565,0.3728847,0.1226417,0.205826,-0.2285295,-0.21
 46126,-0.1694454,0.0335528,-0.0403049,-0.1416285,-0.0054766,-0.0060872
 ,0.077025,-0.263197,0.1117982,0.0419382,0.0104721,0.0219179,0.0497495,
 0.0162585,0.0166073,0.0034525,0.1366486,0.0756947,0.0414392,0.0524892,
 0.0544186,0.0675842,-0.0009542,0.0485325,0.0073455,0.1445076,-0.899889
 1,-0.3026567,-0.0833268,-0.2078875,-0.4178393,-0.1038582,-0.0867647,-0
 .0928899,-0.3751655\Polar=41.7979308,2.7320173,38.2314726,-7.473582,-3
 .8377874,37.3628412\Quadrupole=1.2302811,-1.2675174,0.0372363,0.76638,
 -1.8537621,-0.4998555\PG=C01 [X(C3H2F4)]\NImag=0\\0.57801510,-0.039150
 02,0.55535876,-0.04295461,0.00550970,0.51841050,-0.07976167,0.00407607
 ,0.02194122,0.07447552,0.00367531,-0.07547885,0.00278046,0.00284025,0.
 07908998,0.02410422,-0.00326350,-0.26624170,0.00909761,-0.02461862,0.3
 9786278,-0.08976824,0.03744358,-0.00061831,0.01257275,0.00106836,-0.00
 438709,0.08219579,0.04627691,-0.26036594,0.02806976,0.00381404,-0.0210
 1168,0.04520144,-0.02568994,0.38282448,-0.00333228,0.03369566,-0.08096
 227,-0.00889259,0.06043652,-0.03970366,0.00635066,-0.07668893,0.099345
 04,-0.17048462,0.04576506,0.05306008,0.00226224,0.00164395,0.00637243,
 0.00374898,0.00165498,0.00165890,0.61558318,0.05713540,-0.08079408,-0.
 03176826,-0.00228493,0.00629848,0.01070262,0.02842179,-0.03672876,-0.0
 0468453,0.06612991,0.63049811,0.04956325,-0.02450697,-0.08957249,0.034
 00972,-0.01050825,-0.04520513,-0.00656302,0.01241244,0.00751865,-0.302
 74079,-0.18257321,0.42294732,0.00111610,0.02869811,-0.00888495,0.00019
 762,-0.00063319,0.00048438,-0.00522372,0.00788986,0.00203485,-0.073532
 59,0.02773669,0.00989639,0.06084388,-0.00294765,-0.04497391,0.01599987
 ,0.00035049,0.00404047,-0.00434636,0.00734681,-0.00369208,-0.00301983,
 0.02790243,-0.31719495,0.06584516,-0.03256588,0.40099085,0.00083124,-0
 .00421729,0.00176642,-0.00088002,-0.00125782,0.00382392,0.00220222,-0.
 00336758,0.00138257,0.00984920,0.06594783,-0.07125013,-0.01291761,-0.0
 9465775,0.06228051,-0.00795312,-0.01366125,0.01255905,-0.00130131,0.00
 195494,0.00397215,-0.00242354,-0.00003937,0.00156421,-0.32459570,-0.13
 897641,0.21526080,0.01461181,-0.00135409,-0.00238410,0.61960626,0.0008
 1021,0.01504623,-0.00356270,0.00304041,-0.00144503,-0.00570728,-0.0001
 4834,-0.00028322,0.00018294,-0.13152304,-0.20345973,0.12977613,-0.0313
 8284,-0.04773136,0.03784667,-0.00715615,0.70094245,0.00811386,0.005687
 22,-0.00179484,0.00044448,-0.00082421,-0.00060254,0.00159732,0.0001141
 9,-0.00104876,0.21297681,0.13453434,-0.23182022,0.00683613,0.01866148,
 0.00013632,-0.32561089,-0.17785128,0.36921136,-0.00125288,-0.00257710,
 -0.00141880,0.00058537,0.00005938,-0.00114198,-0.00201419,0.00156377,0
 .00045158,0.00673915,-0.01963277,0.00189648,0.00039661,-0.00209616,0.0
 0819207,-0.05483937,0.04470750,0.00085501,0.04883986,-0.00109544,-0.00
 125403,-0.00036048,0.00035041,-0.00003579,-0.00053634,0.00198589,0.000
 36133,-0.00155008,0.00480889,-0.01108381,0.00041401,0.00002674,0.00229
 059,0.00302661,0.03805325,-0.33778670,0.06952685,-0.04271143,0.3530420
 4,-0.00187316,0.00058447,-0.00369367,0.00093796,-0.00041826,-0.0006445
 2,0.00032212,-0.00128028,-0.00036848,-0.00560490,0.01603091,-0.0010664
 4,0.00753953,0.00438675,0.00604679,0.00289613,0.06527280,-0.05390877,-
 0.00306124,-0.07383978,0.04815236,0.00284344,-0.00089498,0.00497252,-0
 .00152301,0.00059208,0.00193545,0.00038269,-0.00013574,-0.00016576,-0.
 01235787,0.01370985,0.00855512,-0.00043249,-0.00048244,-0.00498232,-0.
 23853997,0.11507371,0.09399006,0.00207372,-0.00120263,0.00049878,0.246
 83843,0.00115600,-0.00331452,0.00340796,-0.00103771,0.00071995,0.00120
 467,0.00059827,0.00096403,-0.00066029,-0.01476299,0.01067860,0.0084919
 3,-0.00011515,0.00050121,-0.00267702,0.12055589,-0.12565671,-0.0495689
 7,0.02024951,-0.00566430,-0.01050080,-0.12649958,0.12150065,0.00434053
 ,0.00471906,0.00597085,-0.00163883,0.00014119,0.00103076,-0.00039124,-
 0.00019149,0.00036669,0.01729229,-0.00970019,-0.00045289,-0.00509374,-
 0.00244405,-0.00445587,0.09231196,-0.04606673,-0.08102103,-0.00608641,
 0.00320561,0.00518097,-0.10409683,0.05065100,0.07413626,-0.23275410,-0
 .05969949,-0.03865620,-0.00750750,-0.01120108,-0.04043715,0.00052947,-
 0.03533452,0.00033042,-0.04736278,-0.03223952,-0.00987794,0.00202277,0
 .00384651,0.00008933,-0.00456506,0.00657854,0.00079722,-0.00052827,-0.
 00021567,-0.00165523,0.00071506,-0.00014426,0.00336227,0.28945042,-0.0
 6586072,-0.10422366,-0.02007631,-0.01114903,0.00782246,-0.01863663,-0.
 05102642,-0.06206816,-0.00771147,-0.00161920,0.00178614,0.00064877,0.0
 0034567,0.00576917,-0.00064366,0.00062320,0.00037407,-0.00027963,0.000
 43730,0.00013067,-0.00023580,-0.00016028,0.00027109,-0.00031440,0.1284
 0948,0.15013822,-0.03879304,-0.01820835,-0.08388280,-0.05501954,-0.025
 73102,-0.05031991,0.00148735,-0.00426955,0.01347022,0.00713599,0.00151
 047,0.00890132,0.00010500,-0.00042527,0.00026946,-0.00056932,0.0001094
 6,0.00084849,0.00031328,0.00011360,0.00030177,-0.00070701,-0.00034847,
 -0.00075572,0.08604729,0.04724912,0.11116717\\0.00004399,0.00007653,0.
 00009218,-0.00001084,0.00003612,-0.00006144,0.00001383,-0.00003503,0.0
 0003503,0.00004746,0.00002953,-0.00005469,-0.00000422,-0.00002083,0.00
 001575,0.00000468,-0.00002907,0.00000823,0.00000082,0.00000348,0.00000
 570,-0.00000470,0.,-0.00000444,-0.00009102,-0.00006072,-0.00003630\\\@


 CONFIDENCE IS WHAT YOU FEEL BEFORE YOU FULLY
 COMPREHEND THE SITUATION.
 Job cpu time:       0 days  0 hours 51 minutes 46.4 seconds.
 Elapsed time:       0 days  0 hours  2 minutes 11.3 seconds.
 File lengths (MBytes):  RWF=     45 Int=      0 D2E=      0 Chk=      5 Scr=      1
 Normal termination of Gaussian 16 at Thu Feb  5 09:51:47 2026.
