 Entering Gaussian System, Link 0=/applications/g16/g16/g16
 Initial command:
 /applications/g16/g16/l1.exe "/scratch/g98/Gau-33936.inp" -scrdir="/scratch/g98/"
 Entering Link 1 = /applications/g16/g16/l1.exe PID=     33937.
  
 Copyright (c) 1988,1990,1992,1993,1995,1998,2003,2009,2016,
            Gaussian, Inc.  All Rights Reserved.
  
 This is part of the Gaussian(R) 16 program.  It is based on
 the Gaussian(R) 09 system (copyright 2009, Gaussian, Inc.),
 the Gaussian(R) 03 system (copyright 2003, Gaussian, Inc.),
 the Gaussian(R) 98 system (copyright 1998, Gaussian, Inc.),
 the Gaussian(R) 94 system (copyright 1995, Gaussian, Inc.),
 the Gaussian 92(TM) system (copyright 1992, Gaussian, Inc.),
 the Gaussian 90(TM) system (copyright 1990, Gaussian, Inc.),
 the Gaussian 88(TM) system (copyright 1988, Gaussian, Inc.),
 the Gaussian 86(TM) system (copyright 1986, Carnegie Mellon
 University), and the Gaussian 82(TM) system (copyright 1983,
 Carnegie Mellon University). Gaussian is a federally registered
 trademark of Gaussian, Inc.
  
 This software contains proprietary and confidential information,
 including trade secrets, belonging to Gaussian, Inc.
  
 This software is provided under written license and may be
 used, copied, transmitted, or stored only in accord with that
 written license.
  
 The following legend is applicable only to US Government
 contracts under FAR:
  
                    RESTRICTED RIGHTS LEGEND
  
 Use, reproduction and disclosure by the US Government is
 subject to restrictions as set forth in subparagraphs (a)
 and (c) of the Commercial Computer Software - Restricted
 Rights clause in FAR 52.227-19.
  
 Gaussian, Inc.
 340 Quinnipiac St., Bldg. 40, Wallingford CT 06492
  
  
 ---------------------------------------------------------------
 Warning -- This program may not be used in any manner that
 competes with the business of Gaussian, Inc. or will provide
 assistance to any competitor of Gaussian, Inc.  The licensee
 of this program is prohibited from giving any competitor of
 Gaussian, Inc. access to this program.  By using this program,
 the user acknowledges that Gaussian, Inc. is engaged in the
 business of creating and licensing software in the field of
 computational chemistry and represents and warrants to the
 licensee that it is not a competitor of Gaussian, Inc. and that
 it will not use this program in any manner prohibited above.
 ---------------------------------------------------------------
  

 Cite this work as:
 Gaussian 16, Revision A.03,
 M. J. Frisch, G. W. Trucks, H. B. Schlegel, G. E. Scuseria, 
 M. A. Robb, J. R. Cheeseman, G. Scalmani, V. Barone, 
 G. A. Petersson, H. Nakatsuji, X. Li, M. Caricato, A. V. Marenich, 
 J. Bloino, B. G. Janesko, R. Gomperts, B. Mennucci, H. P. Hratchian, 
 J. V. Ortiz, A. F. Izmaylov, J. L. Sonnenberg, D. Williams-Young, 
 F. Ding, F. Lipparini, F. Egidi, J. Goings, B. Peng, A. Petrone, 
 T. Henderson, D. Ranasinghe, V. G. Zakrzewski, J. Gao, N. Rega, 
 G. Zheng, W. Liang, M. Hada, M. Ehara, K. Toyota, R. Fukuda, 
 J. Hasegawa, M. Ishida, T. Nakajima, Y. Honda, O. Kitao, H. Nakai, 
 T. Vreven, K. Throssell, J. A. Montgomery, Jr., J. E. Peralta, 
 F. Ogliaro, M. J. Bearpark, J. J. Heyd, E. N. Brothers, K. N. Kudin, 
 V. N. Staroverov, T. A. Keith, R. Kobayashi, J. Normand, 
 K. Raghavachari, A. P. Rendell, J. C. Burant, S. S. Iyengar, 
 J. Tomasi, M. Cossi, J. M. Millam, M. Klene, C. Adamo, R. Cammi, 
 J. W. Ochterski, R. L. Martin, K. Morokuma, O. Farkas, 
 J. B. Foresman, and D. J. Fox, Gaussian, Inc., Wallingford CT, 2016.
 
 ******************************************
 Gaussian 16:  EM64M-G16RevA.03 25-Dec-2016
                15-Nov-2025 
 ******************************************
 %mem=48GB
 %nprocshared=24
 Will use up to   24 processors via shared memory.
 %chk=2_hexyl.chk
 -----------------------------------------------------------
 # opt freq uwb97xd/6-311+g(2d,2p) geom=connectivity scf=xqc
 -----------------------------------------------------------
 1/18=20,19=15,26=3,38=1,57=2/1,3;
 2/9=110,12=2,17=6,18=5,40=1/2;
 3/5=4,6=6,7=212,11=2,25=1,30=1,71=1,74=-58,116=2/1,2,3;
 4//1;
 5/5=2,8=3,13=1,38=5/2,8;
 6/7=2,8=2,9=2,10=2,28=1/1;
 7//1,2,3,16;
 1/18=20,19=15,26=3/3(2);
 2/9=110/2;
 99//99;
 2/9=110/2;
 3/5=4,6=6,7=212,11=2,25=1,30=1,71=1,74=-58,116=2/1,2,3;
 4/5=5,16=3,69=1/1;
 5/5=2,8=3,13=1,38=5/2,8;
 7//1,2,3,16;
 1/18=20,19=15,26=3/3(-5);
 2/9=110/2;
 6/7=2,8=2,9=2,10=2,19=2,28=1/1;
 99/9=1/99;
 -------------------
 Title Card Required
 -------------------
 Symbolic Z-matrix:
 Charge =  0 Multiplicity = 2
 C                     2.72091  -0.14535  -0.06706 
 F                     3.5346    0.43381  -0.95067 
 F                     3.24656   0.0508    1.14837 
 F                     2.68985  -1.4517   -0.3026 
 C                     1.34429   0.44792  -0.16249 
 F                     1.30871   1.7461    0.04705 
 C                     0.08462  -0.33316   0.07733 
 F                     0.10651  -0.89995   1.30715 
 F                     0.00085  -1.33129  -0.823 
 C                    -1.19324   0.54636  -0.03196 
 F                    -1.13594   1.24436  -1.17692 
 F                    -1.22228   1.39489   1.0031 
 C                    -2.53624  -0.24129  -0.03502 
 F                    -2.61712  -1.04088   1.01957 
 F                    -2.65844  -0.9627   -1.13919 
 C                    -3.69313   0.77363   0.02099 
 F                    -4.86993   0.12099  -0.08717 
 F                    -3.65298   1.43737   1.19587 
 F                    -3.57063   1.65223  -0.99663 
 

 GradGradGradGradGradGradGradGradGradGradGradGradGradGradGradGradGradGrad
 Berny optimization.
 Initialization pass.
                           ----------------------------
                           !    Initial Parameters    !
                           ! (Angstroms and Degrees)  !
 --------------------------                            --------------------------
 ! Name  Definition              Value          Derivative Info.                !
 --------------------------------------------------------------------------------
 ! R1    R(1,2)                  1.3335         estimate D2E/DX2                !
 ! R2    R(1,3)                  1.3387         estimate D2E/DX2                !
 ! R3    R(1,4)                  1.3278         estimate D2E/DX2                !
 ! R4    R(1,5)                  1.5021         estimate D2E/DX2                !
 ! R5    R(5,6)                  1.3155         estimate D2E/DX2                !
 ! R6    R(5,7)                  1.5015         estimate D2E/DX2                !
 ! R7    R(7,8)                  1.3543         estimate D2E/DX2                !
 ! R8    R(7,9)                  1.3468         estimate D2E/DX2                !
 ! R9    R(7,10)                 1.5551         estimate D2E/DX2                !
 ! R10   R(10,11)                1.3422         estimate D2E/DX2                !
 ! R11   R(10,12)                1.3387         estimate D2E/DX2                !
 ! R12   R(10,13)                1.5569         estimate D2E/DX2                !
 ! R13   R(13,14)                1.3259         estimate D2E/DX2                !
 ! R14   R(13,15)                1.3246         estimate D2E/DX2                !
 ! R15   R(13,16)                1.54           estimate D2E/DX2                !
 ! R16   R(16,17)                1.35           estimate D2E/DX2                !
 ! R17   R(16,18)                1.35           estimate D2E/DX2                !
 ! R18   R(16,19)                1.35           estimate D2E/DX2                !
 ! A1    A(2,1,3)              107.3603         estimate D2E/DX2                !
 ! A2    A(2,1,4)              108.9066         estimate D2E/DX2                !
 ! A3    A(2,1,5)              110.2176         estimate D2E/DX2                !
 ! A4    A(3,1,4)              108.3251         estimate D2E/DX2                !
 ! A5    A(3,1,5)              111.081          estimate D2E/DX2                !
 ! A6    A(4,1,5)              110.8477         estimate D2E/DX2                !
 ! A7    A(1,5,6)              113.8566         estimate D2E/DX2                !
 ! A8    A(1,5,7)              123.5931         estimate D2E/DX2                !
 ! A9    A(6,5,7)              117.7257         estimate D2E/DX2                !
 ! A10   A(5,7,8)              110.4383         estimate D2E/DX2                !
 ! A11   A(5,7,9)              109.3257         estimate D2E/DX2                !
 ! A12   A(5,7,10)             112.5786         estimate D2E/DX2                !
 ! A13   A(8,7,9)              107.3308         estimate D2E/DX2                !
 ! A14   A(8,7,10)             108.2876         estimate D2E/DX2                !
 ! A15   A(9,7,10)             108.7266         estimate D2E/DX2                !
 ! A16   A(7,10,11)            108.6019         estimate D2E/DX2                !
 ! A17   A(7,10,12)            108.7814         estimate D2E/DX2                !
 ! A18   A(7,10,13)            115.0127         estimate D2E/DX2                !
 ! A19   A(11,10,12)           109.3212         estimate D2E/DX2                !
 ! A20   A(11,10,13)           107.3519         estimate D2E/DX2                !
 ! A21   A(12,10,13)           107.6659         estimate D2E/DX2                !
 ! A22   A(10,13,14)           110.863          estimate D2E/DX2                !
 ! A23   A(10,13,15)           110.9005         estimate D2E/DX2                !
 ! A24   A(10,13,16)           108.3319         estimate D2E/DX2                !
 ! A25   A(14,13,15)           109.2049         estimate D2E/DX2                !
 ! A26   A(14,13,16)           108.8248         estimate D2E/DX2                !
 ! A27   A(15,13,16)           108.6598         estimate D2E/DX2                !
 ! A28   A(13,16,17)           109.4712         estimate D2E/DX2                !
 ! A29   A(13,16,18)           109.4712         estimate D2E/DX2                !
 ! A30   A(13,16,19)           109.4712         estimate D2E/DX2                !
 ! A31   A(17,16,18)           109.4713         estimate D2E/DX2                !
 ! A32   A(17,16,19)           109.4712         estimate D2E/DX2                !
 ! A33   A(18,16,19)           109.4712         estimate D2E/DX2                !
 ! D1    D(2,1,5,6)            -58.664          estimate D2E/DX2                !
 ! D2    D(2,1,5,7)            146.5881         estimate D2E/DX2                !
 ! D3    D(3,1,5,6)             60.2009         estimate D2E/DX2                !
 ! D4    D(3,1,5,7)            -94.5471         estimate D2E/DX2                !
 ! D5    D(4,1,5,6)           -179.3105         estimate D2E/DX2                !
 ! D6    D(4,1,5,7)             25.9416         estimate D2E/DX2                !
 ! D7    D(1,5,7,8)             56.4823         estimate D2E/DX2                !
 ! D8    D(1,5,7,9)            -61.3945         estimate D2E/DX2                !
 ! D9    D(1,5,7,10)           177.6553         estimate D2E/DX2                !
 ! D10   D(6,5,7,8)            -97.3654         estimate D2E/DX2                !
 ! D11   D(6,5,7,9)            144.7578         estimate D2E/DX2                !
 ! D12   D(6,5,7,10)            23.8076         estimate D2E/DX2                !
 ! D13   D(5,7,10,11)           49.7793         estimate D2E/DX2                !
 ! D14   D(5,7,10,12)          -69.1147         estimate D2E/DX2                !
 ! D15   D(5,7,10,13)          170.0632         estimate D2E/DX2                !
 ! D16   D(8,7,10,11)          172.1722         estimate D2E/DX2                !
 ! D17   D(8,7,10,12)           53.2781         estimate D2E/DX2                !
 ! D18   D(8,7,10,13)          -67.5439         estimate D2E/DX2                !
 ! D19   D(9,7,10,11)          -71.513          estimate D2E/DX2                !
 ! D20   D(9,7,10,12)          169.5929         estimate D2E/DX2                !
 ! D21   D(9,7,10,13)           48.7708         estimate D2E/DX2                !
 ! D22   D(7,10,13,14)          54.0272         estimate D2E/DX2                !
 ! D23   D(7,10,13,15)         -67.4637         estimate D2E/DX2                !
 ! D24   D(7,10,13,16)         173.3716         estimate D2E/DX2                !
 ! D25   D(11,10,13,14)        174.9962         estimate D2E/DX2                !
 ! D26   D(11,10,13,15)         53.5053         estimate D2E/DX2                !
 ! D27   D(11,10,13,16)        -65.6594         estimate D2E/DX2                !
 ! D28   D(12,10,13,14)        -67.403          estimate D2E/DX2                !
 ! D29   D(12,10,13,15)        171.1061         estimate D2E/DX2                !
 ! D30   D(12,10,13,16)         51.9414         estimate D2E/DX2                !
 ! D31   D(10,13,16,17)        175.1916         estimate D2E/DX2                !
 ! D32   D(10,13,16,18)        -64.8084         estimate D2E/DX2                !
 ! D33   D(10,13,16,19)         55.1916         estimate D2E/DX2                !
 ! D34   D(14,13,16,17)        -64.1889         estimate D2E/DX2                !
 ! D35   D(14,13,16,18)         55.8111         estimate D2E/DX2                !
 ! D36   D(14,13,16,19)        175.8111         estimate D2E/DX2                !
 ! D37   D(15,13,16,17)         54.6235         estimate D2E/DX2                !
 ! D38   D(15,13,16,18)        174.6235         estimate D2E/DX2                !
 ! D39   D(15,13,16,19)        -65.3765         estimate D2E/DX2                !
 --------------------------------------------------------------------------------
 Trust Radius=3.00D-01 FncErr=1.00D-07 GrdErr=1.00D-06 EigMax=2.50D+02 EigMin=1.00D-04
 Number of steps in this run=    100 maximum allowed number of steps=    114.
 GradGradGradGradGradGradGradGradGradGradGradGradGradGradGradGradGradGrad

                          Input orientation:                          
 ---------------------------------------------------------------------
 Center     Atomic      Atomic             Coordinates (Angstroms)
 Number     Number       Type             X           Y           Z
 ---------------------------------------------------------------------
      1          6           0        2.720911   -0.145350   -0.067057
      2          9           0        3.534597    0.433805   -0.950666
      3          9           0        3.246556    0.050798    1.148367
      4          9           0        2.689850   -1.451695   -0.302597
      5          6           0        1.344291    0.447916   -0.162494
      6          9           0        1.308710    1.746095    0.047050
      7          6           0        0.084617   -0.333158    0.077334
      8          9           0        0.106506   -0.899949    1.307153
      9          9           0        0.000847   -1.331294   -0.823004
     10          6           0       -1.193244    0.546359   -0.031957
     11          9           0       -1.135944    1.244357   -1.176920
     12          9           0       -1.222283    1.394887    1.003100
     13          6           0       -2.536238   -0.241292   -0.035022
     14          9           0       -2.617122   -1.040879    1.019571
     15          9           0       -2.658437   -0.962704   -1.139187
     16          6           0       -3.693128    0.773630    0.020992
     17          9           0       -4.869932    0.120993   -0.087165
     18          9           0       -3.652977    1.437367    1.195871
     19          9           0       -3.570633    1.652234   -0.996628
 ---------------------------------------------------------------------
                    Distance matrix (angstroms):
                    1          2          3          4          5
     1  C    0.000000
     2  F    1.333518   0.000000
     3  F    1.338668   2.153045   0.000000
     4  F    1.327773   2.165341   2.161644   0.000000
     5  C    1.502050   2.327843   2.344072   2.332098   0.000000
     6  F    2.363239   2.769858   2.800389   3.500809   1.315463
     7  C    2.646916   3.680676   3.360415   2.860544   1.501457
     8  F    3.048440   4.316069   3.284668   3.093442   2.347065
     9  F    3.062134   3.952121   4.041177   2.741543   2.325232
    10  C    3.974959   4.817590   4.620668   4.375373   2.542797
    11  F    4.247165   4.745750   5.102730   4.761285   2.795522
    12  F    4.366503   5.231519   4.668854   5.011253   2.973662
    13  C    5.258122   6.176504   5.909859   5.371096   3.943319
    14  F    5.520628   6.625721   5.965825   5.484601   4.393925
    15  F    5.545711   6.351334   6.413192   5.435363   4.354952
    16  C    6.480137   7.300658   7.067721   6.767510   5.051272
    17  F    7.595541   8.454561   8.210289   7.724640   6.223273
    18  F    6.687782   7.568089   7.037640   7.129063   5.272272
    19  F    6.609004   7.209090   7.323911   7.022087   5.128610
                    6          7          8          9         10
     6  F    0.000000
     7  C    2.413009   0.000000
     8  F    3.167760   1.354321   0.000000
     9  F    3.455115   1.346812   2.175958   0.000000
    10  C    2.775857   1.555128   2.361011   2.361607   0.000000
    11  F    2.779600   2.356157   3.508896   2.837522   1.342172
    12  F    2.728242   2.356092   2.669157   3.501823   1.338726
    13  C    4.328980   2.624870   3.036340   2.871554   1.556932
    14  F    4.911739   2.947554   2.742392   3.214527   2.377491
    15  F    4.948030   3.066039   3.692347   2.703261   2.376977
    16  C    5.095562   3.936942   4.346527   4.334569   2.510752
    17  F    6.390195   4.978039   5.267958   5.135668   3.701624
    18  F    5.102297   4.284331   4.428221   5.009168   2.889938
    19  F    4.990597   4.296048   5.034123   4.656936   2.793838
                   11         12         13         14         15
    11  F    0.000000
    12  F    2.186916   0.000000
    13  C    2.339211   2.341208   0.000000
    14  F    3.498680   2.806921   1.325914   0.000000
    15  F    2.681516   3.494305   1.324594   2.160568   0.000000
    16  C    2.862825   2.730490   1.540000   2.333965   2.330549
    17  F    4.048726   4.014577   2.362223   2.765857   2.678033
    18  F    3.464512   2.438696   2.362223   2.691799   3.493128
    19  F    2.475193   3.095139   2.362224   3.496727   2.773144
                   16         17         18         19
    16  C    0.000000
    17  F    1.350000   0.000000
    18  F    1.350000   2.204541   0.000000
    19  F    1.350000   2.204541   2.204541   0.000000
 Stoichiometry    C6F13(2)
 Framework group  C1[X(C6F13)]
 Deg. of freedom    51
 Full point group                 C1      NOp   1
 Largest Abelian subgroup         C1      NOp   1
 Largest concise Abelian subgroup C1      NOp   1
                         Standard orientation:                         
 ---------------------------------------------------------------------
 Center     Atomic      Atomic             Coordinates (Angstroms)
 Number     Number       Type             X           Y           Z
 ---------------------------------------------------------------------
      1          6           0       -3.385334   -0.008658   -0.062978
      2          9           0       -4.140309   -0.663886   -0.945565
      3          9           0       -3.885057   -0.258550    1.153518
      4          9           0       -3.484847    1.294805   -0.295489
      5          6           0       -1.956933   -0.462135   -0.163889
      6          9           0       -1.792001   -1.750803    0.042449
      7          6           0       -0.780259    0.439629    0.074088
      8          9           0       -0.854402    0.998884    1.305316
      9          9           0       -0.798836    1.443023   -0.824107
     10          6           0        0.578243   -0.308460   -0.041069
     11          9           0        0.586882   -1.006312   -1.187521
     12          9           0        0.694648   -1.152068    0.991869
     13          6           0        1.836402    0.608625   -0.046212
     14          9           0        1.840859    1.410094    1.010044
     15          9           0        1.882886    1.340903   -1.149007
     16          6           0        3.088496   -0.286552    0.003967
     17          9           0        4.194355    0.479907   -0.106100
     18          9           0        3.118152   -0.953443    1.177372
     19          9           0        3.050593   -1.170855   -1.015382
 ---------------------------------------------------------------------
 Rotational constants (GHZ):           0.9031389           0.2151576           0.2057008
 Standard basis: 6-311+G(2d,2p) (5D, 7F)
 There are   551 symmetry adapted cartesian basis functions of A   symmetry.
 There are   513 symmetry adapted basis functions of A   symmetry.
   513 basis functions,   798 primitive gaussians,   551 cartesian basis functions
    77 alpha electrons       76 beta electrons
       nuclear repulsion energy      1882.2066043874 Hartrees.
 NAtoms=   19 NActive=   19 NUniq=   19 SFac= 1.00D+00 NAtFMM=   60 NAOKFM=F Big=F
 Integral buffers will be    131072 words long.
 Raffenetti 2 integral format.
 Two-electron integral symmetry is turned on.
 Nuclear repulsion after empirical dispersion term =     1882.1939933265 Hartrees.
 One-electron integrals computed using PRISM.
 NBasis=   513 RedAO= T EigKep=  3.65D-06  NBF=   513
 NBsUse=   513 1.00D-06 EigRej= -1.00D+00 NBFU=   513
 ExpMin= 4.38D-02 ExpMax= 1.14D+04 ExpMxC= 1.72D+03 IAcc=3 IRadAn=         5 AccDes= 0.00D+00
 Harris functional with IExCor= 4639 and IRadAn=       5 diagonalized for initial guess.
 HarFok:  IExCor= 4639 AccDes= 0.00D+00 IRadAn=         5 IDoV= 1 UseB2=F ITyADJ=14
 ICtDFT=  3500011 ScaDFX=  1.000000  1.000000  1.000000  1.000000
 FoFCou: FMM=F IPFlag=           0 FMFlag=      100000 FMFlg1=           0
         NFxFlg=           0 DoJE=T BraDBF=F KetDBF=T FulRan=T
         wScrn=  0.000000 ICntrl=       500 IOpCl=  0 I1Cent=   200000004 NGrid=           0
         NMat0=    1 NMatS0=      1 NMatT0=    0 NMatD0=    1 NMtDS0=    0 NMtDT0=    0
 Petite list used in FoFCou.
 Initial guess <Sx>= 0.0000 <Sy>= 0.0000 <Sz>= 0.5000 <S**2>= 0.7500 S= 0.5000
 Requested convergence on RMS density matrix=1.00D-08 within  32 cycles.
 Requested convergence on MAX density matrix=1.00D-06.
 Requested convergence on             energy=1.00D-06.
 No special actions if energy rises.
 SCF Done:  E(UwB97XD) =  -1526.58455946     A.U. after   16 cycles
            NFock= 16  Conv=0.29D-08     -V/T= 2.0026
 <Sx>= 0.0000 <Sy>= 0.0000 <Sz>= 0.5000 <S**2>= 0.7541 S= 0.5020
 <L.S>= 0.000000000000E+00
 Annihilation of the first spin contaminant:
 S**2 before annihilation     0.7541,   after     0.7500
 QCSCF skips out because SCF is already converged.

 **********************************************************************

            Population analysis using the SCF density.

 **********************************************************************

 Orbital symmetries:
 Alpha Orbitals:
       Occupied  (A) (A) (A) (A) (A) (A) (A) (A) (A) (A) (A) (A)
                 (A) (A) (A) (A) (A) (A) (A) (A) (A) (A) (A) (A)
                 (A) (A) (A) (A) (A) (A) (A) (A) (A) (A) (A) (A)
                 (A) (A) (A) (A) (A) (A) (A) (A) (A) (A) (A) (A)
                 (A) (A) (A) (A) (A) (A) (A) (A) (A) (A) (A) (A)
                 (A) (A) (A) (A) (A) (A) (A) (A) (A) (A) (A) (A)
                 (A) (A) (A) (A) (A)
       Virtual   (A) (A) (A) (A) (A) (A) (A) (A) (A) (A) (A) (A)
                 (A) (A) (A) (A) (A) (A) (A) (A) (A) (A) (A) (A)
                 (A) (A) (A) (A) (A) (A) (A) (A) (A) (A) (A) (A)
                 (A) (A) (A) (A) (A) (A) (A) (A) (A) (A) (A) (A)
                 (A) (A) (A) (A) (A) (A) (A) (A) (A) (A) (A) (A)
                 (A) (A) (A) (A) (A) (A) (A) (A) (A) (A) (A) (A)
                 (A) (A) (A) (A) (A) (A) (A) (A) (A) (A) (A) (A)
                 (A) (A) (A) (A) (A) (A) (A) (A) (A) (A) (A) (A)
                 (A) (A) (A) (A) (A) (A) (A) (A) (A) (A) (A) (A)
                 (A) (A) (A) (A) (A) (A) (A) (A) (A) (A) (A) (A)
                 (A) (A) (A) (A) (A) (A) (A) (A) (A) (A) (A) (A)
                 (A) (A) (A) (A) (A) (A) (A) (A) (A) (A) (A) (A)
                 (A) (A) (A) (A) (A) (A) (A) (A) (A) (A) (A) (A)
                 (A) (A) (A) (A) (A) (A) (A) (A) (A) (A) (A) (A)
                 (A) (A) (A) (A) (A) (A) (A) (A) (A) (A) (A) (A)
                 (A) (A) (A) (A) (A) (A) (A) (A) (A) (A) (A) (A)
                 (A) (A) (A) (A) (A) (A) (A) (A) (A) (A) (A) (A)
                 (A) (A) (A) (A) (A) (A) (A) (A) (A) (A) (A) (A)
                 (A) (A) (A) (A) (A) (A) (A) (A) (A) (A) (A) (A)
                 (A) (A) (A) (A) (A) (A) (A) (A) (A) (A) (A) (A)
                 (A) (A) (A) (A) (A) (A) (A) (A) (A) (A) (A) (A)
                 (A) (A) (A) (A) (A) (A) (A) (A) (A) (A) (A) (A)
                 (A) (A) (A) (A) (A) (A) (A) (A) (A) (A) (A) (A)
                 (A) (A) (A) (A) (A) (A) (A) (A) (A) (A) (A) (A)
                 (A) (A) (A) (A) (A) (A) (A) (A) (A) (A) (A) (A)
                 (A) (A) (A) (A) (A) (A) (A) (A) (A) (A) (A) (A)
                 (A) (A) (A) (A) (A) (A) (A) (A) (A) (A) (A) (A)
                 (A) (A) (A) (A) (A) (A) (A) (A) (A) (A) (A) (A)
                 (A) (A) (A) (A) (A) (A) (A) (A) (A) (A) (A) (A)
                 (A) (A) (A) (A) (A) (A) (A) (A) (A) (A) (A) (A)
                 (A) (A) (A) (A) (A) (A) (A) (A) (A) (A) (A) (A)
                 (A) (A) (A) (A) (A) (A) (A) (A) (A) (A) (A) (A)
                 (A) (A) (A) (A) (A) (A) (A) (A) (A) (A) (A) (A)
                 (A) (A) (A) (A) (A) (A) (A) (A) (A) (A) (A) (A)
                 (A) (A) (A) (A) (A) (A) (A) (A) (A) (A) (A) (A)
                 (A) (A) (A) (A) (A) (A) (A) (A) (A) (A) (A) (A)
                 (A) (A) (A) (A)
 Beta  Orbitals:
       Occupied  (A) (A) (A) (A) (A) (A) (A) (A) (A) (A) (A) (A)
                 (A) (A) (A) (A) (A) (A) (A) (A) (A) (A) (A) (A)
                 (A) (A) (A) (A) (A) (A) (A) (A) (A) (A) (A) (A)
                 (A) (A) (A) (A) (A) (A) (A) (A) (A) (A) (A) (A)
                 (A) (A) (A) (A) (A) (A) (A) (A) (A) (A) (A) (A)
                 (A) (A) (A) (A) (A) (A) (A) (A) (A) (A) (A) (A)
                 (A) (A) (A) (A)
       Virtual   (A) (A) (A) (A) (A) (A) (A) (A) (A) (A) (A) (A)
                 (A) (A) (A) (A) (A) (A) (A) (A) (A) (A) (A) (A)
                 (A) (A) (A) (A) (A) (A) (A) (A) (A) (A) (A) (A)
                 (A) (A) (A) (A) (A) (A) (A) (A) (A) (A) (A) (A)
                 (A) (A) (A) (A) (A) (A) (A) (A) (A) (A) (A) (A)
                 (A) (A) (A) (A) (A) (A) (A) (A) (A) (A) (A) (A)
                 (A) (A) (A) (A) (A) (A) (A) (A) (A) (A) (A) (A)
                 (A) (A) (A) (A) (A) (A) (A) (A) (A) (A) (A) (A)
                 (A) (A) (A) (A) (A) (A) (A) (A) (A) (A) (A) (A)
                 (A) (A) (A) (A) (A) (A) (A) (A) (A) (A) (A) (A)
                 (A) (A) (A) (A) (A) (A) (A) (A) (A) (A) (A) (A)
                 (A) (A) (A) (A) (A) (A) (A) (A) (A) (A) (A) (A)
                 (A) (A) (A) (A) (A) (A) (A) (A) (A) (A) (A) (A)
                 (A) (A) (A) (A) (A) (A) (A) (A) (A) (A) (A) (A)
                 (A) (A) (A) (A) (A) (A) (A) (A) (A) (A) (A) (A)
                 (A) (A) (A) (A) (A) (A) (A) (A) (A) (A) (A) (A)
                 (A) (A) (A) (A) (A) (A) (A) (A) (A) (A) (A) (A)
                 (A) (A) (A) (A) (A) (A) (A) (A) (A) (A) (A) (A)
                 (A) (A) (A) (A) (A) (A) (A) (A) (A) (A) (A) (A)
                 (A) (A) (A) (A) (A) (A) (A) (A) (A) (A) (A) (A)
                 (A) (A) (A) (A) (A) (A) (A) (A) (A) (A) (A) (A)
                 (A) (A) (A) (A) (A) (A) (A) (A) (A) (A) (A) (A)
                 (A) (A) (A) (A) (A) (A) (A) (A) (A) (A) (A) (A)
                 (A) (A) (A) (A) (A) (A) (A) (A) (A) (A) (A) (A)
                 (A) (A) (A) (A) (A) (A) (A) (A) (A) (A) (A) (A)
                 (A) (A) (A) (A) (A) (A) (A) (A) (A) (A) (A) (A)
                 (A) (A) (A) (A) (A) (A) (A) (A) (A) (A) (A) (A)
                 (A) (A) (A) (A) (A) (A) (A) (A) (A) (A) (A) (A)
                 (A) (A) (A) (A) (A) (A) (A) (A) (A) (A) (A) (A)
                 (A) (A) (A) (A) (A) (A) (A) (A) (A) (A) (A) (A)
                 (A) (A) (A) (A) (A) (A) (A) (A) (A) (A) (A) (A)
                 (A) (A) (A) (A) (A) (A) (A) (A) (A) (A) (A) (A)
                 (A) (A) (A) (A) (A) (A) (A) (A) (A) (A) (A) (A)
                 (A) (A) (A) (A) (A) (A) (A) (A) (A) (A) (A) (A)
                 (A) (A) (A) (A) (A) (A) (A) (A) (A) (A) (A) (A)
                 (A) (A) (A) (A) (A) (A) (A) (A) (A) (A) (A) (A)
                 (A) (A) (A) (A) (A)
 The electronic state is 2-A.
 Alpha  occ. eigenvalues --  -24.90202 -24.88499 -24.88416 -24.88371 -24.88367
 Alpha  occ. eigenvalues --  -24.88207 -24.88187 -24.88036 -24.88018 -24.87863
 Alpha  occ. eigenvalues --  -24.87626 -24.87585 -24.87451 -10.58881 -10.58653
 Alpha  occ. eigenvalues --  -10.53526 -10.53331 -10.53237 -10.45805  -1.46884
 Alpha  occ. eigenvalues --   -1.46736  -1.44701  -1.43686  -1.42691  -1.42228
 Alpha  occ. eigenvalues --   -1.38912  -1.37582  -1.37505  -1.37221  -1.37036
 Alpha  occ. eigenvalues --   -1.36987  -1.36511  -0.97358  -0.95257  -0.90608
 Alpha  occ. eigenvalues --   -0.85124  -0.80995  -0.79345  -0.76052  -0.75914
 Alpha  occ. eigenvalues --   -0.74627  -0.74005  -0.73610  -0.73435  -0.72428
 Alpha  occ. eigenvalues --   -0.72176  -0.70798  -0.70516  -0.69932  -0.69124
 Alpha  occ. eigenvalues --   -0.64816  -0.62346  -0.62130  -0.61120  -0.60581
 Alpha  occ. eigenvalues --   -0.60200  -0.60080  -0.59739  -0.59592  -0.59186
 Alpha  occ. eigenvalues --   -0.58370  -0.57408  -0.56948  -0.56792  -0.56078
 Alpha  occ. eigenvalues --   -0.55902  -0.55628  -0.55310  -0.54972  -0.54575
 Alpha  occ. eigenvalues --   -0.54383  -0.53845  -0.53731  -0.53068  -0.50300
 Alpha  occ. eigenvalues --   -0.45095  -0.37847
 Alpha virt. eigenvalues --    0.05248   0.07121   0.07473   0.08221   0.09651
 Alpha virt. eigenvalues --    0.09920   0.10345   0.10544   0.11816   0.12392
 Alpha virt. eigenvalues --    0.12696   0.13310   0.13474   0.13920   0.14656
 Alpha virt. eigenvalues --    0.15079   0.15870   0.16809   0.17395   0.17778
 Alpha virt. eigenvalues --    0.18487   0.19031   0.19553   0.20973   0.21604
 Alpha virt. eigenvalues --    0.22061   0.23045   0.23992   0.24198   0.24640
 Alpha virt. eigenvalues --    0.25052   0.25943   0.26213   0.27197   0.29198
 Alpha virt. eigenvalues --    0.29353   0.29830   0.30727   0.30995   0.31144
 Alpha virt. eigenvalues --    0.31620   0.31751   0.32336   0.33036   0.33232
 Alpha virt. eigenvalues --    0.34167   0.34185   0.35023   0.35977   0.36361
 Alpha virt. eigenvalues --    0.36828   0.37435   0.38209   0.38567   0.38672
 Alpha virt. eigenvalues --    0.39061   0.39578   0.39927   0.40731   0.41586
 Alpha virt. eigenvalues --    0.41634   0.42224   0.42522   0.43029   0.43866
 Alpha virt. eigenvalues --    0.44222   0.44254   0.44695   0.44884   0.45264
 Alpha virt. eigenvalues --    0.45685   0.46339   0.46718   0.47132   0.48284
 Alpha virt. eigenvalues --    0.48385   0.49266   0.49881   0.50573   0.51186
 Alpha virt. eigenvalues --    0.52237   0.52737   0.52968   0.53904   0.55230
 Alpha virt. eigenvalues --    0.55588   0.56904   0.57633   0.58205   0.60394
 Alpha virt. eigenvalues --    0.61977   0.62988   0.64026   0.65961   0.66170
 Alpha virt. eigenvalues --    0.67230   0.68689   0.69865   0.70392   0.72111
 Alpha virt. eigenvalues --    0.73078   0.73435   0.74958   0.75339   0.76257
 Alpha virt. eigenvalues --    0.78290   0.78741   0.79637   0.81216   0.82892
 Alpha virt. eigenvalues --    0.84026   0.84439   0.86836   0.87049   0.92266
 Alpha virt. eigenvalues --    0.94548   0.97639   1.00861   1.03997   1.04531
 Alpha virt. eigenvalues --    1.06040   1.07366   1.09647   1.10514   1.12384
 Alpha virt. eigenvalues --    1.13963   1.15057   1.15938   1.16262   1.19148
 Alpha virt. eigenvalues --    1.20546   1.25629   1.27251   1.29998   1.31111
 Alpha virt. eigenvalues --    1.31445   1.33424   1.34876   1.35492   1.37140
 Alpha virt. eigenvalues --    1.37488   1.38732   1.39405   1.40335   1.40670
 Alpha virt. eigenvalues --    1.41211   1.42705   1.43234   1.44138   1.44485
 Alpha virt. eigenvalues --    1.44797   1.45239   1.45399   1.46269   1.46643
 Alpha virt. eigenvalues --    1.47638   1.47876   1.48383   1.48995   1.49296
 Alpha virt. eigenvalues --    1.49735   1.50594   1.51446   1.51837   1.52187
 Alpha virt. eigenvalues --    1.53025   1.53903   1.54061   1.55212   1.55463
 Alpha virt. eigenvalues --    1.55639   1.56703   1.57501   1.57722   1.58682
 Alpha virt. eigenvalues --    1.60755   1.61909   1.62529   1.63959   1.64687
 Alpha virt. eigenvalues --    1.68151   1.68676   1.69661   1.70586   1.73468
 Alpha virt. eigenvalues --    1.77701   1.81507   1.89929   1.92983   1.97015
 Alpha virt. eigenvalues --    1.98763   2.00351   2.02163   2.02483   2.03129
 Alpha virt. eigenvalues --    2.03820   2.04366   2.05726   2.06434   2.06549
 Alpha virt. eigenvalues --    2.08150   2.08838   2.10500   2.11460   2.12693
 Alpha virt. eigenvalues --    2.13473   2.13583   2.15130   2.15344   2.16372
 Alpha virt. eigenvalues --    2.17815   2.18502   2.18960   2.19727   2.20464
 Alpha virt. eigenvalues --    2.21267   2.21780   2.22334   2.24443   2.25209
 Alpha virt. eigenvalues --    2.28267   2.28664   2.31370   2.33103   2.33391
 Alpha virt. eigenvalues --    2.35026   2.35746   2.38443   2.39656   2.42004
 Alpha virt. eigenvalues --    2.45290   2.47345   2.48344   2.49252   2.51968
 Alpha virt. eigenvalues --    2.52583   2.55259   2.56620   2.58940   2.62583
 Alpha virt. eigenvalues --    2.63930   2.65223   2.67221   2.68733   2.69271
 Alpha virt. eigenvalues --    2.70881   2.73422   2.73898   2.75264   2.78444
 Alpha virt. eigenvalues --    2.79967   2.81190   2.84037   2.84300   2.87521
 Alpha virt. eigenvalues --    2.88500   2.89354   2.97125   2.99338   3.02648
 Alpha virt. eigenvalues --    3.04966   3.13881   3.14439   3.19583   3.21875
 Alpha virt. eigenvalues --    3.22848   3.26635   3.27882   3.33623   3.37392
 Alpha virt. eigenvalues --    3.43018   3.44870   3.46586   3.48515   3.50107
 Alpha virt. eigenvalues --    3.51331   3.51743   3.53490   3.54335   3.55213
 Alpha virt. eigenvalues --    3.56767   3.59087   3.59513   3.60074   3.60426
 Alpha virt. eigenvalues --    3.63412   3.65657   3.67688   3.69484   3.70885
 Alpha virt. eigenvalues --    3.74954   3.75581   3.77685   3.79410   3.80273
 Alpha virt. eigenvalues --    3.82201   3.86089   3.88828   3.99647   4.04068
 Alpha virt. eigenvalues --    4.08755   4.29138   4.30122   4.31577   4.32540
 Alpha virt. eigenvalues --    4.35995   4.37486   4.39275   4.40456   4.42599
 Alpha virt. eigenvalues --    4.46601   4.51175   4.62927   6.36498   6.39705
 Alpha virt. eigenvalues --    6.40952   6.41901   6.42780   6.43303   6.44156
 Alpha virt. eigenvalues --    6.44940   6.45160   6.45528   6.47043   6.48320
 Alpha virt. eigenvalues --    6.48474   6.48625   6.49492   6.50843   6.51894
 Alpha virt. eigenvalues --    6.52760   6.53807   6.54070   6.54828   6.55870
 Alpha virt. eigenvalues --    6.58434   6.58914   6.61369   6.63731   6.65026
 Alpha virt. eigenvalues --    6.66647   6.68497   6.73490   6.75019   6.79618
 Alpha virt. eigenvalues --    6.83221   6.84916   6.85868   6.86150   6.89921
 Alpha virt. eigenvalues --    6.95418   7.00207   9.07924   9.08252   9.08873
 Alpha virt. eigenvalues --    9.09119   9.09869   9.10532   9.11102   9.11373
 Alpha virt. eigenvalues --    9.12390   9.12841   9.15248   9.16403   9.17393
 Alpha virt. eigenvalues --    9.17946   9.18353   9.18847   9.19824   9.20528
 Alpha virt. eigenvalues --    9.21134   9.22182   9.22326   9.23124   9.23409
 Alpha virt. eigenvalues --    9.24177   9.25312   9.26011   9.27085   9.27811
 Alpha virt. eigenvalues --    9.28809   9.29212   9.29742   9.30305   9.33928
 Alpha virt. eigenvalues --    9.34141   9.34928   9.36745   9.38970   9.41463
 Alpha virt. eigenvalues --    9.43770   9.46103   9.46371   9.49871   9.51774
 Alpha virt. eigenvalues --    9.56091   9.64214   9.66206   9.67432   9.67713
 Alpha virt. eigenvalues --    9.69346   9.69936   9.72434   9.73551   9.74820
 Alpha virt. eigenvalues --    9.75559   9.77395   9.78155   9.79056   9.80480
 Alpha virt. eigenvalues --    9.80838   9.84293   9.87812   9.88573   9.89134
 Alpha virt. eigenvalues --    9.90739   9.92016  23.90170  23.93696  23.97274
 Alpha virt. eigenvalues --   24.01694  24.06286  24.09129  66.90590  66.93283
 Alpha virt. eigenvalues --   66.93412  66.94492  66.94603  66.95532  66.96617
 Alpha virt. eigenvalues --   66.98625  66.99294  67.01383  67.03688  67.04894
 Alpha virt. eigenvalues --   67.06338
  Beta  occ. eigenvalues --  -24.89813 -24.88499 -24.88416 -24.88368 -24.88358
  Beta  occ. eigenvalues --  -24.88206 -24.88187 -24.88028 -24.88018 -24.87807
  Beta  occ. eigenvalues --  -24.87536 -24.87484 -24.87346 -10.58882 -10.58711
  Beta  occ. eigenvalues --  -10.53582 -10.53332 -10.53238 -10.44579  -1.46848
  Beta  occ. eigenvalues --   -1.46610  -1.44635  -1.43642  -1.42520  -1.41261
  Beta  occ. eigenvalues --   -1.38898  -1.37508  -1.37472  -1.37219  -1.36985
  Beta  occ. eigenvalues --   -1.36799  -1.36298  -0.96574  -0.94145  -0.90063
  Beta  occ. eigenvalues --   -0.84904  -0.80778  -0.78921  -0.75907  -0.75794
  Beta  occ. eigenvalues --   -0.74584  -0.73821  -0.73319  -0.72787  -0.72357
  Beta  occ. eigenvalues --   -0.72107  -0.70607  -0.70351  -0.69547  -0.68869
  Beta  occ. eigenvalues --   -0.62257  -0.62115  -0.61881  -0.60880  -0.60497
  Beta  occ. eigenvalues --   -0.60112  -0.59883  -0.59525  -0.59376  -0.59113
  Beta  occ. eigenvalues --   -0.58241  -0.57346  -0.56589  -0.56153  -0.55846
  Beta  occ. eigenvalues --   -0.55786  -0.55371  -0.55259  -0.54929  -0.54467
  Beta  occ. eigenvalues --   -0.54306  -0.53824  -0.53599  -0.52756  -0.49938
  Beta  occ. eigenvalues --   -0.44901
  Beta virt. eigenvalues --   -0.07008   0.05502   0.07160   0.07728   0.08228
  Beta virt. eigenvalues --    0.09750   0.10013   0.10360   0.10724   0.12004
  Beta virt. eigenvalues --    0.12453   0.12722   0.13316   0.13515   0.14007
  Beta virt. eigenvalues --    0.15114   0.15328   0.15907   0.16808   0.17559
  Beta virt. eigenvalues --    0.17809   0.18945   0.19107   0.19582   0.21110
  Beta virt. eigenvalues --    0.22164   0.22253   0.23284   0.24032   0.24223
  Beta virt. eigenvalues --    0.24842   0.25635   0.26205   0.26513   0.27710
  Beta virt. eigenvalues --    0.29318   0.29426   0.29936   0.30723   0.31012
  Beta virt. eigenvalues --    0.31233   0.31721   0.32185   0.32461   0.33054
  Beta virt. eigenvalues --    0.33340   0.34378   0.34571   0.35226   0.36102
  Beta virt. eigenvalues --    0.36417   0.37023   0.37694   0.38414   0.38695
  Beta virt. eigenvalues --    0.38918   0.39363   0.39737   0.39983   0.40841
  Beta virt. eigenvalues --    0.41587   0.41681   0.42255   0.42588   0.43115
  Beta virt. eigenvalues --    0.43906   0.44231   0.44350   0.44761   0.44998
  Beta virt. eigenvalues --    0.45316   0.45795   0.46370   0.46858   0.47172
  Beta virt. eigenvalues --    0.48333   0.48402   0.49319   0.49923   0.50634
  Beta virt. eigenvalues --    0.51229   0.52329   0.52783   0.52974   0.53969
  Beta virt. eigenvalues --    0.55246   0.55858   0.57064   0.57708   0.58265
  Beta virt. eigenvalues --    0.60440   0.62027   0.63113   0.64285   0.66001
  Beta virt. eigenvalues --    0.66326   0.67346   0.68748   0.69999   0.70580
  Beta virt. eigenvalues --    0.72214   0.73407   0.73823   0.75022   0.75710
  Beta virt. eigenvalues --    0.76838   0.78426   0.79093   0.80367   0.81392
  Beta virt. eigenvalues --    0.83212   0.84123   0.84578   0.87090   0.87705
  Beta virt. eigenvalues --    0.92834   0.94658   0.98204   1.00954   1.04117
  Beta virt. eigenvalues --    1.04690   1.06253   1.07712   1.09838   1.10709
  Beta virt. eigenvalues --    1.12506   1.14022   1.15196   1.16269   1.16433
  Beta virt. eigenvalues --    1.19309   1.20767   1.25874   1.27506   1.30205
  Beta virt. eigenvalues --    1.31193   1.31660   1.33757   1.34983   1.35614
  Beta virt. eigenvalues --    1.37301   1.37571   1.38854   1.39592   1.40540
  Beta virt. eigenvalues --    1.40725   1.41350   1.42815   1.43402   1.44330
  Beta virt. eigenvalues --    1.44584   1.45049   1.45330   1.45530   1.46382
  Beta virt. eigenvalues --    1.46787   1.47740   1.48039   1.48482   1.49077
  Beta virt. eigenvalues --    1.49413   1.49750   1.50720   1.51605   1.51941
  Beta virt. eigenvalues --    1.52284   1.53136   1.53976   1.54167   1.55245
  Beta virt. eigenvalues --    1.55530   1.55712   1.56791   1.57570   1.57841
  Beta virt. eigenvalues --    1.58739   1.60819   1.61986   1.62709   1.64048
  Beta virt. eigenvalues --    1.64758   1.68193   1.68744   1.69746   1.70686
  Beta virt. eigenvalues --    1.74109   1.77815   1.81646   1.90006   1.93031
  Beta virt. eigenvalues --    1.97144   1.98875   2.00403   2.02202   2.02610
  Beta virt. eigenvalues --    2.03191   2.03869   2.04471   2.05770   2.06523
  Beta virt. eigenvalues --    2.06607   2.08214   2.08901   2.10543   2.11506
  Beta virt. eigenvalues --    2.12789   2.13517   2.13733   2.15210   2.15413
  Beta virt. eigenvalues --    2.16456   2.17835   2.18610   2.19003   2.19967
  Beta virt. eigenvalues --    2.20578   2.21446   2.21880   2.22525   2.24770
  Beta virt. eigenvalues --    2.25672   2.28457   2.29225   2.31675   2.33286
  Beta virt. eigenvalues --    2.33681   2.35225   2.35838   2.38583   2.39861
  Beta virt. eigenvalues --    2.42059   2.45441   2.47526   2.48387   2.49309
  Beta virt. eigenvalues --    2.52376   2.52645   2.55381   2.56820   2.59243
  Beta virt. eigenvalues --    2.62673   2.63964   2.65599   2.67286   2.68895
  Beta virt. eigenvalues --    2.69351   2.70897   2.73510   2.74249   2.76301
  Beta virt. eigenvalues --    2.78506   2.80070   2.81754   2.84133   2.85094
  Beta virt. eigenvalues --    2.87876   2.88571   2.89631   2.97227   2.99714
  Beta virt. eigenvalues --    3.03314   3.05193   3.14284   3.14585   3.19801
  Beta virt. eigenvalues --    3.21952   3.23278   3.28433   3.29072   3.35143
  Beta virt. eigenvalues --    3.38079   3.44084   3.46010   3.47861   3.48826
  Beta virt. eigenvalues --    3.50507   3.51979   3.52915   3.53629   3.54597
  Beta virt. eigenvalues --    3.55698   3.56896   3.59322   3.59741   3.60357
  Beta virt. eigenvalues --    3.61282   3.65387   3.66501   3.68632   3.69880
  Beta virt. eigenvalues --    3.71128   3.75504   3.76040   3.77887   3.79981
  Beta virt. eigenvalues --    3.80307   3.82844   3.86528   3.89422   4.00464
  Beta virt. eigenvalues --    4.05281   4.09232   4.29140   4.30284   4.31633
  Beta virt. eigenvalues --    4.32549   4.36170   4.37863   4.39335   4.40522
  Beta virt. eigenvalues --    4.43225   4.46804   4.51318   4.63900   6.36961
  Beta virt. eigenvalues --    6.40519   6.41040   6.41946   6.42859   6.43366
  Beta virt. eigenvalues --    6.44268   6.44955   6.45223   6.45561   6.47150
  Beta virt. eigenvalues --    6.48387   6.48541   6.48689   6.49647   6.50864
  Beta virt. eigenvalues --    6.51932   6.52964   6.53848   6.54192   6.54892
  Beta virt. eigenvalues --    6.55957   6.58474   6.59060   6.61430   6.63810
  Beta virt. eigenvalues --    6.65091   6.66700   6.68611   6.73551   6.75081
  Beta virt. eigenvalues --    6.80034   6.83279   6.85078   6.85992   6.86170
  Beta virt. eigenvalues --    6.89929   6.95517   7.00272   9.08126   9.08327
  Beta virt. eigenvalues --    9.08922   9.09305   9.09933   9.10596   9.11202
  Beta virt. eigenvalues --    9.11408   9.12619   9.13431   9.15736   9.16851
  Beta virt. eigenvalues --    9.17540   9.18113   9.18432   9.19208   9.19883
  Beta virt. eigenvalues --    9.20638   9.21318   9.22350   9.22513   9.23336
  Beta virt. eigenvalues --    9.23559   9.24393   9.25382   9.26083   9.27137
  Beta virt. eigenvalues --    9.27949   9.29047   9.29702   9.29866   9.30385
  Beta virt. eigenvalues --    9.34011   9.34193   9.35025   9.37374   9.39073
  Beta virt. eigenvalues --    9.41590   9.43867   9.46178   9.46674   9.50022
  Beta virt. eigenvalues --    9.51825   9.56337   9.64379   9.66263   9.67600
  Beta virt. eigenvalues --    9.67758   9.69439   9.70030   9.72644   9.73569
  Beta virt. eigenvalues --    9.74825   9.75833   9.77661   9.78185   9.79143
  Beta virt. eigenvalues --    9.80528   9.81050   9.84494   9.87903   9.88723
  Beta virt. eigenvalues --    9.89147   9.90743   9.92118  23.91977  23.93690
  Beta virt. eigenvalues --   23.97449  24.01643  24.06449  24.09200  66.90802
  Beta virt. eigenvalues --   66.93286  66.93444  66.94505  66.94642  66.95567
  Beta virt. eigenvalues --   66.96640  66.98652  66.99338  67.01419  67.03738
  Beta virt. eigenvalues --   67.04912  67.06376
          Condensed to atoms (all electrons):
               1          2          3          4          5          6
     1  C    9.135506   0.123530   0.301272   0.154933  -3.313953  -0.123772
     2  F    0.123530   9.094911  -0.011839   0.014064  -0.050674   0.025094
     3  F    0.301272  -0.011839   9.065117  -0.000431  -0.041220   0.009724
     4  F    0.154933   0.014064  -0.000431   9.081529  -0.031627   0.007365
     5  C   -3.313953  -0.050674  -0.041220  -0.031627  11.783617   0.148450
     6  F   -0.123772   0.025094   0.009724   0.007365   0.148450   9.176097
     7  C    1.664776   0.049887  -0.080468   0.000336  -4.252638   0.054066
     8  F    0.059868   0.000039   0.007650   0.006752  -0.164868  -0.000722
     9  F   -0.027549  -0.001201  -0.002201   0.011953  -0.128279   0.001292
    10  C   -2.559833   0.021662   0.005031   0.044926   2.708688  -0.126127
    11  F    0.033213   0.000018   0.000049  -0.000111   0.041113   0.016057
    12  F   -0.012257  -0.000023  -0.000268  -0.000082  -0.037264   0.013836
    13  C   -0.346303   0.001615  -0.000234   0.005455  -0.897219   0.041356
    14  F    0.001519  -0.000001   0.000002   0.000021   0.014622  -0.000012
    15  F    0.001504   0.000005  -0.000000   0.000012  -0.017212   0.000020
    16  C   -0.083862   0.000098   0.000056   0.000319  -0.171717  -0.006916
    17  F    0.000231   0.000000   0.000000  -0.000000   0.001316  -0.000011
    18  F    0.000632  -0.000000   0.000000  -0.000001   0.006088   0.000055
    19  F    0.000433  -0.000001  -0.000000   0.000000   0.010362   0.000057
               7          8          9         10         11         12
     1  C    1.664776   0.059868  -0.027549  -2.559833   0.033213  -0.012257
     2  F    0.049887   0.000039  -0.001201   0.021662   0.000018  -0.000023
     3  F   -0.080468   0.007650  -0.002201   0.005031   0.000049  -0.000268
     4  F    0.000336   0.006752   0.011953   0.044926  -0.000111  -0.000082
     5  C   -4.252638  -0.164868  -0.128279   2.708688   0.041113  -0.037264
     6  F    0.054066  -0.000722   0.001292  -0.126127   0.016057   0.013836
     7  C   16.531413   0.442657   0.421595  -9.030305  -0.228260  -0.148550
     8  F    0.442657   9.091402  -0.002562  -0.220536  -0.000836   0.027819
     9  F    0.421595  -0.002562   9.093717  -0.170566   0.017003  -0.000464
    10  C   -9.030305  -0.220536  -0.170566  18.129775   0.392021   0.431191
    11  F   -0.228260  -0.000836   0.017003   0.392021   9.100235   0.022799
    12  F   -0.148550   0.027819  -0.000464   0.431191   0.022799   9.096756
    13  C    1.614070   0.016031  -0.001272  -5.013231  -0.168829  -0.183474
    14  F    0.018572   0.004155   0.003065  -0.138008  -0.000146   0.013108
    15  F    0.041032  -0.003305   0.007725  -0.137779   0.019100   0.001122
    16  C   -1.321486  -0.020525   0.012063   1.302860   0.019293   0.036479
    17  F    0.022559   0.000036  -0.000000   0.062454  -0.000401   0.000314
    18  F    0.001477  -0.000724   0.000154   0.034097  -0.004032  -0.007567
    19  F    0.045595   0.000052  -0.000386   0.012422  -0.004548   0.000493
              13         14         15         16         17         18
     1  C   -0.346303   0.001519   0.001504  -0.083862   0.000231   0.000632
     2  F    0.001615  -0.000001   0.000005   0.000098   0.000000  -0.000000
     3  F   -0.000234   0.000002  -0.000000   0.000056   0.000000   0.000000
     4  F    0.005455   0.000021   0.000012   0.000319  -0.000000  -0.000001
     5  C   -0.897219   0.014622  -0.017212  -0.171717   0.001316   0.006088
     6  F    0.041356  -0.000012   0.000020  -0.006916  -0.000011   0.000055
     7  C    1.614070   0.018572   0.041032  -1.321486   0.022559   0.001477
     8  F    0.016031   0.004155  -0.003305  -0.020525   0.000036  -0.000724
     9  F   -0.001272   0.003065   0.007725   0.012063  -0.000000   0.000154
    10  C   -5.013231  -0.138008  -0.137779   1.302860   0.062454   0.034097
    11  F   -0.168829  -0.000146   0.019100   0.019293  -0.000401  -0.004032
    12  F   -0.183474   0.013108   0.001122   0.036479   0.000314  -0.007567
    13  C   11.556061   0.368600   0.411942  -1.558093  -0.120903  -0.119018
    14  F    0.368600   9.111455   0.001062  -0.161997   0.019496   0.023505
    15  F    0.411942   0.001062   9.084123  -0.182386   0.021354  -0.001765
    16  C   -1.558093  -0.161997  -0.182386   6.320877   0.162222   0.295129
    17  F   -0.120903   0.019496   0.021354   0.162222   9.131436  -0.014017
    18  F   -0.119018   0.023505  -0.001765   0.295129  -0.014017   9.039228
    19  F   -0.114258  -0.000179   0.020015   0.241770  -0.005316   0.017431
              19
     1  C    0.000433
     2  F   -0.000001
     3  F   -0.000000
     4  F    0.000000
     5  C    0.010362
     6  F    0.000057
     7  C    0.045595
     8  F    0.000052
     9  F   -0.000386
    10  C    0.012422
    11  F   -0.004548
    12  F    0.000493
    13  C   -0.114258
    14  F   -0.000179
    15  F    0.020015
    16  C    0.241770
    17  F   -0.005316
    18  F    0.017431
    19  F    9.055248
          Atomic-Atomic Spin Densities.
               1          2          3          4          5          6
     1  C   -0.070040  -0.003639  -0.010304   0.002966   0.064340   0.001180
     2  F   -0.003639   0.026734  -0.004195   0.001059  -0.018350   0.002732
     3  F   -0.010304  -0.004195   0.056912   0.000792  -0.027729   0.002805
     4  F    0.002966   0.001059   0.000792   0.001495  -0.000898  -0.000172
     5  C    0.064340  -0.018350  -0.027729  -0.000898   0.986310  -0.109132
     6  F    0.001180   0.002732   0.002805  -0.000172  -0.109132   0.169602
     7  C    0.034871   0.000278  -0.007480  -0.003725   0.018605  -0.005814
     8  F   -0.001428  -0.000725   0.003260   0.000397  -0.025195   0.001734
     9  F   -0.000057   0.000589  -0.000560   0.000311  -0.021024   0.001096
    10  C   -0.019065   0.000012   0.001867   0.001254   0.018883   0.003249
    11  F   -0.000608   0.000043  -0.000065  -0.000005  -0.006577   0.001451
    12  F    0.000243  -0.000003   0.000024   0.000007  -0.000176  -0.000013
    13  C    0.003266  -0.000070   0.000120  -0.000018  -0.000337  -0.000731
    14  F   -0.000067   0.000001  -0.000006  -0.000001  -0.000047   0.000002
    15  F    0.000014  -0.000000   0.000001   0.000001  -0.000150  -0.000009
    16  C   -0.000450  -0.000022   0.000034   0.000007  -0.000645  -0.000031
    17  F    0.000000   0.000000  -0.000000  -0.000000  -0.000006   0.000001
    18  F    0.000017  -0.000000   0.000000   0.000000  -0.000061   0.000004
    19  F   -0.000021  -0.000000  -0.000000  -0.000000  -0.000005  -0.000002
               7          8          9         10         11         12
     1  C    0.034871  -0.001428  -0.000057  -0.019065  -0.000608   0.000243
     2  F    0.000278  -0.000725   0.000589   0.000012   0.000043  -0.000003
     3  F   -0.007480   0.003260  -0.000560   0.001867  -0.000065   0.000024
     4  F   -0.003725   0.000397   0.000311   0.001254  -0.000005   0.000007
     5  C    0.018605  -0.025195  -0.021024   0.018883  -0.006577  -0.000176
     6  F   -0.005814   0.001734   0.001096   0.003249   0.001451  -0.000013
     7  C    0.035154  -0.025196   0.005615  -0.074837   0.001509  -0.000633
     8  F   -0.025196   0.075195  -0.004895  -0.004825  -0.000819   0.000881
     9  F    0.005615  -0.004895   0.026207   0.001953   0.001189  -0.000331
    10  C   -0.074837  -0.004825   0.001953   0.099760   0.000979  -0.001348
    11  F    0.001509  -0.000819   0.001189   0.000979   0.002183  -0.000197
    12  F   -0.000633   0.000881  -0.000331  -0.001348  -0.000197   0.001333
    13  C    0.018651   0.002367  -0.002446  -0.023625   0.000460   0.000986
    14  F   -0.000039  -0.000361   0.000266   0.001258   0.000071  -0.000067
    15  F    0.000600   0.000116  -0.000158  -0.000542   0.000022   0.000010
    16  C   -0.010865   0.000169  -0.000366   0.010843  -0.000607  -0.000157
    17  F    0.000077  -0.000004   0.000004   0.000226   0.000002  -0.000000
    18  F   -0.000056   0.000025  -0.000014  -0.000045  -0.000021   0.000018
    19  F   -0.000330  -0.000001   0.000003   0.000315   0.000043  -0.000000
              13         14         15         16         17         18
     1  C    0.003266  -0.000067   0.000014  -0.000450   0.000000   0.000017
     2  F   -0.000070   0.000001  -0.000000  -0.000022   0.000000  -0.000000
     3  F    0.000120  -0.000006   0.000001   0.000034  -0.000000   0.000000
     4  F   -0.000018  -0.000001   0.000001   0.000007  -0.000000   0.000000
     5  C   -0.000337  -0.000047  -0.000150  -0.000645  -0.000006  -0.000061
     6  F   -0.000731   0.000002  -0.000009  -0.000031   0.000001   0.000004
     7  C    0.018651  -0.000039   0.000600  -0.010865   0.000077  -0.000056
     8  F    0.002367  -0.000361   0.000116   0.000169  -0.000004   0.000025
     9  F   -0.002446   0.000266  -0.000158  -0.000366   0.000004  -0.000014
    10  C   -0.023625   0.001258  -0.000542   0.010843   0.000226  -0.000045
    11  F    0.000460   0.000071   0.000022  -0.000607   0.000002  -0.000021
    12  F    0.000986  -0.000067   0.000010  -0.000157  -0.000000   0.000018
    13  C    0.011182  -0.001075  -0.000118  -0.008862  -0.000147  -0.000293
    14  F   -0.001075   0.000326  -0.000067   0.000094   0.000004  -0.000041
    15  F   -0.000118  -0.000067   0.000044   0.000240  -0.000009   0.000015
    16  C   -0.008862   0.000094   0.000240   0.009925  -0.000080   0.000386
    17  F   -0.000147   0.000004  -0.000009  -0.000080  -0.000086  -0.000012
    18  F   -0.000293  -0.000041   0.000015   0.000386  -0.000012   0.000038
    19  F   -0.000111  -0.000002   0.000007   0.000150  -0.000004   0.000017
              19
     1  C   -0.000021
     2  F   -0.000000
     3  F   -0.000000
     4  F   -0.000000
     5  C   -0.000005
     6  F   -0.000002
     7  C   -0.000330
     8  F   -0.000001
     9  F    0.000003
    10  C    0.000315
    11  F    0.000043
    12  F   -0.000000
    13  C   -0.000111
    14  F   -0.000002
    15  F    0.000007
    16  C    0.000150
    17  F   -0.000004
    18  F    0.000017
    19  F    0.000001
 Mulliken charges and spin densities:
               1          2
     1  C    0.990112   0.001220
     2  F   -0.267184   0.004444
     3  F   -0.252241   0.015476
     4  F   -0.295416   0.003467
     5  C    0.392413   0.877806
     6  F   -0.235910   0.067953
     7  C    0.153669  -0.013614
     8  F   -0.242382   0.020695
     9  F   -0.234088   0.007382
    10  C    0.251258   0.016310
    11  F   -0.253741  -0.000947
    12  F   -0.253966   0.000576
    13  C    0.507703  -0.000800
    14  F   -0.278840   0.000250
    15  F   -0.266568   0.000017
    16  C    1.115815  -0.000238
    17  F   -0.280771  -0.000035
    18  F   -0.270672  -0.000024
    19  F   -0.279191   0.000061
 Sum of Mulliken charges =  -0.00000   1.00000
 Mulliken charges and spin densities with hydrogens summed into heavy atoms:
               1          2
     1  C    0.990112   0.001220
     2  F   -0.267184   0.004444
     3  F   -0.252241   0.015476
     4  F   -0.295416   0.003467
     5  C    0.392413   0.877806
     6  F   -0.235910   0.067953
     7  C    0.153669  -0.013614
     8  F   -0.242382   0.020695
     9  F   -0.234088   0.007382
    10  C    0.251258   0.016310
    11  F   -0.253741  -0.000947
    12  F   -0.253966   0.000576
    13  C    0.507703  -0.000800
    14  F   -0.278840   0.000250
    15  F   -0.266568   0.000017
    16  C    1.115815  -0.000238
    17  F   -0.280771  -0.000035
    18  F   -0.270672  -0.000024
    19  F   -0.279191   0.000061
 Electronic spatial extent (au):  <R**2>=           4800.1223
 Charge=             -0.0000 electrons
 Dipole moment (field-independent basis, Debye):
    X=              0.0109    Y=             -0.2511    Z=             -0.2374  Tot=              0.3457
 Quadrupole moment (field-independent basis, Debye-Ang):
   XX=           -103.7483   YY=           -101.7570   ZZ=           -101.0650
   XY=              0.4827   XZ=              0.4400   YZ=              0.0054
 Traceless Quadrupole moment (field-independent basis, Debye-Ang):
   XX=             -1.5582   YY=              0.4331   ZZ=              1.1251
   XY=              0.4827   XZ=              0.4400   YZ=              0.0054
 Octapole moment (field-independent basis, Debye-Ang**2):
  XXX=             11.8971  YYY=             -1.0156  ZZZ=              0.5571  XYY=              1.8279
  XXY=              0.1599  XXZ=              0.0735  XZZ=              0.6222  YZZ=             -0.4616
  YYZ=              1.2020  XYZ=              0.2794
 Hexadecapole moment (field-independent basis, Debye-Ang**3):
 XXXX=          -3943.5644 YYYY=           -599.7174 ZZZZ=           -417.3264 XXXY=            -19.3403
 XXXZ=             -2.6207 YYYX=             -2.2466 YYYZ=             -0.7171 ZZZX=             -0.7076
 ZZZY=             -1.4837 XXYY=           -749.1045 XXZZ=           -724.3369 YYZZ=           -171.4456
 XXYZ=             -0.5004 YYXZ=             -1.7232 ZZXY=              0.3761
 N-N= 1.882193993326D+03 E-N=-7.390788587953D+03  KE= 1.522663650415D+03
                          Isotropic Fermi Contact Couplings
        Atom                 a.u.       MegaHertz       Gauss      10(-4) cm-1
     1  C(13)             -0.02864     -32.19583     -11.48827     -10.73937
     2  F(19)              0.01047      44.04063      15.71479      14.69037
     3  F(19)              0.02224      93.56617      33.38674      31.21032
     4  F(19)             -0.00178      -7.50740      -2.67883      -2.50420
     5  C(13)              0.12415     139.56372      49.79981      46.55345
     6  F(19)              0.03863     162.52677      57.99359      54.21309
     7  C(13)             -0.02180     -24.50506      -8.74402      -8.17401
     8  F(19)              0.03755     157.98649      56.37351      52.69862
     9  F(19)              0.01474      62.00809      22.12603      20.68367
    10  C(13)             -0.00008      -0.08638      -0.03082      -0.02881
    11  F(19)              0.00258      10.85103       3.87192       3.61952
    12  F(19)              0.00022       0.91252       0.32561       0.30438
    13  C(13)             -0.00043      -0.47943      -0.17107      -0.15992
    14  F(19)              0.00017       0.70968       0.25323       0.23672
    15  F(19)             -0.00003      -0.10643      -0.03798      -0.03550
    16  C(13)             -0.00020      -0.21938      -0.07828      -0.07318
    17  F(19)             -0.00004      -0.17049      -0.06083      -0.05687
    18  F(19)              0.00002       0.07173       0.02559       0.02393
    19  F(19)              0.00005       0.22666       0.08088       0.07560
 --------------------------------------------------------
       Center         ----  Spin Dipole Couplings  ----
                      3XX-RR        3YY-RR        3ZZ-RR
 --------------------------------------------------------
     1   Atom        0.016178     -0.015888     -0.000290
     2   Atom        0.104986     -0.047949     -0.057037
     3   Atom        0.182308     -0.117762     -0.064547
     4   Atom       -0.028747     -0.009788      0.038535
     5   Atom       -0.566595     -0.584283      1.150878
     6   Atom       -0.454268     -0.555067      1.009335
     7   Atom        0.003561     -0.002575     -0.000986
     8   Atom       -0.063028      0.099032     -0.036005
     9   Atom       -0.057455      0.115558     -0.058103
    10   Atom        0.013091     -0.007401     -0.005689
    11   Atom        0.024199     -0.010967     -0.013232
    12   Atom        0.008967     -0.002577     -0.006390
    13   Atom        0.003246     -0.001668     -0.001579
    14   Atom        0.002504     -0.000968     -0.001536
    15   Atom        0.002188     -0.000839     -0.001349
    16   Atom        0.002099     -0.001161     -0.000938
    17   Atom        0.000696     -0.000335     -0.000361
    18   Atom        0.001751     -0.000994     -0.000757
    19   Atom        0.002219     -0.001120     -0.001099
 --------------------------------------------------------
                        XY            XZ            YZ
 --------------------------------------------------------
     1   Atom       -0.007596      0.014727     -0.002401
     2   Atom        0.049050     -0.013661     -0.003612
     3   Atom        0.011939     -0.127414     -0.001906
     4   Atom        0.001947      0.002434      0.014406
     5   Atom       -0.003929     -0.106244      0.094035
     6   Atom        0.008514     -0.079418      0.080042
     7   Atom        0.017972     -0.012019     -0.009243
     8   Atom        0.155876      0.111650      0.170589
     9   Atom        0.055563      0.010793      0.032625
    10   Atom        0.002785      0.002209      0.000322
    11   Atom       -0.012238     -0.002119     -0.000349
    12   Atom       -0.008089      0.005359     -0.001336
    13   Atom        0.000877      0.000259      0.000144
    14   Atom        0.002026      0.001146      0.000561
    15   Atom        0.001653     -0.001035     -0.000454
    16   Atom        0.000313      0.000149      0.000033
    17   Atom        0.000340      0.000042      0.000016
    18   Atom       -0.000278      0.000715     -0.000074
    19   Atom       -0.000452     -0.000427      0.000096
 --------------------------------------------------------


 ---------------------------------------------------------------------------------
              Anisotropic Spin Dipole Couplings in Principal Axis System
 ---------------------------------------------------------------------------------

       Atom             a.u.   MegaHertz   Gauss  10(-4) cm-1        Axes

              Baa    -0.0177    -2.371    -0.846    -0.791  0.2511  0.9647 -0.0795
     1 C(13)  Bbb    -0.0086    -1.152    -0.411    -0.384 -0.4579  0.1908  0.8683
              Bcc     0.0263     3.523     1.257     1.175  0.8528 -0.1816  0.4896
 
              Baa    -0.0624   -31.320   -11.176   -10.447 -0.2868  0.9538 -0.0889
     2 F(19)  Bbb    -0.0581   -29.193   -10.417    -9.738  0.0507  0.1078  0.9929
              Bcc     0.1205    60.513    21.593    20.185  0.9566  0.2803 -0.0793
 
              Baa    -0.1212   -60.889   -21.727   -20.310 -0.3049  0.6843 -0.6624
     3 F(19)  Bbb    -0.1154   -57.970   -20.685   -19.337  0.2446  0.7285  0.6399
              Bcc     0.2367   118.858    42.412    39.647  0.9204  0.0331 -0.3895
 
              Baa    -0.0290   -14.545    -5.190    -4.852  0.9959 -0.0883 -0.0171
     4 F(19)  Bbb    -0.0137    -6.859    -2.447    -2.288  0.0805  0.9599 -0.2687
              Bcc     0.0426    21.404     7.638     7.140  0.0401  0.2662  0.9631
 
              Baa    -0.5896   -79.114   -28.230   -26.389 -0.1090  0.9922 -0.0603
     5 C(13)  Bbb    -0.5729   -76.882   -27.433   -25.645  0.9921  0.1124  0.0550
              Bcc     1.1625   155.996    55.663    52.035 -0.0614  0.0538  0.9967
 
              Baa    -0.5607  -281.593  -100.479   -93.929 -0.1216  0.9910 -0.0567
     6 F(19)  Bbb    -0.4570  -229.496   -81.890   -76.552  0.9911  0.1243  0.0469
              Bcc     1.0176   511.089   182.369   170.481 -0.0535  0.0505  0.9973
 
              Baa    -0.0178    -2.386    -0.852    -0.796 -0.6639  0.7450 -0.0651
     7 C(13)  Bbb    -0.0092    -1.229    -0.439    -0.410  0.3187  0.3606  0.8766
              Bcc     0.0269     3.615     1.290     1.206  0.6765  0.5612 -0.4769
 
              Baa    -0.1625   -81.601   -29.117   -27.219  0.8280 -0.1392 -0.5432
     8 F(19)  Bbb    -0.1503   -75.475   -26.931   -25.176  0.3286 -0.6646  0.6711
              Bcc     0.3128   157.077    56.049    52.395  0.4544  0.7341  0.5045
 
              Baa    -0.0739   -37.113   -13.243   -12.380  0.9584 -0.2612 -0.1154
     9 F(19)  Bbb    -0.0640   -32.135   -11.467   -10.719  0.0639 -0.1975  0.9782
              Bcc     0.1379    69.249    24.710    23.099  0.2783  0.9449  0.1726
 
              Baa    -0.0078    -1.043    -0.372    -0.348 -0.1308  0.9913 -0.0147
    10 C(13)  Bbb    -0.0059    -0.798    -0.285    -0.266 -0.1152 -0.0005  0.9933
              Bcc     0.0137     1.841     0.657     0.614  0.9847  0.1316  0.1142
 
              Baa    -0.0153    -7.675    -2.739    -2.560  0.2872  0.8501  0.4415
    11 F(19)  Bbb    -0.0128    -6.451    -2.302    -2.152 -0.0922 -0.4342  0.8961
              Bcc     0.0281    14.127     5.041     4.712  0.9534 -0.2981 -0.0463
 
              Baa    -0.0086    -4.313    -1.539    -1.439 -0.4315 -0.4010  0.8081
    12 F(19)  Bbb    -0.0059    -2.979    -1.063    -0.994  0.2473  0.8089  0.5334
              Bcc     0.0145     7.292     2.602     2.432  0.8676 -0.4300  0.2498
 
              Baa    -0.0019    -0.249    -0.089    -0.083 -0.1416  0.9268 -0.3479
    13 C(13)  Bbb    -0.0016    -0.209    -0.075    -0.070 -0.1114  0.3343  0.9359
              Bcc     0.0034     0.458     0.163     0.153  0.9836  0.1713  0.0559
 
              Baa    -0.0019    -0.961    -0.343    -0.320 -0.3001  0.8725 -0.3855
    14 F(19)  Bbb    -0.0018    -0.920    -0.328    -0.307 -0.3619  0.2697  0.8923
              Bcc     0.0037     1.880     0.671     0.627  0.8826  0.4073  0.2348
 
              Baa    -0.0016    -0.819    -0.292    -0.273  0.2329  0.0696  0.9700
    15 F(19)  Bbb    -0.0016    -0.787    -0.281    -0.263 -0.3960  0.9178  0.0292
              Bcc     0.0032     1.606     0.573     0.536  0.8882  0.3909 -0.2413
 
              Baa    -0.0012    -0.160    -0.057    -0.053 -0.0909  0.9929 -0.0766
    16 C(13)  Bbb    -0.0009    -0.127    -0.045    -0.042 -0.0561  0.0717  0.9958
              Bcc     0.0021     0.287     0.102     0.096  0.9943  0.0948  0.0492
 
              Baa    -0.0004    -0.220    -0.078    -0.073 -0.2854  0.9571 -0.0500
    17 F(19)  Bbb    -0.0004    -0.182    -0.065    -0.061 -0.0512  0.0368  0.9980
              Bcc     0.0008     0.402     0.143     0.134  0.9570  0.2874  0.0385
 
              Baa    -0.0010    -0.513    -0.183    -0.171  0.0915  0.9953  0.0322
    18 F(19)  Bbb    -0.0009    -0.476    -0.170    -0.159 -0.2570 -0.0076  0.9664
              Bcc     0.0020     0.989     0.353     0.330  0.9621 -0.0967  0.2551
 
              Baa    -0.0012    -0.607    -0.216    -0.202  0.0348  0.8130 -0.5812
    19 F(19)  Bbb    -0.0011    -0.566    -0.202    -0.189  0.1792  0.5671  0.8039
              Bcc     0.0023     1.173     0.418     0.391  0.9832 -0.1321 -0.1259
 

 ---------------------------------------------------------------------------------

 Calling FoFJK, ICntrl=      2127 FMM=F ISym2X=0 I1Cent= 0 IOpClX= 1 NMat=1 NMatS=1 NMatT=0.
 ***** Axes restored to original set *****
 -------------------------------------------------------------------
 Center     Atomic                   Forces (Hartrees/Bohr)
 Number     Number              X              Y              Z
 -------------------------------------------------------------------
      1        6           0.000085395    0.000007852    0.000011312
      2        9          -0.000022799    0.000005974   -0.000000651
      3        9          -0.000015157   -0.000011950   -0.000005691
      4        9          -0.000080457    0.000000117   -0.000009156
      5        6           0.000094324   -0.000006328   -0.000060768
      6        9          -0.000053816    0.000025659    0.000002169
      7        6           0.000168796   -0.000072186    0.000033286
      8        9          -0.000126337    0.000056355    0.000099661
      9        9          -0.000154449    0.000125505    0.000031673
     10        6           0.003368710   -0.003483847   -0.001284218
     11        9           0.007093989   -0.001596424   -0.000148997
     12        9           0.008104523    0.000472038   -0.000191073
     13        6           0.003472981    0.010113648    0.000490808
     14        9           0.000218831   -0.004805432    0.007892214
     15        9           0.000155712   -0.003666848   -0.008639743
     16        6          -0.016256150    0.010159710    0.002188277
     17        9           0.017767803    0.013628012    0.002110272
     18        9          -0.011950322   -0.009292186   -0.020395113
     19        9          -0.011871578   -0.011659670    0.017875741
 -------------------------------------------------------------------
 Cartesian Forces:  Max     0.020395113 RMS     0.006691079

 GradGradGradGradGradGradGradGradGradGradGradGradGradGradGradGradGradGrad
 Berny optimization.
 FormGI is forming the generalized inverse of G from B-inverse, IUseBI=4.
 Internal  Forces:  Max     0.042414076 RMS     0.008178866
 Search for a local minimum.
 Step number   1 out of a maximum of  100
 All quantities printed in internal units (Hartrees-Bohrs-Radians)
 Mixed Optimization -- RFO/linear search
 Second derivative matrix not updated -- first step.
 ITU=  0
     Eigenvalues ---    0.00230   0.00230   0.00237   0.00739   0.00747
     Eigenvalues ---    0.01135   0.05087   0.06049   0.06224   0.06947
     Eigenvalues ---    0.07043   0.07904   0.08850   0.08850   0.11043
     Eigenvalues ---    0.11221   0.11647   0.13296   0.14366   0.18026
     Eigenvalues ---    0.19300   0.19972   0.23172   0.25000   0.25000
     Eigenvalues ---    0.25000   0.25000   0.25000   0.25000   0.25000
     Eigenvalues ---    0.25000   0.25000   0.25000   0.27070   0.27220
     Eigenvalues ---    0.28519   0.32163   0.32225   0.54112   0.55021
     Eigenvalues ---    0.55021   0.55021   0.55705   0.56721   0.57492
     Eigenvalues ---    0.57504   0.58682   0.60035   0.60481   0.60801
     Eigenvalues ---    0.63075
 RFO step:  Lambda=-2.14028848D-02 EMin= 2.30000000D-03
 Linear search not attempted -- first point.
 Iteration  1 RMS(Cart)=  0.14741391 RMS(Int)=  0.00940708
 Iteration  2 RMS(Cart)=  0.01353861 RMS(Int)=  0.00083755
 Iteration  3 RMS(Cart)=  0.00012499 RMS(Int)=  0.00083275
 Iteration  4 RMS(Cart)=  0.00000015 RMS(Int)=  0.00083275
 Variable       Old X    -DE/DX   Delta X   Delta X   Delta X     New X
                                 (Linear)    (Quad)   (Total)
    R1        2.51998  -0.00001   0.00000  -0.00002  -0.00002   2.51997
    R2        2.52972  -0.00001   0.00000  -0.00002  -0.00002   2.52969
    R3        2.50913   0.00000   0.00000   0.00000   0.00000   2.50913
    R4        2.83846  -0.00003   0.00000  -0.00010  -0.00010   2.83837
    R5        2.48587   0.00003   0.00000   0.00004   0.00004   2.48591
    R6        2.83734   0.00003   0.00000   0.00009   0.00009   2.83743
    R7        2.55930   0.00006   0.00000   0.00011   0.00011   2.55941
    R8        2.54511  -0.00010   0.00000  -0.00018  -0.00018   2.54492
    R9        2.93877  -0.00016   0.00000  -0.00053  -0.00053   2.93823
   R10        2.53634  -0.00040   0.00000  -0.00068  -0.00068   2.53566
   R11        2.52982  -0.00002   0.00000  -0.00004  -0.00004   2.52978
   R12        2.94217   0.01366   0.00000   0.04677   0.04677   2.98895
   R13        2.50561   0.00916   0.00000   0.01463   0.01463   2.52025
   R14        2.50312   0.00919   0.00000   0.01459   0.01459   2.51771
   R15        2.91018   0.01869   0.00000   0.06096   0.06096   2.97114
   R16        2.55113  -0.02224   0.00000  -0.03892  -0.03892   2.51221
   R17        2.55113  -0.02267   0.00000  -0.03967  -0.03967   2.51146
   R18        2.55113  -0.02214   0.00000  -0.03873  -0.03873   2.51240
    A1        1.87379   0.00003   0.00000   0.00019   0.00019   1.87398
    A2        1.90078   0.00006   0.00000   0.00018   0.00018   1.90096
    A3        1.92366  -0.00001   0.00000  -0.00001  -0.00001   1.92365
    A4        1.89063   0.00005   0.00000   0.00013   0.00013   1.89076
    A5        1.93873   0.00002   0.00000   0.00012   0.00012   1.93885
    A6        1.93466  -0.00014   0.00000  -0.00058  -0.00058   1.93408
    A7        1.98717   0.00010   0.00000   0.00042   0.00042   1.98759
    A8        2.15711  -0.00007   0.00000  -0.00022  -0.00022   2.15689
    A9        2.05470  -0.00004   0.00000  -0.00012  -0.00012   2.05458
   A10        1.92751   0.00007   0.00000   0.00064   0.00064   1.92815
   A11        1.90809   0.00006   0.00000   0.00037   0.00037   1.90846
   A12        1.96487   0.00013   0.00000   0.00042   0.00042   1.96528
   A13        1.87328   0.00009   0.00000   0.00045   0.00045   1.87372
   A14        1.88998  -0.00015   0.00000  -0.00074  -0.00074   1.88924
   A15        1.89764  -0.00020   0.00000  -0.00116  -0.00116   1.89648
   A16        1.89546  -0.00300   0.00000  -0.03066  -0.03035   1.86511
   A17        1.89859  -0.00391   0.00000  -0.02842  -0.02785   1.87075
   A18        2.00735  -0.00809   0.00000  -0.03304  -0.03266   1.97469
   A19        1.90801  -0.00081   0.00000   0.00576   0.00358   1.91160
   A20        1.87364   0.00690   0.00000   0.03582   0.03464   1.90828
   A21        1.87913   0.00927   0.00000   0.05320   0.05235   1.93148
   A22        1.93492  -0.01156   0.00000  -0.03830  -0.03981   1.89512
   A23        1.93558  -0.01347   0.00000  -0.05108  -0.05221   1.88337
   A24        1.89075   0.04241   0.00000   0.17761   0.17755   2.06830
   A25        1.90598   0.00772   0.00000  -0.01279  -0.01603   1.88995
   A26        1.89935  -0.01311   0.00000  -0.03840  -0.03919   1.86017
   A27        1.89647  -0.01201   0.00000  -0.03606  -0.03572   1.86075
   A28        1.91063  -0.00140   0.00000  -0.01705  -0.01643   1.89420
   A29        1.91063   0.01591   0.00000   0.06376   0.06174   1.97237
   A30        1.91063   0.01533   0.00000   0.06325   0.06120   1.97184
   A31        1.91063  -0.01037   0.00000  -0.05171  -0.05110   1.85954
   A32        1.91063  -0.00934   0.00000  -0.04469  -0.04413   1.86650
   A33        1.91063  -0.01013   0.00000  -0.01356  -0.01749   1.89314
    D1       -1.02388  -0.00002   0.00000   0.00011   0.00011  -1.02377
    D2        2.55844  -0.00001   0.00000  -0.00007  -0.00007   2.55837
    D3        1.05070   0.00002   0.00000   0.00042   0.00042   1.05112
    D4       -1.65016   0.00003   0.00000   0.00023   0.00023  -1.64993
    D5       -3.12956   0.00000   0.00000   0.00027   0.00027  -3.12929
    D6        0.45277   0.00001   0.00000   0.00008   0.00008   0.45285
    D7        0.98580   0.00011   0.00000   0.00108   0.00108   0.98688
    D8       -1.07154  -0.00008   0.00000  -0.00007  -0.00007  -1.07160
    D9        3.10067   0.00005   0.00000   0.00087   0.00087   3.10154
   D10       -1.69935   0.00008   0.00000   0.00076   0.00076  -1.69858
   D11        2.52650  -0.00010   0.00000  -0.00038  -0.00038   2.52612
   D12        0.41552   0.00003   0.00000   0.00055   0.00055   0.41608
   D13        0.86881  -0.00212   0.00000  -0.01063  -0.01071   0.85810
   D14       -1.20628   0.00281   0.00000   0.01632   0.01634  -1.18994
   D15        2.96816  -0.00081   0.00000  -0.00900  -0.00894   2.95922
   D16        3.00497  -0.00205   0.00000  -0.01007  -0.01015   2.99482
   D17        0.92988   0.00288   0.00000   0.01688   0.01690   0.94678
   D18       -1.17886  -0.00074   0.00000  -0.00844  -0.00838  -1.18724
   D19       -1.24814  -0.00214   0.00000  -0.01056  -0.01065  -1.25878
   D20        2.95995   0.00279   0.00000   0.01638   0.01641   2.97636
   D21        0.85121  -0.00083   0.00000  -0.00893  -0.00887   0.84234
   D22        0.94295  -0.00389   0.00000  -0.05433  -0.05375   0.88920
   D23       -1.17746   0.00336   0.00000   0.02277   0.02178  -1.15569
   D24        3.02591  -0.00037   0.00000  -0.01335  -0.01303   3.01288
   D25        3.05426  -0.00789   0.00000  -0.08859  -0.08870   2.96556
   D26        0.93384  -0.00064   0.00000  -0.01149  -0.01317   0.92068
   D27       -1.14597  -0.00437   0.00000  -0.04762  -0.04797  -1.19395
   D28       -1.17640  -0.00042   0.00000  -0.03550  -0.03415  -1.21055
   D29        2.98637   0.00683   0.00000   0.04160   0.04138   3.02775
   D30        0.90655   0.00310   0.00000   0.00548   0.00658   0.91313
   D31        3.05767  -0.00079   0.00000  -0.02311  -0.02297   3.03470
   D32       -1.13112  -0.00461   0.00000  -0.05784  -0.05886  -1.18998
   D33        0.96328   0.00212   0.00000   0.00333   0.00458   0.96786
   D34       -1.12031   0.00267   0.00000   0.01327   0.01310  -1.10721
   D35        0.97409  -0.00115   0.00000  -0.02147  -0.02279   0.95130
   D36        3.06848   0.00558   0.00000   0.03971   0.04065   3.10913
   D37        0.95336  -0.00247   0.00000  -0.04483  -0.04476   0.90860
   D38        3.04776  -0.00628   0.00000  -0.07957  -0.08065   2.96711
   D39       -1.14103   0.00044   0.00000  -0.01839  -0.01721  -1.15824
         Item               Value     Threshold  Converged?
 Maximum Force            0.042414     0.000450     NO 
 RMS     Force            0.008179     0.000300     NO 
 Maximum Displacement     0.676722     0.001800     NO 
 RMS     Displacement     0.150574     0.001200     NO 
 Predicted change in Energy=-1.183182D-02
 GradGradGradGradGradGradGradGradGradGradGradGradGradGradGradGradGradGrad

                          Input orientation:                          
 ---------------------------------------------------------------------
 Center     Atomic      Atomic             Coordinates (Angstroms)
 Number     Number       Type             X           Y           Z
 ---------------------------------------------------------------------
      1          6           0        2.748983   -0.226122   -0.068852
      2          9           0        3.588595    0.301626   -0.960357
      3          9           0        3.287002   -0.044222    1.143357
      4          9           0        2.650543   -1.531566   -0.290462
      5          6           0        1.403934    0.434969   -0.167859
      6          9           0        1.434079    1.735521    0.027483
      7          6           0        0.107112   -0.279065    0.082996
      8          9           0        0.102332   -0.832307    1.319220
      9          9           0       -0.029657   -1.281226   -0.806168
     10          6           0       -1.125370    0.661579   -0.034135
     11          9           0       -0.994134    1.333205   -1.188324
     12          9           0       -1.067126    1.519485    0.991893
     13          6           0       -2.502841   -0.115783   -0.034257
     14          9           0       -2.522419   -0.945970    1.009316
     15          9           0       -2.562441   -0.843604   -1.148614
     16          6           0       -3.834619    0.717411    0.030231
     17          9           0       -4.861091   -0.114842   -0.114797
     18          9           0       -4.007198    1.331581    1.196112
     19          9           0       -3.928739    1.621449   -0.940044
 ---------------------------------------------------------------------
                    Distance matrix (angstroms):
                    1          2          3          4          5
     1  C    0.000000
     2  F    1.333509   0.000000
     3  F    1.338657   2.153180   0.000000
     4  F    1.327775   2.165477   2.161737   0.000000
     5  C    1.501999   2.327784   2.344111   2.331593   0.000000
     6  F    2.363535   2.770166   2.801069   3.500676   1.315486
     7  C    2.646761   3.680558   3.360240   2.859592   1.501506
     8  F    3.049421   4.316979   3.285442   3.094094   2.347671
     9  F    3.062307   3.952333   4.041170   2.740820   2.325499
    10  C    3.974900   4.817563   4.621003   4.374141   2.542953
    11  F    4.206620   4.702928   5.065785   4.721943   2.756612
    12  F    4.328396   5.193284   4.628882   4.977390   2.937233
    13  C    5.253097   6.175555   5.908822   5.350462   3.947666
    14  F    5.428473   6.540688   5.880518   5.365807   4.325388
    15  F    5.455126   6.259571   6.333097   5.327750   4.281210
    16  C    6.651608   7.500550   7.248215   6.871540   5.249900
    17  F    7.611027   8.502094   8.244960   7.646085   6.289328
    18  F    7.047876   7.962866   7.423003   7.398177   5.651962
    19  F    6.983156   7.632342   7.692979   7.324644   5.517373
                    6          7          8          9         10
     6  F    0.000000
     7  C    2.412982   0.000000
     8  F    3.167945   1.354382   0.000000
     9  F    3.455179   1.346716   2.176287   0.000000
    10  C    2.776315   1.554846   2.360195   2.360321   0.000000
    11  F    2.745226   2.329896   3.489909   2.812741   1.341811
    12  F    2.689384   2.332319   2.646829   3.486165   1.338704
    13  C    4.350917   2.617683   3.021958   2.840905   1.581682
    14  F    4.879372   2.866578   2.645426   3.101974   2.371656
    15  F    4.899720   2.993673   3.631989   2.593025   2.360680
    16  C    5.366166   4.066079   4.422974   4.378567   2.710589
    17  F    6.563022   4.974851   5.216007   5.018088   3.816405
    18  F    5.579996   4.556398   4.646053   5.163015   3.204269
    19  F    5.450590   4.576752   5.232086   4.862744   3.098531
                   11         12         13         14         15
    11  F    0.000000
    12  F    2.189378   0.000000
    13  C    2.389065   2.405902   0.000000
    14  F    3.515668   2.862980   1.333656   0.000000
    15  F    2.683218   3.521637   1.332316   2.160727   0.000000
    16  C    3.151577   3.037620   1.572261   2.333947   2.333427
    17  F    4.266457   4.276676   2.359626   2.724663   2.623674
    18  F    3.842407   2.953140   2.423172   2.725197   3.509486
    19  F    2.959161   3.454216   2.423140   3.517012   2.826085
                   16         17         18         19
    16  C    0.000000
    17  F    1.329407   0.000000
    18  F    1.329010   2.130670   0.000000
    19  F    1.329502   2.136590   2.157160   0.000000
 Stoichiometry    C6F13(2)
 Framework group  C1[X(C6F13)]
 Deg. of freedom    51
 Full point group                 C1      NOp   1
 Largest Abelian subgroup         C1      NOp   1
 Largest concise Abelian subgroup C1      NOp   1
                         Standard orientation:                         
 ---------------------------------------------------------------------
 Center     Atomic      Atomic             Coordinates (Angstroms)
 Number     Number       Type             X           Y           Z
 ---------------------------------------------------------------------
      1          6           0       -3.422721    0.050262   -0.059978
      2          9           0       -4.207091   -0.564348   -0.946130
      3          9           0       -3.933460   -0.182897    1.155252
      4          9           0       -3.461244    1.358218   -0.285263
      5          6           0       -2.016811   -0.468034   -0.163844
      6          9           0       -1.910989   -1.764118    0.034832
      7          6           0       -0.799935    0.377398    0.079006
      8          9           0       -0.846963    0.931784    1.313832
      9          9           0       -0.771903    1.385720   -0.813263
     10          6           0        0.522935   -0.430672   -0.041754
     11          9           0        0.456844   -1.115679   -1.193646
     12          9           0        0.558661   -1.286971    0.986645
     13          6           0        1.812316    0.485373   -0.050422
     14          9           0        1.750403    1.316178    0.991005
     15          9           0        1.791033    1.212170   -1.166835
     16          6           0        3.223623   -0.204993    0.009693
     17          9           0        4.157551    0.728812   -0.142322
     18          9           0        3.464273   -0.794518    1.176232
     19          9           0        3.406614   -1.097241   -0.958803
 ---------------------------------------------------------------------
 Rotational constants (GHZ):           0.9211071           0.2065695           0.1984068
 Standard basis: 6-311+G(2d,2p) (5D, 7F)
 There are   551 symmetry adapted cartesian basis functions of A   symmetry.
 There are   513 symmetry adapted basis functions of A   symmetry.
   513 basis functions,   798 primitive gaussians,   551 cartesian basis functions
    77 alpha electrons       76 beta electrons
       nuclear repulsion energy      1866.2059713462 Hartrees.
 NAtoms=   19 NActive=   19 NUniq=   19 SFac= 1.00D+00 NAtFMM=   60 NAOKFM=F Big=F
 Integral buffers will be    131072 words long.
 Raffenetti 2 integral format.
 Two-electron integral symmetry is turned on.
 Nuclear repulsion after empirical dispersion term =     1866.1933496547 Hartrees.
 One-electron integrals computed using PRISM.
 NBasis=   513 RedAO= T EigKep=  3.94D-06  NBF=   513
 NBsUse=   513 1.00D-06 EigRej= -1.00D+00 NBFU=   513
 Initial guess from the checkpoint file:  "2_hexyl.chk"
 B after Tr=    -0.000000    0.000000    0.000000
         Rot=    0.999994    0.002456   -0.000710   -0.002509 Ang=   0.41 deg.
 Initial guess <Sx>= 0.0000 <Sy>= 0.0000 <Sz>= 0.5000 <S**2>= 0.7541 S= 0.5021
 ExpMin= 4.38D-02 ExpMax= 1.14D+04 ExpMxC= 1.72D+03 IAcc=2 IRadAn=         4 AccDes= 0.00D+00
 Harris functional with IExCor= 4639 and IRadAn=       4 diagonalized for initial guess.
 HarFok:  IExCor= 4639 AccDes= 0.00D+00 IRadAn=         4 IDoV= 1 UseB2=F ITyADJ=14
 ICtDFT=  3500011 ScaDFX=  1.000000  1.000000  1.000000  1.000000
 FoFCou: FMM=F IPFlag=           0 FMFlag=      100000 FMFlg1=           0
         NFxFlg=           0 DoJE=T BraDBF=F KetDBF=T FulRan=T
         wScrn=  0.000000 ICntrl=       500 IOpCl=  0 I1Cent=   200000004 NGrid=           0
         NMat0=    1 NMatS0=      1 NMatT0=    0 NMatD0=    1 NMtDS0=    0 NMtDT0=    0
 Petite list used in FoFCou.
 Requested convergence on RMS density matrix=1.00D-08 within  32 cycles.
 Requested convergence on MAX density matrix=1.00D-06.
 Requested convergence on             energy=1.00D-06.
 No special actions if energy rises.
 SCF Done:  E(UwB97XD) =  -1526.58690778     A.U. after   13 cycles
            NFock= 13  Conv=0.25D-08     -V/T= 2.0026
 <Sx>= 0.0000 <Sy>= 0.0000 <Sz>= 0.5000 <S**2>= 0.7541 S= 0.5020
 <L.S>= 0.000000000000E+00
 Annihilation of the first spin contaminant:
 S**2 before annihilation     0.7541,   after     0.7500
 QCSCF skips out because SCF is already converged.
 Calling FoFJK, ICntrl=      2127 FMM=F ISym2X=0 I1Cent= 0 IOpClX= 1 NMat=1 NMatS=1 NMatT=0.
 ***** Axes restored to original set *****
 -------------------------------------------------------------------
 Center     Atomic                   Forces (Hartrees/Bohr)
 Number     Number              X              Y              Z
 -------------------------------------------------------------------
      1        6          -0.000158466   -0.000274478    0.000061150
      2        9          -0.000045553    0.000014996    0.000046278
      3        9           0.000016943    0.000017450   -0.000042617
      4        9           0.000011100    0.000052820    0.000001912
      5        6          -0.000254997    0.000727734   -0.000041064
      6        9           0.000811845    0.000092579   -0.000057727
      7        6          -0.001913859   -0.005220754    0.000840892
      8        9           0.002078568    0.000053226    0.000173937
      9        9           0.002667426   -0.000418417    0.000299580
     10        6          -0.001780548   -0.000987367   -0.000455732
     11        9          -0.006066041    0.001293155    0.000092269
     12        9          -0.007389109    0.001251836   -0.000338300
     13        6           0.002368198    0.005084354    0.000320922
     14        9          -0.000852097   -0.000807736    0.005861659
     15        9          -0.001782135    0.000609108   -0.006512383
     16        6          -0.013029947    0.007043260    0.001078984
     17        9           0.004329067   -0.006815990   -0.001269660
     18        9           0.010930691   -0.000572618   -0.000439407
     19        9           0.010058914   -0.001143155    0.000379307
 -------------------------------------------------------------------
 Cartesian Forces:  Max     0.013029947 RMS     0.003668512

 GradGradGradGradGradGradGradGradGradGradGradGradGradGradGradGradGradGrad
 Berny optimization.
 Using GEDIIS/GDIIS optimizer.
 FormGI is forming the generalized inverse of G from B-inverse, IUseBI=4.
 Internal  Forces:  Max     0.018185185 RMS     0.004620769
 Search for a local minimum.
 Step number   2 out of a maximum of  100
 All quantities printed in internal units (Hartrees-Bohrs-Radians)
 Mixed Optimization -- RFO/linear search
 Update second derivatives using D2CorX and points    1    2
 DE= -2.35D-03 DEPred=-1.18D-02 R= 1.98D-01
 Trust test= 1.98D-01 RLast= 3.20D-01 DXMaxT set to 3.00D-01
 ITU=  0  0
 Use linear search instead of GDIIS.
     Eigenvalues ---    0.00230   0.00230   0.00238   0.00739   0.00747
     Eigenvalues ---    0.01134   0.04561   0.05363   0.06223   0.06932
     Eigenvalues ---    0.07177   0.07907   0.08248   0.08728   0.11049
     Eigenvalues ---    0.11221   0.13627   0.14275   0.14391   0.18944
     Eigenvalues ---    0.19955   0.19973   0.23149   0.23676   0.25000
     Eigenvalues ---    0.25000   0.25000   0.25000   0.25000   0.25000
     Eigenvalues ---    0.25000   0.25000   0.26743   0.27161   0.28194
     Eigenvalues ---    0.32163   0.32222   0.41054   0.51841   0.54112
     Eigenvalues ---    0.55021   0.55111   0.55706   0.56721   0.57492
     Eigenvalues ---    0.57504   0.58682   0.60035   0.60417   0.60752
     Eigenvalues ---    0.63075
 RFO step:  Lambda=-2.87160597D-03 EMin= 2.29829941D-03
 Quartic linear search produced a step of -0.47087.
 Iteration  1 RMS(Cart)=  0.10327168 RMS(Int)=  0.00640773
 Iteration  2 RMS(Cart)=  0.00763207 RMS(Int)=  0.00018922
 Iteration  3 RMS(Cart)=  0.00005497 RMS(Int)=  0.00018602
 Iteration  4 RMS(Cart)=  0.00000001 RMS(Int)=  0.00018602
 Variable       Old X    -DE/DX   Delta X   Delta X   Delta X     New X
                                 (Linear)    (Quad)   (Total)
    R1        2.51997  -0.00005   0.00001  -0.00006  -0.00005   2.51992
    R2        2.52969  -0.00003   0.00001  -0.00004  -0.00003   2.52967
    R3        2.50913  -0.00005  -0.00000  -0.00004  -0.00005   2.50908
    R4        2.83837  -0.00007   0.00005  -0.00016  -0.00011   2.83825
    R5        2.48591   0.00010  -0.00002   0.00011   0.00009   2.48600
    R6        2.83743   0.00063  -0.00004   0.00108   0.00104   2.83847
    R7        2.55941   0.00013  -0.00005   0.00019   0.00013   2.55954
    R8        2.54492  -0.00016   0.00009  -0.00024  -0.00016   2.54477
    R9        2.93823   0.00564   0.00025   0.01068   0.01093   2.94916
   R10        2.53566  -0.00003   0.00032  -0.00038  -0.00006   2.53560
   R11        2.52978   0.00022   0.00002   0.00018   0.00020   2.52999
   R12        2.98895  -0.01214  -0.02202  -0.00237  -0.02440   2.96455
   R13        2.52025   0.00510  -0.00689   0.01211   0.00522   2.52546
   R14        2.51771   0.00519  -0.00687   0.01215   0.00528   2.52299
   R15        2.97114  -0.01121  -0.02871   0.00737  -0.02134   2.94980
   R16        2.51221   0.00106   0.01832  -0.01908  -0.00075   2.51146
   R17        2.51146  -0.00207   0.01868  -0.02248  -0.00380   2.50766
   R18        2.51240  -0.00177   0.01824  -0.02171  -0.00347   2.50893
    A1        1.87398  -0.00002  -0.00009  -0.00007  -0.00016   1.87383
    A2        1.90096   0.00002  -0.00009   0.00014   0.00006   1.90102
    A3        1.92365  -0.00007   0.00001  -0.00020  -0.00019   1.92346
    A4        1.89076   0.00000  -0.00006   0.00016   0.00010   1.89086
    A5        1.93885   0.00003  -0.00005   0.00012   0.00006   1.93891
    A6        1.93408   0.00003   0.00027  -0.00014   0.00013   1.93421
    A7        1.98759  -0.00042  -0.00020  -0.00089  -0.00109   1.98651
    A8        2.15689  -0.00107   0.00010  -0.00238  -0.00228   2.15462
    A9        2.05458   0.00144   0.00006   0.00312   0.00317   2.05775
   A10        1.92815  -0.00117  -0.00030  -0.00609  -0.00639   1.92176
   A11        1.90846  -0.00168  -0.00017  -0.00594  -0.00610   1.90236
   A12        1.96528  -0.00137  -0.00020  -0.00316  -0.00335   1.96194
   A13        1.87372  -0.00046  -0.00021   0.00055   0.00026   1.87398
   A14        1.88924   0.00184   0.00035   0.00545   0.00577   1.89501
   A15        1.89648   0.00297   0.00055   0.00970   0.01023   1.90671
   A16        1.86511   0.00307   0.01429   0.01234   0.02657   1.89169
   A17        1.87075   0.00319   0.01311   0.00547   0.01856   1.88931
   A18        1.97469   0.00645   0.01538   0.00449   0.01983   1.99452
   A19        1.91160   0.00088  -0.00169  -0.00779  -0.00947   1.90212
   A20        1.90828  -0.00584  -0.01631  -0.00471  -0.02110   1.88718
   A21        1.93148  -0.00730  -0.02465  -0.00936  -0.03398   1.89750
   A22        1.89512   0.00544   0.01874  -0.00913   0.00945   1.90457
   A23        1.88337   0.00586   0.02458  -0.01016   0.01426   1.89763
   A24        2.06830  -0.01819  -0.08360   0.01986  -0.06432   2.00398
   A25        1.88995  -0.00022   0.00755   0.03729   0.04600   1.93596
   A26        1.86017   0.00426   0.01845  -0.01834   0.00007   1.86024
   A27        1.86075   0.00378   0.01682  -0.01590   0.00059   1.86134
   A28        1.89420  -0.00761   0.00774  -0.01166  -0.00409   1.89011
   A29        1.97237  -0.01208  -0.02907  -0.00349  -0.03241   1.93997
   A30        1.97184  -0.01151  -0.02882  -0.00418  -0.03284   1.93900
   A31        1.85954   0.01242   0.02406   0.01643   0.04034   1.89987
   A32        1.86650   0.01152   0.02078   0.01431   0.03492   1.90142
   A33        1.89314   0.00988   0.00824  -0.00901  -0.00033   1.89281
    D1       -1.02377   0.00014  -0.00005  -0.00017  -0.00022  -1.02399
    D2        2.55837  -0.00010   0.00003  -0.00063  -0.00060   2.55778
    D3        1.05112   0.00009  -0.00020  -0.00031  -0.00050   1.05062
    D4       -1.64993  -0.00015  -0.00011  -0.00077  -0.00088  -1.65080
    D5       -3.12929   0.00014  -0.00013  -0.00013  -0.00025  -3.12954
    D6        0.45285  -0.00010  -0.00004  -0.00058  -0.00062   0.45223
    D7        0.98688  -0.00100  -0.00051  -0.00076  -0.00127   0.98562
    D8       -1.07160   0.00128   0.00003   0.00581   0.00583  -1.06577
    D9        3.10154  -0.00042  -0.00041  -0.00028  -0.00069   3.10085
   D10       -1.69858  -0.00079  -0.00036  -0.00024  -0.00060  -1.69918
   D11        2.52612   0.00149   0.00018   0.00633   0.00650   2.53262
   D12        0.41608  -0.00021  -0.00026   0.00024  -0.00002   0.41606
   D13        0.85810   0.00175   0.00505  -0.00774  -0.00271   0.85539
   D14       -1.18994  -0.00242  -0.00769  -0.00767  -0.01538  -1.20532
   D15        2.95922   0.00044   0.00421  -0.00258   0.00167   2.96089
   D16        2.99482   0.00067   0.00478  -0.01369  -0.00895   2.98587
   D17        0.94678  -0.00350  -0.00796  -0.01362  -0.02161   0.92516
   D18       -1.18724  -0.00065   0.00395  -0.00853  -0.00457  -1.19181
   D19       -1.25878   0.00270   0.00501  -0.00491   0.00010  -1.25868
   D20        2.97636  -0.00147  -0.00773  -0.00485  -0.01257   2.96379
   D21        0.84234   0.00139   0.00418   0.00025   0.00448   0.84682
   D22        0.88920   0.00227   0.02531   0.08936   0.11452   1.00371
   D23       -1.15569  -0.00357  -0.01025   0.05565   0.04570  -1.10999
   D24        3.01288  -0.00065   0.00614   0.07135   0.07739   3.09027
   D25        2.96556   0.00627   0.04177   0.10457   0.14616   3.11172
   D26        0.92068   0.00043   0.00620   0.07085   0.07734   0.99802
   D27       -1.19395   0.00335   0.02259   0.08656   0.10904  -1.08491
   D28       -1.21055  -0.00104   0.01608   0.08593   0.10182  -1.10873
   D29        3.02775  -0.00687  -0.01949   0.05222   0.03300   3.06075
   D30        0.91313  -0.00396  -0.00310   0.06792   0.06469   0.97782
   D31        3.03470  -0.00005   0.01081   0.13402   0.14477  -3.10371
   D32       -1.18998   0.00307   0.02772   0.14466   0.17247  -1.01751
   D33        0.96786  -0.00233  -0.00216   0.12647   0.12409   1.09195
   D34       -1.10721  -0.00199  -0.00617   0.12042   0.11453  -0.99267
   D35        0.95130   0.00114   0.01073   0.13107   0.14223   1.09353
   D36        3.10913  -0.00427  -0.01914   0.11288   0.09385  -3.08020
   D37        0.90860   0.00156   0.02107   0.14697   0.16783   1.07643
   D38        2.96711   0.00469   0.03798   0.15761   0.19553  -3.12055
   D39       -1.15824  -0.00072   0.00810   0.13942   0.14715  -1.01109
         Item               Value     Threshold  Converged?
 Maximum Force            0.018185     0.000450     NO 
 RMS     Force            0.004621     0.000300     NO 
 Maximum Displacement     0.378723     0.001800     NO 
 RMS     Displacement     0.104518     0.001200     NO 
 Predicted change in Energy=-1.481598D-03
 GradGradGradGradGradGradGradGradGradGradGradGradGradGradGradGradGradGrad

                          Input orientation:                          
 ---------------------------------------------------------------------
 Center     Atomic      Atomic             Coordinates (Angstroms)
 Number     Number       Type             X           Y           Z
 ---------------------------------------------------------------------
      1          6           0        2.740768   -0.190322   -0.085865
      2          9           0        3.562162    0.395692   -0.957689
      3          9           0        3.282500   -0.049563    1.130143
      4          9           0        2.670869   -1.486614   -0.364544
      5          6           0        1.380437    0.443269   -0.148163
      6          9           0        1.383551    1.734219    0.104945
      7          6           0        0.103161   -0.314181    0.077677
      8          9           0        0.129141   -0.920369    1.288626
      9          9           0       -0.003717   -1.280921   -0.853672
     10          6           0       -1.154795    0.606954    0.009707
     11          9           0       -1.074757    1.351109   -1.103938
     12          9           0       -1.140024    1.416135    1.076207
     13          6           0       -2.519620   -0.166087   -0.016858
     14          9           0       -2.603670   -0.943438    1.066965
     15          9           0       -2.576896   -0.896444   -1.133017
     16          6           0       -3.788111    0.743601   -0.012129
     17          9           0       -4.862328   -0.038548    0.011622
     18          9           0       -3.807989    1.531993    1.055095
     19          9           0       -3.833734    1.505635   -1.098371
 ---------------------------------------------------------------------
                    Distance matrix (angstroms):
                    1          2          3          4          5
     1  C    0.000000
     2  F    1.333483   0.000000
     3  F    1.338642   2.153023   0.000000
     4  F    1.327750   2.165479   2.161781   0.000000
     5  C    1.501938   2.327556   2.344097   2.331627   0.000000
     6  F    2.362690   2.768969   2.799806   3.500196   1.315532
     7  C    2.645574   3.679754   3.359450   2.857146   1.502055
     8  F    3.040196   4.308548   3.275224   3.084476   2.342993
     9  F    3.051415   3.941744   4.031251   2.726714   2.320874
    10  C    3.977462   4.819769   4.623417   4.377077   2.545412
    11  F    4.239188   4.736584   5.093004   4.757004   2.786693
    12  F    4.357943   5.223849   4.659388   5.002462   2.966189
    13  C    5.260897   6.179712   5.915555   5.367109   3.949558
    14  F    5.518988   6.626461   5.953991   5.492270   4.390058
    15  F    5.465592   6.276017   6.338109   5.336468   4.292465
    16  C    6.595750   7.419005   7.206069   6.842257   5.179053
    17  F    7.605236   8.491182   8.221280   7.680330   6.263370
    18  F    6.866905   7.724093   7.265121   7.287178   5.436260
    19  F    6.864803   7.480043   7.617461   7.197356   5.405470
                    6          7          8          9         10
     6  F    0.000000
     7  C    2.415799   0.000000
     8  F    3.165674   1.354452   0.000000
     9  F    3.454639   1.346632   2.176486   0.000000
    10  C    2.779029   1.560629   2.369988   2.373705   0.000000
    11  F    2.766125   2.357306   3.511887   2.852603   1.341782
    12  F    2.722676   2.352991   2.667425   3.505672   1.338811
    13  C    4.342896   2.628659   3.047813   2.876262   1.568772
    14  F    4.898293   2.949846   2.741883   3.250000   2.370812
    15  F    4.913052   2.997919   3.631469   2.616698   2.363978
    16  C    5.266984   4.033480   4.450351   4.373616   2.636949
    17  F    6.493260   4.973572   5.227152   5.089040   3.763307
    18  F    5.281645   4.434050   4.644309   5.101799   2.997994
    19  F    5.359131   4.493769   5.223757   4.742763   3.035157
                   11         12         13         14         15
    11  F    0.000000
    12  F    2.182091   0.000000
    13  C    2.360351   2.366749   0.000000
    14  F    3.509323   2.776676   1.336417   0.000000
    15  F    2.703473   3.506180   1.335108   2.200647   0.000000
    16  C    2.987207   2.940942   1.560968   2.326681   2.326624
    17  F    4.185847   4.135818   2.346350   2.652190   2.696180
    18  F    3.487793   2.670563   2.385886   2.752868   3.492954
    19  F    2.763307   3.463073   2.385628   3.492807   2.711241
                   16         17         18         19
    16  C    0.000000
    17  F    1.329009   0.000000
    18  F    1.326998   2.160339   0.000000
    19  F    1.327668   2.162081   2.153781   0.000000
 Stoichiometry    C6F13(2)
 Framework group  C1[X(C6F13)]
 Deg. of freedom    51
 Full point group                 C1      NOp   1
 Largest Abelian subgroup         C1      NOp   1
 Largest concise Abelian subgroup C1      NOp   1
                         Standard orientation:                         
 ---------------------------------------------------------------------
 Center     Atomic      Atomic             Coordinates (Angstroms)
 Number     Number       Type             X           Y           Z
 ---------------------------------------------------------------------
      1          6           0       -3.410234    0.018939   -0.081804
      2          9           0       -4.168989   -0.632608   -0.963821
      3          9           0       -3.930919   -0.200052    1.131823
      4          9           0       -3.475891    1.320496   -0.335890
      5          6           0       -1.991741   -0.468896   -0.157403
      6          9           0       -1.860287   -1.757736    0.071154
      7          6           0       -0.799209    0.412539    0.081571
      8          9           0       -0.884365    0.989912    1.303834
      9          9           0       -0.795824    1.402474   -0.831357
     10          6           0        0.547250   -0.371748   -0.005061
     11          9           0        0.541542   -1.099140   -1.132556
     12          9           0        0.619536   -1.197989    1.045899
     13          6           0        1.824508    0.539011   -0.018233
     14          9           0        1.830678    1.300391    1.080072
     15          9           0        1.802524    1.292207   -1.120379
     16          6           0        3.180469   -0.234166   -0.031972
     17          9           0        4.167890    0.654570    0.005610
     18          9           0        3.285065   -1.036154    1.020073
     19          9           0        3.301680   -0.966823   -1.132528
 ---------------------------------------------------------------------
 Rotational constants (GHZ):           0.9147914           0.2095676           0.2010952
 Standard basis: 6-311+G(2d,2p) (5D, 7F)
 There are   551 symmetry adapted cartesian basis functions of A   symmetry.
 There are   513 symmetry adapted basis functions of A   symmetry.
   513 basis functions,   798 primitive gaussians,   551 cartesian basis functions
    77 alpha electrons       76 beta electrons
       nuclear repulsion energy      1872.0857704798 Hartrees.
 NAtoms=   19 NActive=   19 NUniq=   19 SFac= 1.00D+00 NAtFMM=   60 NAOKFM=F Big=F
 Integral buffers will be    131072 words long.
 Raffenetti 2 integral format.
 Two-electron integral symmetry is turned on.
 Nuclear repulsion after empirical dispersion term =     1872.0731320318 Hartrees.
 One-electron integrals computed using PRISM.
 NBasis=   513 RedAO= T EigKep=  3.83D-06  NBF=   513
 NBsUse=   513 1.00D-06 EigRej= -1.00D+00 NBFU=   513
 Initial guess from the checkpoint file:  "2_hexyl.chk"
 B after Tr=     0.000000   -0.000000   -0.000000
         Rot=    0.999941   -0.010789    0.000883    0.000186 Ang=  -1.24 deg.
 Initial guess <Sx>= 0.0000 <Sy>= 0.0000 <Sz>= 0.5000 <S**2>= 0.7541 S= 0.5020
 ExpMin= 4.38D-02 ExpMax= 1.14D+04 ExpMxC= 1.72D+03 IAcc=2 IRadAn=         4 AccDes= 0.00D+00
 Harris functional with IExCor= 4639 and IRadAn=       4 diagonalized for initial guess.
 HarFok:  IExCor= 4639 AccDes= 0.00D+00 IRadAn=         4 IDoV= 1 UseB2=F ITyADJ=14
 ICtDFT=  3500011 ScaDFX=  1.000000  1.000000  1.000000  1.000000
 FoFCou: FMM=F IPFlag=           0 FMFlag=      100000 FMFlg1=           0
         NFxFlg=           0 DoJE=T BraDBF=F KetDBF=T FulRan=T
         wScrn=  0.000000 ICntrl=       500 IOpCl=  0 I1Cent=   200000004 NGrid=           0
         NMat0=    1 NMatS0=      1 NMatT0=    0 NMatD0=    1 NMtDS0=    0 NMtDT0=    0
 Petite list used in FoFCou.
 Requested convergence on RMS density matrix=1.00D-08 within  32 cycles.
 Requested convergence on MAX density matrix=1.00D-06.
 Requested convergence on             energy=1.00D-06.
 No special actions if energy rises.
 SCF Done:  E(UwB97XD) =  -1526.58973898     A.U. after   12 cycles
            NFock= 12  Conv=0.60D-08     -V/T= 2.0026
 <Sx>= 0.0000 <Sy>= 0.0000 <Sz>= 0.5000 <S**2>= 0.7541 S= 0.5020
 <L.S>= 0.000000000000E+00
 Annihilation of the first spin contaminant:
 S**2 before annihilation     0.7541,   after     0.7500
 QCSCF skips out because SCF is already converged.
 Calling FoFJK, ICntrl=      2127 FMM=F ISym2X=0 I1Cent= 0 IOpClX= 1 NMat=1 NMatS=1 NMatT=0.
 ***** Axes restored to original set *****
 -------------------------------------------------------------------
 Center     Atomic                   Forces (Hartrees/Bohr)
 Number     Number              X              Y              Z
 -------------------------------------------------------------------
      1        6          -0.000105732   -0.000180056   -0.000005428
      2        9           0.000054487    0.000010764   -0.000034384
      3        9           0.000032993   -0.000008703    0.000013561
      4        9           0.000222606    0.000002570    0.000032638
      5        6          -0.000153595    0.000721452   -0.000256388
      6        9           0.000021486    0.000066746    0.000091407
      7        6           0.000679999   -0.000488732   -0.000432314
      8        9          -0.001184360    0.000172774   -0.000278076
      9        9           0.000114836    0.000546107    0.000713909
     10        6          -0.004266835   -0.001392311    0.000746997
     11        9           0.000190440   -0.000900854   -0.000876906
     12        9           0.000386114   -0.000154905    0.000659652
     13        6           0.001217925    0.008725404   -0.000049187
     14        9           0.001663790   -0.003964710   -0.001391449
     15        9          -0.000955538   -0.004219768    0.000851511
     16        6           0.000418805    0.003907816    0.000218760
     17        9           0.002104262    0.001308312   -0.000495806
     18        9          -0.000777108   -0.001937453    0.000451918
     19        9           0.000335426   -0.002214456    0.000039585
 -------------------------------------------------------------------
 Cartesian Forces:  Max     0.008725404 RMS     0.001756268

 GradGradGradGradGradGradGradGradGradGradGradGradGradGradGradGradGradGrad
 Berny optimization.
 Using GEDIIS/GDIIS optimizer.
 FormGI is forming the generalized inverse of G from B-inverse, IUseBI=4.
 Internal  Forces:  Max     0.004271185 RMS     0.001092920
 Search for a local minimum.
 Step number   3 out of a maximum of  100
 All quantities printed in internal units (Hartrees-Bohrs-Radians)
 Mixed Optimization -- RFO/linear search
 Update second derivatives using D2CorX and points    1    2    3
 DE= -2.83D-03 DEPred=-1.48D-03 R= 1.91D+00
 TightC=F SS=  1.41D+00  RLast= 5.38D-01 DXNew= 5.0454D-01 1.6145D+00
 Trust test= 1.91D+00 RLast= 5.38D-01 DXMaxT set to 5.05D-01
 ITU=  1  0  0
 Use linear search instead of GDIIS.
     Eigenvalues ---    0.00183   0.00231   0.00247   0.00739   0.00747
     Eigenvalues ---    0.01136   0.05149   0.05210   0.06242   0.06951
     Eigenvalues ---    0.07547   0.07880   0.08850   0.09042   0.11046
     Eigenvalues ---    0.11223   0.13149   0.13767   0.15143   0.19182
     Eigenvalues ---    0.19255   0.19923   0.23165   0.24384   0.24987
     Eigenvalues ---    0.25000   0.25000   0.25000   0.25000   0.25000
     Eigenvalues ---    0.25000   0.25057   0.26782   0.27133   0.28032
     Eigenvalues ---    0.32150   0.32221   0.33436   0.49726   0.54118
     Eigenvalues ---    0.55022   0.55277   0.55740   0.56724   0.57494
     Eigenvalues ---    0.57505   0.58683   0.60035   0.60337   0.60673
     Eigenvalues ---    0.63075
 RFO step:  Lambda=-9.02947467D-04 EMin= 1.83255884D-03
 Quartic linear search produced a step of -0.10116.
 Iteration  1 RMS(Cart)=  0.06873249 RMS(Int)=  0.00191585
 Iteration  2 RMS(Cart)=  0.00299467 RMS(Int)=  0.00003463
 Iteration  3 RMS(Cart)=  0.00000542 RMS(Int)=  0.00003436
 Iteration  4 RMS(Cart)=  0.00000000 RMS(Int)=  0.00003436
 Variable       Old X    -DE/DX   Delta X   Delta X   Delta X     New X
                                 (Linear)    (Quad)   (Total)
    R1        2.51992   0.00006   0.00000   0.00008   0.00008   2.52000
    R2        2.52967   0.00002   0.00000   0.00003   0.00003   2.52970
    R3        2.50908  -0.00002   0.00000  -0.00004  -0.00003   2.50905
    R4        2.83825   0.00026   0.00001   0.00065   0.00066   2.83891
    R5        2.48600   0.00008  -0.00001   0.00012   0.00011   2.48611
    R6        2.83847   0.00040  -0.00011   0.00117   0.00107   2.83954
    R7        2.55954  -0.00035  -0.00001  -0.00051  -0.00053   2.55901
    R8        2.54477  -0.00089   0.00002  -0.00134  -0.00133   2.54344
    R9        2.94916  -0.00076  -0.00111  -0.00057  -0.00167   2.94749
   R10        2.53560   0.00024   0.00001   0.00036   0.00036   2.53596
   R11        2.52999   0.00044  -0.00002   0.00066   0.00064   2.53062
   R12        2.96455  -0.00427   0.00247  -0.01727  -0.01480   2.94975
   R13        2.52546   0.00107  -0.00053   0.00191   0.00138   2.52685
   R14        2.52299   0.00164  -0.00053   0.00268   0.00214   2.52513
   R15        2.94980  -0.00107   0.00216  -0.00710  -0.00494   2.94486
   R16        2.51146  -0.00248   0.00008  -0.00290  -0.00283   2.50864
   R17        2.50766  -0.00077   0.00038  -0.00081  -0.00042   2.50724
   R18        2.50893  -0.00132   0.00035  -0.00159  -0.00124   2.50769
    A1        1.87383  -0.00004   0.00002  -0.00038  -0.00036   1.87346
    A2        1.90102  -0.00015  -0.00001  -0.00040  -0.00041   1.90061
    A3        1.92346  -0.00004   0.00002  -0.00024  -0.00022   1.92323
    A4        1.89086  -0.00016  -0.00001  -0.00037  -0.00038   1.89048
    A5        1.93891  -0.00003  -0.00001  -0.00013  -0.00014   1.93877
    A6        1.93421   0.00040  -0.00001   0.00145   0.00144   1.93565
    A7        1.98651  -0.00010   0.00011  -0.00080  -0.00069   1.98582
    A8        2.15462   0.00018   0.00023  -0.00004   0.00019   2.15480
    A9        2.05775  -0.00007  -0.00032  -0.00002  -0.00034   2.05741
   A10        1.92176   0.00111   0.00065   0.00322   0.00386   1.92562
   A11        1.90236   0.00016   0.00062   0.00127   0.00189   1.90424
   A12        1.96194  -0.00059   0.00034  -0.00255  -0.00221   1.95973
   A13        1.87398  -0.00008  -0.00003  -0.00023  -0.00025   1.87374
   A14        1.89501  -0.00105  -0.00058  -0.00512  -0.00570   1.88931
   A15        1.90671   0.00047  -0.00103   0.00351   0.00248   1.90918
   A16        1.89169  -0.00046  -0.00269   0.00092  -0.00178   1.88990
   A17        1.88931  -0.00093  -0.00188  -0.00236  -0.00426   1.88504
   A18        1.99452   0.00113  -0.00201   0.00518   0.00317   1.99769
   A19        1.90212   0.00074   0.00096   0.00470   0.00576   1.90788
   A20        1.88718  -0.00037   0.00213  -0.00371  -0.00151   1.88567
   A21        1.89750  -0.00008   0.00344  -0.00453  -0.00105   1.89644
   A22        1.90457   0.00007  -0.00096   0.00162   0.00077   1.90534
   A23        1.89763   0.00223  -0.00144   0.01125   0.00989   1.90752
   A24        2.00398  -0.00363   0.00651  -0.01405  -0.00748   1.99651
   A25        1.93596  -0.00313  -0.00465  -0.02340  -0.02801   1.90795
   A26        1.86024   0.00320  -0.00001   0.01616   0.01620   1.87644
   A27        1.86134   0.00110  -0.00006   0.00707   0.00704   1.86837
   A28        1.89011  -0.00049   0.00041  -0.00677  -0.00639   1.88372
   A29        1.93997   0.00034   0.00328  -0.00156   0.00179   1.94175
   A30        1.93900  -0.00176   0.00332  -0.00965  -0.00628   1.93272
   A31        1.89987  -0.00028  -0.00408   0.00246  -0.00163   1.89824
   A32        1.90142   0.00021  -0.00353   0.00092  -0.00268   1.89874
   A33        1.89281   0.00199   0.00003   0.01477   0.01494   1.90775
    D1       -1.02399   0.00003   0.00002  -0.00080  -0.00077  -1.02476
    D2        2.55778   0.00006   0.00006   0.00133   0.00139   2.55917
    D3        1.05062  -0.00007   0.00005  -0.00151  -0.00146   1.04916
    D4       -1.65080  -0.00003   0.00009   0.00062   0.00071  -1.65009
    D5       -3.12954  -0.00001   0.00003  -0.00108  -0.00106  -3.13060
    D6        0.45223   0.00002   0.00006   0.00105   0.00111   0.45334
    D7        0.98562   0.00052   0.00013   0.00360   0.00373   0.98935
    D8       -1.06577  -0.00011  -0.00059   0.00125   0.00066  -1.06511
    D9        3.10085  -0.00043   0.00007  -0.00239  -0.00233   3.09853
   D10       -1.69918   0.00056   0.00006   0.00599   0.00606  -1.69312
   D11        2.53262  -0.00008  -0.00066   0.00365   0.00299   2.53560
   D12        0.41606  -0.00039   0.00000  -0.00000  -0.00000   0.41606
   D13        0.85539   0.00015   0.00027   0.03407   0.03435   0.88973
   D14       -1.20532   0.00004   0.00156   0.02928   0.03083  -1.17449
   D15        2.96089   0.00007  -0.00017   0.03338   0.03320   2.99409
   D16        2.98587   0.00044   0.00091   0.03291   0.03383   3.01970
   D17        0.92516   0.00033   0.00219   0.02812   0.03031   0.95547
   D18       -1.19181   0.00036   0.00046   0.03222   0.03268  -1.15913
   D19       -1.25868   0.00001  -0.00001   0.03170   0.03170  -1.22699
   D20        2.96379  -0.00009   0.00127   0.02691   0.02818   2.99198
   D21        0.84682  -0.00006  -0.00045   0.03101   0.03055   0.87737
   D22        1.00371  -0.00178  -0.01158  -0.09757  -0.10917   0.89454
   D23       -1.10999   0.00064  -0.00462  -0.07689  -0.08149  -1.19148
   D24        3.09027  -0.00002  -0.00783  -0.08492  -0.09275   2.99751
   D25        3.11172  -0.00191  -0.01479  -0.09571  -0.11047   3.00125
   D26        0.99802   0.00051  -0.00782  -0.07502  -0.08280   0.91522
   D27       -1.08491  -0.00014  -0.01103  -0.08306  -0.09406  -1.17897
   D28       -1.10873  -0.00128  -0.01030  -0.09469  -0.10504  -1.21377
   D29        3.06075   0.00114  -0.00334  -0.07400  -0.07736   2.98339
   D30        0.97782   0.00048  -0.00654  -0.08203  -0.08862   0.88920
   D31       -3.10371  -0.00008  -0.01465  -0.06518  -0.07981   3.09967
   D32       -1.01751  -0.00053  -0.01745  -0.06737  -0.08477  -1.10228
   D33        1.09195   0.00103  -0.01255  -0.05625  -0.06886   1.02309
   D34       -0.99267   0.00004  -0.01159  -0.06030  -0.07190  -1.06457
   D35        1.09353  -0.00041  -0.01439  -0.06249  -0.07686   1.01667
   D36       -3.08020   0.00115  -0.00949  -0.05137  -0.06095  -3.14115
   D37        1.07643  -0.00143  -0.01698  -0.07573  -0.09267   0.98376
   D38       -3.12055  -0.00188  -0.01978  -0.07792  -0.09764   3.06500
   D39       -1.01109  -0.00032  -0.01489  -0.06680  -0.08172  -1.09282
         Item               Value     Threshold  Converged?
 Maximum Force            0.004271     0.000450     NO 
 RMS     Force            0.001093     0.000300     NO 
 Maximum Displacement     0.237479     0.001800     NO 
 RMS     Displacement     0.068812     0.001200     NO 
 Predicted change in Energy=-5.949046D-04
 GradGradGradGradGradGradGradGradGradGradGradGradGradGradGradGradGradGrad

                          Input orientation:                          
 ---------------------------------------------------------------------
 Center     Atomic      Atomic             Coordinates (Angstroms)
 Number     Number       Type             X           Y           Z
 ---------------------------------------------------------------------
      1          6           0        2.738368   -0.185550   -0.052090
      2          9           0        3.575601    0.380967   -0.921801
      3          9           0        3.253606   -0.008938    1.170753
      4          9           0        2.681613   -1.489330   -0.296656
      5          6           0        1.376767    0.439906   -0.160309
      6          9           0        1.369905    1.737054    0.059107
      7          6           0        0.097506   -0.316854    0.060317
      8          9           0        0.093852   -0.886710    1.288744
      9          9           0        0.011986   -1.310492   -0.843506
     10          6           0       -1.159380    0.599281   -0.056873
     11          9           0       -1.077208    1.281322   -1.209679
     12          9           0       -1.141513    1.459759    0.969079
     13          6           0       -2.520074   -0.165482   -0.043586
     14          9           0       -2.550851   -0.988528    1.009798
     15          9           0       -2.635729   -0.880326   -1.166602
     16          6           0       -3.774682    0.754750    0.043529
     17          9           0       -4.852754   -0.018254   -0.006668
     18          9           0       -3.792031    1.437927    1.180763
     19          9           0       -3.808035    1.601619   -0.977580
 ---------------------------------------------------------------------
                    Distance matrix (angstroms):
                    1          2          3          4          5
     1  C    0.000000
     2  F    1.333528   0.000000
     3  F    1.338659   2.152786   0.000000
     4  F    1.327734   2.165186   2.161487   0.000000
     5  C    1.502286   2.327706   2.344293   2.333059   0.000000
     6  F    2.362511   2.768799   2.798673   3.500957   1.315592
     7  C    2.646512   3.680849   3.359888   2.860024   1.502621
     8  F    3.046790   4.314637   3.281532   3.094051   2.346388
     9  F    3.053685   3.945442   4.032293   2.730922   2.322344
    10  C    3.975980   4.818278   4.620762   4.378700   2.543253
    11  F    4.248569   4.747856   5.107560   4.758030   2.798419
    12  F    4.336278   5.195227   4.638407   4.991544   2.942338
    13  C    5.258487   6.182808   5.902076   5.373468   3.945312
    14  F    5.454193   6.568105   5.888737   5.416300   4.340018
    15  F    5.532249   6.342823   6.395844   5.422344   4.342323
    16  C    6.581271   7.422819   7.158959   6.843637   5.165085
    17  F    7.593101   8.487285   8.191427   7.682111   6.248235
    18  F    6.841178   7.734335   7.192671   7.256698   5.432402
    19  F    6.848788   7.484062   7.554866   7.220329   5.375842
                    6          7          8          9         10
     6  F    0.000000
     7  C    2.416100   0.000000
     8  F    3.166142   1.354172   0.000000
     9  F    3.456326   1.345929   2.175496   0.000000
    10  C    2.775835   1.559743   2.364201   2.374473   0.000000
    11  F    2.793899   2.355208   3.509111   2.835123   1.341973
    12  F    2.685548   2.348909   2.670998   3.505755   1.339149
    13  C    4.331527   2.624011   3.021238   2.891755   1.560938
    14  F    4.868772   2.892483   2.661322   3.179077   2.365401
    15  F    4.939448   3.048509   3.671427   2.701820   2.366505
    16  C    5.237552   4.017768   4.382980   4.403511   2.621843
    17  F    6.465827   4.959710   5.186638   5.102536   3.744981
    18  F    5.290858   4.411706   4.529424   5.110970   3.027528
    19  F    5.282436   4.473368   5.152934   4.805302   2.977878
                   11         12         13         14         15
    11  F    0.000000
    12  F    2.186998   0.000000
    13  C    2.352631   2.359518   0.000000
    14  F    3.499988   2.825244   1.337149   0.000000
    15  F    2.665252   3.502830   1.336243   2.180740   0.000000
    16  C    3.020625   2.878760   1.558352   2.338901   2.331331
    17  F    4.170237   4.112166   2.337613   2.696922   2.646472
    18  F    3.620636   2.659047   2.384916   2.730831   3.495920
    19  F    2.759325   3.304534   2.377780   3.498435   2.751378
                   16         17         18         19
    16  C    0.000000
    17  F    1.327514   0.000000
    18  F    1.326775   2.157681   0.000000
    19  F    1.327013   2.158262   2.164601   0.000000
 Stoichiometry    C6F13(2)
 Framework group  C1[X(C6F13)]
 Deg. of freedom    51
 Full point group                 C1      NOp   1
 Largest Abelian subgroup         C1      NOp   1
 Largest concise Abelian subgroup C1      NOp   1
                         Standard orientation:                         
 ---------------------------------------------------------------------
 Center     Atomic      Atomic             Coordinates (Angstroms)
 Number     Number       Type             X           Y           Z
 ---------------------------------------------------------------------
      1          6           0       -3.407170    0.014758   -0.049511
      2          9           0       -4.183762   -0.623671   -0.925645
      3          9           0       -3.898093   -0.230309    1.171532
      4          9           0       -3.486053    1.320546   -0.276604
      5          6           0       -1.988545   -0.465183   -0.167937
      6          9           0       -1.847140   -1.757469    0.034013
      7          6           0       -0.793702    0.416714    0.061141
      8          9           0       -0.845599    0.967592    1.297111
      9          9           0       -0.813725    1.425743   -0.829357
     10          6           0        0.550768   -0.363026   -0.070024
     11          9           0        0.536361   -1.034591   -1.231783
     12          9           0        0.624660   -1.234246    0.944292
     13          6           0        1.825221    0.537987   -0.048266
     14          9           0        1.773675    1.345797    1.016044
     15          9           0        1.863375    1.275754   -1.161725
     16          6           0        3.168403   -0.248766    0.024802
     17          9           0        4.160722    0.632083   -0.016432
     18          9           0        3.259309   -0.941482    1.152727
     19          9           0        3.286285   -1.074069   -1.007642
 ---------------------------------------------------------------------
 Rotational constants (GHZ):           0.9139254           0.2104936           0.2018251
 Standard basis: 6-311+G(2d,2p) (5D, 7F)
 There are   551 symmetry adapted cartesian basis functions of A   symmetry.
 There are   513 symmetry adapted basis functions of A   symmetry.
   513 basis functions,   798 primitive gaussians,   551 cartesian basis functions
    77 alpha electrons       76 beta electrons
       nuclear repulsion energy      1874.0412038544 Hartrees.
 NAtoms=   19 NActive=   19 NUniq=   19 SFac= 1.00D+00 NAtFMM=   60 NAOKFM=F Big=F
 Integral buffers will be    131072 words long.
 Raffenetti 2 integral format.
 Two-electron integral symmetry is turned on.
 Nuclear repulsion after empirical dispersion term =     1874.0285608859 Hartrees.
 One-electron integrals computed using PRISM.
 NBasis=   513 RedAO= T EigKep=  3.85D-06  NBF=   513
 NBsUse=   513 1.00D-06 EigRej= -1.00D+00 NBFU=   513
 Initial guess from the checkpoint file:  "2_hexyl.chk"
 B after Tr=     0.000000   -0.000000    0.000000
         Rot=    0.999996    0.002748    0.000070    0.000141 Ang=   0.32 deg.
 Initial guess <Sx>= 0.0000 <Sy>= 0.0000 <Sz>= 0.5000 <S**2>= 0.7541 S= 0.5020
 ExpMin= 4.38D-02 ExpMax= 1.14D+04 ExpMxC= 1.72D+03 IAcc=2 IRadAn=         4 AccDes= 0.00D+00
 Harris functional with IExCor= 4639 and IRadAn=       4 diagonalized for initial guess.
 HarFok:  IExCor= 4639 AccDes= 0.00D+00 IRadAn=         4 IDoV= 1 UseB2=F ITyADJ=14
 ICtDFT=  3500011 ScaDFX=  1.000000  1.000000  1.000000  1.000000
 FoFCou: FMM=F IPFlag=           0 FMFlag=      100000 FMFlg1=           0
         NFxFlg=           0 DoJE=T BraDBF=F KetDBF=T FulRan=T
         wScrn=  0.000000 ICntrl=       500 IOpCl=  0 I1Cent=   200000004 NGrid=           0
         NMat0=    1 NMatS0=      1 NMatT0=    0 NMatD0=    1 NMtDS0=    0 NMtDT0=    0
 Petite list used in FoFCou.
 Requested convergence on RMS density matrix=1.00D-08 within  32 cycles.
 Requested convergence on MAX density matrix=1.00D-06.
 Requested convergence on             energy=1.00D-06.
 No special actions if energy rises.
 SCF Done:  E(UwB97XD) =  -1526.59026206     A.U. after   12 cycles
            NFock= 12  Conv=0.57D-08     -V/T= 2.0026
 <Sx>= 0.0000 <Sy>= 0.0000 <Sz>= 0.5000 <S**2>= 0.7541 S= 0.5020
 <L.S>= 0.000000000000E+00
 Annihilation of the first spin contaminant:
 S**2 before annihilation     0.7541,   after     0.7500
 QCSCF skips out because SCF is already converged.
 Calling FoFJK, ICntrl=      2127 FMM=F ISym2X=0 I1Cent= 0 IOpClX= 1 NMat=1 NMatS=1 NMatT=0.
 ***** Axes restored to original set *****
 -------------------------------------------------------------------
 Center     Atomic                   Forces (Hartrees/Bohr)
 Number     Number              X              Y              Z
 -------------------------------------------------------------------
      1        6           0.000094108   -0.000114308   -0.000003739
      2        9           0.000019672    0.000045798   -0.000085412
      3        9          -0.000054915    0.000012666    0.000064048
      4        9          -0.000071698    0.000070144    0.000004944
      5        6          -0.000020130    0.000086119   -0.000093839
      6        9           0.000186782   -0.000056217   -0.000246161
      7        6          -0.000049484   -0.000178261    0.000297332
      8        9           0.000857461    0.000254457    0.000079678
      9        9          -0.000997019    0.000569114    0.000072154
     10        6          -0.001006878   -0.001462815   -0.001188194
     11        9           0.000662147    0.000131598    0.000068285
     12        9          -0.000109021    0.000815689    0.000409330
     13        6           0.001560968    0.001755250    0.000425357
     14        9          -0.001058279   -0.000966794    0.000979069
     15        9           0.000584749   -0.000664797   -0.001121529
     16        6          -0.000131764   -0.000292058    0.000741547
     17        9          -0.000153794    0.000812103    0.000203894
     18        9          -0.000624910   -0.000924770   -0.001768913
     19        9           0.000312004    0.000107084    0.001162150
 -------------------------------------------------------------------
 Cartesian Forces:  Max     0.001768913 RMS     0.000678646

 GradGradGradGradGradGradGradGradGradGradGradGradGradGradGradGradGradGrad
 Berny optimization.
 Using GEDIIS/GDIIS optimizer.
 FormGI is forming the generalized inverse of G from B-inverse, IUseBI=4.
 Internal  Forces:  Max     0.001984380 RMS     0.000581050
 Search for a local minimum.
 Step number   4 out of a maximum of  100
 All quantities printed in internal units (Hartrees-Bohrs-Radians)
 Mixed Optimization -- En-DIIS/RFO-DIIS
 Update second derivatives using D2CorX and points    1    2    3    4
 DE= -5.23D-04 DEPred=-5.95D-04 R= 8.79D-01
 TightC=F SS=  1.41D+00  RLast= 3.86D-01 DXNew= 8.4853D-01 1.1579D+00
 Trust test= 8.79D-01 RLast= 3.86D-01 DXMaxT set to 8.49D-01
 ITU=  1  1  0  0
 Use linear search instead of GDIIS.
     Eigenvalues ---    0.00125   0.00251   0.00386   0.00739   0.00750
     Eigenvalues ---    0.01143   0.05158   0.05244   0.06329   0.06917
     Eigenvalues ---    0.07405   0.07897   0.08915   0.09389   0.11033
     Eigenvalues ---    0.11225   0.13181   0.13750   0.15091   0.19197
     Eigenvalues ---    0.19666   0.21126   0.22759   0.23582   0.24863
     Eigenvalues ---    0.25000   0.25000   0.25000   0.25000   0.25000
     Eigenvalues ---    0.25016   0.25877   0.26288   0.27230   0.28157
     Eigenvalues ---    0.32134   0.32198   0.34714   0.44197   0.54120
     Eigenvalues ---    0.55074   0.55604   0.55802   0.56726   0.57504
     Eigenvalues ---    0.57576   0.58684   0.59895   0.60036   0.60660
     Eigenvalues ---    0.63079
 RFO step:  Lambda=-7.25727217D-04 EMin= 1.25105129D-03
 Quartic linear search produced a step of  0.01947.
 Iteration  1 RMS(Cart)=  0.10617123 RMS(Int)=  0.00674968
 Iteration  2 RMS(Cart)=  0.00755817 RMS(Int)=  0.00002373
 Iteration  3 RMS(Cart)=  0.00003676 RMS(Int)=  0.00000577
 Iteration  4 RMS(Cart)=  0.00000000 RMS(Int)=  0.00000577
 Variable       Old X    -DE/DX   Delta X   Delta X   Delta X     New X
                                 (Linear)    (Quad)   (Total)
    R1        2.52000   0.00009   0.00000   0.00018   0.00019   2.52019
    R2        2.52970   0.00004   0.00000   0.00008   0.00008   2.52978
    R3        2.50905  -0.00007  -0.00000  -0.00012  -0.00012   2.50893
    R4        2.83891  -0.00002   0.00001   0.00036   0.00038   2.83929
    R5        2.48611  -0.00010   0.00000  -0.00006  -0.00006   2.48605
    R6        2.83954   0.00021   0.00002   0.00132   0.00134   2.84088
    R7        2.55901  -0.00004  -0.00001  -0.00039  -0.00040   2.55861
    R8        2.54344  -0.00041  -0.00003  -0.00150  -0.00153   2.54191
    R9        2.94749  -0.00043  -0.00003  -0.00175  -0.00178   2.94571
   R10        2.53596   0.00005   0.00001   0.00032   0.00033   2.53629
   R11        2.53062   0.00084   0.00001   0.00170   0.00171   2.53234
   R12        2.94975  -0.00033  -0.00029  -0.01286  -0.01315   2.93660
   R13        2.52685   0.00139   0.00003   0.00290   0.00293   2.52978
   R14        2.52513   0.00125   0.00004   0.00318   0.00322   2.52835
   R15        2.94486   0.00032  -0.00010  -0.00450  -0.00459   2.94027
   R16        2.50864  -0.00036  -0.00006  -0.00156  -0.00161   2.50702
   R17        2.50724  -0.00198  -0.00001  -0.00279  -0.00279   2.50445
   R18        2.50769  -0.00083  -0.00002  -0.00148  -0.00150   2.50619
    A1        1.87346   0.00009  -0.00001   0.00020   0.00020   1.87366
    A2        1.90061   0.00006  -0.00001  -0.00005  -0.00006   1.90055
    A3        1.92323  -0.00002  -0.00000  -0.00017  -0.00018   1.92306
    A4        1.89048   0.00008  -0.00001  -0.00007  -0.00008   1.89040
    A5        1.93877  -0.00009  -0.00000  -0.00039  -0.00039   1.93837
    A6        1.93565  -0.00011   0.00003   0.00048   0.00051   1.93616
    A7        1.98582  -0.00013  -0.00001  -0.00019  -0.00021   1.98562
    A8        2.15480  -0.00023   0.00000  -0.00002  -0.00003   2.15478
    A9        2.05741   0.00038  -0.00001   0.00224   0.00223   2.05965
   A10        1.92562  -0.00065   0.00008   0.00172   0.00179   1.92741
   A11        1.90424   0.00040   0.00004   0.00036   0.00038   1.90463
   A12        1.95973   0.00051  -0.00004  -0.00029  -0.00034   1.95939
   A13        1.87374   0.00031  -0.00000   0.00187   0.00187   1.87560
   A14        1.88931   0.00079  -0.00011   0.00226   0.00215   1.89146
   A15        1.90918  -0.00139   0.00005  -0.00588  -0.00584   1.90335
   A16        1.88990  -0.00056  -0.00003  -0.00614  -0.00618   1.88373
   A17        1.88504   0.00033  -0.00008   0.00301   0.00291   1.88795
   A18        1.99769  -0.00012   0.00006   0.00366   0.00371   2.00140
   A19        1.90788  -0.00019   0.00011   0.00157   0.00169   1.90958
   A20        1.88567   0.00016  -0.00003  -0.00478  -0.00481   1.88086
   A21        1.89644   0.00037  -0.00002   0.00267   0.00263   1.89907
   A22        1.90534   0.00144   0.00002   0.01129   0.01133   1.91667
   A23        1.90752  -0.00120   0.00019   0.00021   0.00042   1.90794
   A24        1.99651   0.00004  -0.00015  -0.00974  -0.00988   1.98663
   A25        1.90795  -0.00006  -0.00055  -0.01821  -0.01875   1.88920
   A26        1.87644  -0.00101   0.00032   0.00924   0.00956   1.88600
   A27        1.86837   0.00077   0.00014   0.00622   0.00635   1.87472
   A28        1.88372   0.00128  -0.00012   0.00071   0.00058   1.88430
   A29        1.94175   0.00070   0.00003  -0.00008  -0.00005   1.94171
   A30        1.93272  -0.00004  -0.00012  -0.00690  -0.00703   1.92569
   A31        1.89824  -0.00099  -0.00003  -0.00186  -0.00190   1.89635
   A32        1.89874  -0.00025  -0.00005   0.00169   0.00163   1.90038
   A33        1.90775  -0.00071   0.00029   0.00646   0.00675   1.91451
    D1       -1.02476   0.00006  -0.00002   0.00293   0.00291  -1.02185
    D2        2.55917  -0.00009   0.00003  -0.00262  -0.00259   2.55658
    D3        1.04916   0.00010  -0.00003   0.00282   0.00279   1.05196
    D4       -1.65009  -0.00005   0.00001  -0.00272  -0.00270  -1.65279
    D5       -3.13060   0.00007  -0.00002   0.00279   0.00277  -3.12783
    D6        0.45334  -0.00009   0.00002  -0.00275  -0.00273   0.45061
    D7        0.98935  -0.00027   0.00007  -0.00274  -0.00267   0.98668
    D8       -1.06511  -0.00051   0.00001  -0.00624  -0.00623  -1.07134
    D9        3.09853   0.00064  -0.00005   0.00114   0.00110   3.09963
   D10       -1.69312  -0.00030   0.00012  -0.00790  -0.00778  -1.70091
   D11        2.53560  -0.00054   0.00006  -0.01140  -0.01134   2.52426
   D12        0.41606   0.00061  -0.00000  -0.00402  -0.00402   0.41204
   D13        0.88973  -0.00048   0.00067  -0.10126  -0.10059   0.78914
   D14       -1.17449  -0.00013   0.00060  -0.10142  -0.10081  -1.27531
   D15        2.99409  -0.00076   0.00065  -0.10942  -0.10878   2.88531
   D16        3.01970  -0.00042   0.00066  -0.09773  -0.09707   2.92263
   D17        0.95547  -0.00007   0.00059  -0.09789  -0.09729   0.85818
   D18       -1.15913  -0.00070   0.00064  -0.10589  -0.10526  -1.26439
   D19       -1.22699  -0.00036   0.00062  -0.09744  -0.09683  -1.32382
   D20        2.99198  -0.00001   0.00055  -0.09760  -0.09705   2.89492
   D21        0.87737  -0.00064   0.00059  -0.10561  -0.10502   0.77235
   D22        0.89454   0.00050  -0.00213  -0.07196  -0.07409   0.82046
   D23       -1.19148   0.00043  -0.00159  -0.05671  -0.05828  -1.24977
   D24        2.99751   0.00028  -0.00181  -0.05836  -0.06017   2.93735
   D25        3.00125  -0.00017  -0.00215  -0.08088  -0.08303   2.91822
   D26        0.91522  -0.00025  -0.00161  -0.06562  -0.06723   0.84799
   D27       -1.17897  -0.00040  -0.00183  -0.06727  -0.06911  -1.24808
   D28       -1.21377  -0.00011  -0.00205  -0.08021  -0.08226  -1.29603
   D29        2.98339  -0.00018  -0.00151  -0.06495  -0.06646   2.91693
   D30        0.88920  -0.00033  -0.00173  -0.06661  -0.06834   0.82086
   D31        3.09967  -0.00078  -0.00155  -0.12102  -0.12257   2.97709
   D32       -1.10228  -0.00078  -0.00165  -0.12290  -0.12455  -1.22683
   D33        1.02309  -0.00124  -0.00134  -0.11951  -0.12085   0.90224
   D34       -1.06457   0.00034  -0.00140  -0.10624  -0.10764  -1.17221
   D35        1.01667   0.00034  -0.00150  -0.10812  -0.10962   0.90705
   D36       -3.14115  -0.00011  -0.00119  -0.10473  -0.10592   3.03612
   D37        0.98376   0.00016  -0.00180  -0.11957  -0.12136   0.86240
   D38        3.06500   0.00015  -0.00190  -0.12145  -0.12334   2.94165
   D39       -1.09282  -0.00030  -0.00159  -0.11806  -0.11965  -1.21246
         Item               Value     Threshold  Converged?
 Maximum Force            0.001984     0.000450     NO 
 RMS     Force            0.000581     0.000300     NO 
 Maximum Displacement     0.358659     0.001800     NO 
 RMS     Displacement     0.106838     0.001200     NO 
 Predicted change in Energy=-4.570902D-04
 GradGradGradGradGradGradGradGradGradGradGradGradGradGradGradGradGradGrad

                          Input orientation:                          
 ---------------------------------------------------------------------
 Center     Atomic      Atomic             Coordinates (Angstroms)
 Number     Number       Type             X           Y           Z
 ---------------------------------------------------------------------
      1          6           0        2.731227   -0.190328   -0.072331
      2          9           0        3.542993    0.298497   -1.010759
      3          9           0        3.281202    0.088275    1.115957
      4          9           0        2.667898   -1.509977   -0.203559
      5          6           0        1.366984    0.427326   -0.194005
      6          9           0        1.367353    1.738660   -0.088609
      7          6           0        0.093740   -0.306106    0.123691
      8          9           0        0.123380   -0.776614    1.392922
      9          9           0       -0.021120   -1.365624   -0.697027
     10          6           0       -1.164971    0.599560   -0.035302
     11          9           0       -1.044247    1.276105   -1.188154
     12          9           0       -1.189578    1.464328    0.988085
     13          6           0       -2.515545   -0.168045   -0.075196
     14          9           0       -2.555909   -1.067310    0.915668
     15          9           0       -2.619129   -0.821344   -1.238198
     16          6           0       -3.764604    0.750422    0.055800
     17          9           0       -4.840493    0.016356   -0.196462
     18          9           0       -3.868563    1.248268    1.279627
     19          9           0       -3.703670    1.739671   -0.825410
 ---------------------------------------------------------------------
                    Distance matrix (angstroms):
                    1          2          3          4          5
     1  C    0.000000
     2  F    1.333626   0.000000
     3  F    1.338700   2.153055   0.000000
     4  F    1.327669   2.165165   2.161405   0.000000
     5  C    1.502485   2.327810   2.344181   2.333584   0.000000
     6  F    2.362501   2.767280   2.799566   3.501181   1.315562
     7  C    2.647295   3.681014   3.361553   2.860540   1.503330
     8  F    3.048207   4.315935   3.285815   3.092110   2.348268
     9  F    3.057284   3.945963   4.038076   2.737730   2.322614
    10  C    3.975633   4.817372   4.621175   4.378280   2.542763
    11  F    4.201154   4.693607   5.042754   4.744649   2.742770
    12  F    4.385782   5.267994   4.679502   5.014641   3.001453
    13  C    5.246821   6.148074   5.923413   5.355869   3.929709
    14  F    5.449683   6.540118   5.953768   5.360669   4.342165
    15  F    5.512145   6.267178   6.417426   5.431146   4.305649
    16  C    6.564850   7.398835   7.155819   6.823031   5.147814
    17  F    7.575558   8.427664   8.227366   7.661963   6.221067
    18  F    6.888729   7.815311   7.245102   7.247971   5.500590
    19  F    6.760172   7.390903   7.435351   7.179400   5.275647
                    6          7          8          9         10
     6  F    0.000000
     7  C    2.418311   0.000000
     8  F    3.173170   1.353958   0.000000
     9  F    3.454650   1.345121   2.176166   0.000000
    10  C    2.777238   1.558801   2.365063   2.368169   0.000000
    11  F    2.690495   2.349328   3.498422   2.875192   1.342146
    12  F    2.787907   2.351280   2.628607   3.494786   1.340056
    13  C    4.325806   2.620494   3.080528   2.836023   1.553982
    14  F    4.926867   2.868327   2.736944   3.019094   2.370128
    15  F    4.875163   3.078940   3.800809   2.709015   2.362309
    16  C    5.228236   4.000960   4.385904   4.365556   2.605600
    17  F    6.443238   4.955113   5.272094   5.038531   3.724992
    18  F    5.433909   4.410455   4.477565   5.053951   3.075593
    19  F    5.124270   4.416596   5.089105   4.818767   2.892943
                   11         12         13         14         15
    11  F    0.000000
    12  F    2.189193   0.000000
    13  C    2.342854   2.356565   0.000000
    14  F    3.493248   2.877724   1.338700   0.000000
    15  F    2.623367   3.496319   1.337947   2.168786   0.000000
    16  C    3.037122   2.830120   1.555921   2.346160   2.336020
    17  F    4.120911   4.102311   2.335400   2.762335   2.592569
    18  F    3.750664   2.703450   2.381627   2.686528   3.490533
    19  F    2.723786   3.112111   2.369355   3.496834   2.811658
                   16         17         18         19
    16  C    0.000000
    17  F    1.326660   0.000000
    18  F    1.325297   2.154320   0.000000
    19  F    1.326219   2.158183   2.167913   0.000000
 Stoichiometry    C6F13(2)
 Framework group  C1[X(C6F13)]
 Deg. of freedom    51
 Full point group                 C1      NOp   1
 Largest Abelian subgroup         C1      NOp   1
 Largest concise Abelian subgroup C1      NOp   1
                         Standard orientation:                         
 ---------------------------------------------------------------------
 Center     Atomic      Atomic             Coordinates (Angstroms)
 Number     Number       Type             X           Y           Z
 ---------------------------------------------------------------------
      1          6           0       -3.400582    0.020366   -0.060855
      2          9           0       -4.163112   -0.579941   -0.975588
      3          9           0       -3.912503   -0.273307    1.140733
      4          9           0       -3.473653    1.334461   -0.235555
      5          6           0       -1.980881   -0.458167   -0.174504
      6          9           0       -1.846178   -1.758413   -0.026454
      7          6           0       -0.787832    0.411866    0.107771
      8          9           0       -0.858549    0.918893    1.361217
      9          9           0       -0.786781    1.449645   -0.748013
     10          6           0        0.556226   -0.365047   -0.032855
     11          9           0        0.499148   -1.088421   -1.161937
     12          9           0        0.675052   -1.188184    1.017895
     13          6           0        1.820713    0.534961   -0.109769
     14          9           0        1.774117    1.466143    0.850880
     15          9           0        1.850317    1.156323   -1.294309
     16          6           0        3.158087   -0.246007    0.039932
     17          9           0        4.151608    0.585477   -0.245687
     18          9           0        3.319323   -0.689556    1.278350
     19          9           0        3.194056   -1.265102   -0.808011
 ---------------------------------------------------------------------
 Rotational constants (GHZ):           0.9120155           0.2113584           0.2026909
 Standard basis: 6-311+G(2d,2p) (5D, 7F)
 There are   551 symmetry adapted cartesian basis functions of A   symmetry.
 There are   513 symmetry adapted basis functions of A   symmetry.
   513 basis functions,   798 primitive gaussians,   551 cartesian basis functions
    77 alpha electrons       76 beta electrons
       nuclear repulsion energy      1875.8977846008 Hartrees.
 NAtoms=   19 NActive=   19 NUniq=   19 SFac= 1.00D+00 NAtFMM=   60 NAOKFM=F Big=F
 Integral buffers will be    131072 words long.
 Raffenetti 2 integral format.
 Two-electron integral symmetry is turned on.
 Nuclear repulsion after empirical dispersion term =     1875.8851237035 Hartrees.
 One-electron integrals computed using PRISM.
 NBasis=   513 RedAO= T EigKep=  3.73D-06  NBF=   513
 NBsUse=   513 1.00D-06 EigRej= -1.00D+00 NBFU=   513
 Initial guess from the checkpoint file:  "2_hexyl.chk"
 B after Tr=    -0.000000    0.000000   -0.000000
         Rot=    0.999728    0.023254   -0.001494    0.000356 Ang=   2.67 deg.
 Initial guess <Sx>= 0.0000 <Sy>= 0.0000 <Sz>= 0.5000 <S**2>= 0.7541 S= 0.5021
 ExpMin= 4.38D-02 ExpMax= 1.14D+04 ExpMxC= 1.72D+03 IAcc=2 IRadAn=         4 AccDes= 0.00D+00
 Harris functional with IExCor= 4639 and IRadAn=       4 diagonalized for initial guess.
 HarFok:  IExCor= 4639 AccDes= 0.00D+00 IRadAn=         4 IDoV= 1 UseB2=F ITyADJ=14
 ICtDFT=  3500011 ScaDFX=  1.000000  1.000000  1.000000  1.000000
 FoFCou: FMM=F IPFlag=           0 FMFlag=      100000 FMFlg1=           0
         NFxFlg=           0 DoJE=T BraDBF=F KetDBF=T FulRan=T
         wScrn=  0.000000 ICntrl=       500 IOpCl=  0 I1Cent=   200000004 NGrid=           0
         NMat0=    1 NMatS0=      1 NMatT0=    0 NMatD0=    1 NMtDS0=    0 NMtDT0=    0
 Petite list used in FoFCou.
 Requested convergence on RMS density matrix=1.00D-08 within  32 cycles.
 Requested convergence on MAX density matrix=1.00D-06.
 Requested convergence on             energy=1.00D-06.
 No special actions if energy rises.
 SCF Done:  E(UwB97XD) =  -1526.59039882     A.U. after   14 cycles
            NFock= 14  Conv=0.28D-08     -V/T= 2.0025
 <Sx>= 0.0000 <Sy>= 0.0000 <Sz>= 0.5000 <S**2>= 0.7541 S= 0.5020
 <L.S>= 0.000000000000E+00
 Annihilation of the first spin contaminant:
 S**2 before annihilation     0.7541,   after     0.7500
 QCSCF skips out because SCF is already converged.
 Calling FoFJK, ICntrl=      2127 FMM=F ISym2X=0 I1Cent= 0 IOpClX= 1 NMat=1 NMatS=1 NMatT=0.
 ***** Axes restored to original set *****
 -------------------------------------------------------------------
 Center     Atomic                   Forces (Hartrees/Bohr)
 Number     Number              X              Y              Z
 -------------------------------------------------------------------
      1        6          -0.000039613    0.000126336    0.000005830
      2        9          -0.000006810    0.000008468   -0.000007377
      3        9           0.000026233    0.000002940    0.000051640
      4        9          -0.000187707    0.000034230   -0.000012290
      5        6           0.000183307   -0.000457734    0.000130331
      6        9          -0.000091541   -0.000141874    0.000841275
      7        6           0.000059360    0.000291561    0.000995709
      8        9           0.000095371   -0.000011008   -0.000356008
      9        9          -0.000409353   -0.000654356   -0.000371361
     10        6           0.002203634    0.000203574   -0.001391450
     11        9          -0.000417929    0.000584407   -0.000301936
     12        9           0.000246338    0.001242695   -0.000473527
     13        6           0.000281558   -0.004631679   -0.000050332
     14        9          -0.000123870    0.001249477    0.002475740
     15        9           0.000794068    0.002200770   -0.001683511
     16        6          -0.000772069   -0.002782016    0.000312139
     17        9          -0.001299761    0.000753612    0.000319666
     18        9           0.000421800    0.000540482   -0.001628659
     19        9          -0.000963016    0.001440115    0.001144119
 -------------------------------------------------------------------
 Cartesian Forces:  Max     0.004631679 RMS     0.001092619

 GradGradGradGradGradGradGradGradGradGradGradGradGradGradGradGradGradGrad
 Berny optimization.
 Using GEDIIS/GDIIS optimizer.
 FormGI is forming the generalized inverse of G from B-inverse, IUseBI=4.
 Internal  Forces:  Max     0.003155503 RMS     0.000965051
 Search for a local minimum.
 Step number   5 out of a maximum of  100
 All quantities printed in internal units (Hartrees-Bohrs-Radians)
 Mixed Optimization -- En-DIIS/RFO-DIIS
 Swapping is turned off.
 Update second derivatives using D2CorX and points    1    2    4    5
 DE= -1.37D-04 DEPred=-4.57D-04 R= 2.99D-01
 Trust test= 2.99D-01 RLast= 5.12D-01 DXMaxT set to 8.49D-01
 ITU=  0  1  1  0  0
     Eigenvalues ---    0.00122   0.00253   0.00612   0.00739   0.00869
     Eigenvalues ---    0.01206   0.05165   0.05508   0.06579   0.06993
     Eigenvalues ---    0.07507   0.07957   0.08865   0.09366   0.11030
     Eigenvalues ---    0.11228   0.13109   0.13464   0.14992   0.19114
     Eigenvalues ---    0.19620   0.20075   0.23053   0.23966   0.24795
     Eigenvalues ---    0.25000   0.25000   0.25000   0.25000   0.25010
     Eigenvalues ---    0.25196   0.25735   0.26600   0.27819   0.28921
     Eigenvalues ---    0.32172   0.32204   0.36133   0.39888   0.54148
     Eigenvalues ---    0.55144   0.55401   0.55853   0.56777   0.57504
     Eigenvalues ---    0.57596   0.58683   0.59333   0.60036   0.60681
     Eigenvalues ---    0.63079
 En-DIIS/RFO-DIIS/Sim-DIIS IScMMF=       -3 using points:     5    4
 RFO step:  Lambda=-5.31604032D-04.
 DidBck=F Rises=F RFO-DIIS coefs:    1.07430   -0.07430
 Iteration  1 RMS(Cart)=  0.04145243 RMS(Int)=  0.00055204
 Iteration  2 RMS(Cart)=  0.00115949 RMS(Int)=  0.00001074
 Iteration  3 RMS(Cart)=  0.00000058 RMS(Int)=  0.00001073
 Variable       Old X    -DE/DX   Delta X   Delta X   Delta X     New X
                                 (Linear)    (Quad)   (Total)
    R1        2.52019   0.00000   0.00001   0.00003   0.00005   2.52024
    R2        2.52978   0.00006   0.00001   0.00007   0.00008   2.52985
    R3        2.50893  -0.00002  -0.00001  -0.00005  -0.00005   2.50888
    R4        2.83929  -0.00026   0.00003  -0.00052  -0.00049   2.83879
    R5        2.48605  -0.00007  -0.00000  -0.00012  -0.00012   2.48593
    R6        2.84088  -0.00052   0.00010  -0.00088  -0.00078   2.84010
    R7        2.55861  -0.00033  -0.00003  -0.00030  -0.00033   2.55828
    R8        2.54191   0.00078  -0.00011   0.00075   0.00063   2.54254
    R9        2.94571   0.00029  -0.00013   0.00003  -0.00010   2.94560
   R10        2.53629   0.00052   0.00002   0.00051   0.00053   2.53682
   R11        2.53234   0.00044   0.00013   0.00070   0.00083   2.53317
   R12        2.93660   0.00203  -0.00098   0.00485   0.00388   2.94048
   R13        2.52978   0.00100   0.00022   0.00068   0.00090   2.53068
   R14        2.52835   0.00033   0.00024  -0.00008   0.00016   2.52852
   R15        2.94027   0.00208  -0.00034   0.00370   0.00336   2.94362
   R16        2.50702   0.00058  -0.00012   0.00198   0.00186   2.50888
   R17        2.50445  -0.00133  -0.00021  -0.00080  -0.00101   2.50344
   R18        2.50619   0.00027  -0.00011   0.00137   0.00126   2.50745
    A1        1.87366   0.00001   0.00001   0.00034   0.00036   1.87402
    A2        1.90055   0.00013  -0.00000   0.00031   0.00030   1.90085
    A3        1.92306   0.00004  -0.00001   0.00016   0.00014   1.92320
    A4        1.89040   0.00011  -0.00001   0.00024   0.00023   1.89063
    A5        1.93837   0.00008  -0.00003   0.00013   0.00010   1.93848
    A6        1.93616  -0.00035   0.00004  -0.00112  -0.00109   1.93507
    A7        1.98562   0.00021  -0.00002  -0.00123  -0.00128   1.98434
    A8        2.15478   0.00004  -0.00000  -0.00166  -0.00168   2.15309
    A9        2.05965  -0.00037   0.00017  -0.00222  -0.00208   2.05756
   A10        1.92741  -0.00093   0.00013  -0.00335  -0.00322   1.92419
   A11        1.90463   0.00055   0.00003   0.00271   0.00274   1.90737
   A12        1.95939   0.00098  -0.00002   0.00341   0.00339   1.96278
   A13        1.87560   0.00005   0.00014  -0.00045  -0.00030   1.87530
   A14        1.89146   0.00019   0.00016   0.00187   0.00203   1.89349
   A15        1.90335  -0.00088  -0.00043  -0.00441  -0.00485   1.89850
   A16        1.88373   0.00157  -0.00046   0.00360   0.00314   1.88686
   A17        1.88795   0.00076   0.00022   0.00241   0.00262   1.89058
   A18        2.00140  -0.00316   0.00028  -0.00684  -0.00656   1.99484
   A19        1.90958  -0.00099   0.00013  -0.00332  -0.00320   1.90638
   A20        1.88086   0.00078  -0.00036   0.00182   0.00147   1.88232
   A21        1.89907   0.00104   0.00020   0.00227   0.00247   1.90154
   A22        1.91667  -0.00079   0.00084  -0.00015   0.00069   1.91736
   A23        1.90794  -0.00185   0.00003  -0.00643  -0.00639   1.90155
   A24        1.98663   0.00261  -0.00073   0.00057  -0.00017   1.98646
   A25        1.88920   0.00216  -0.00139   0.01291   0.01153   1.90073
   A26        1.88600  -0.00188   0.00071  -0.00756  -0.00685   1.87916
   A27        1.87472  -0.00018   0.00047   0.00150   0.00197   1.87669
   A28        1.88430   0.00238   0.00004   0.00994   0.00996   1.89426
   A29        1.94171  -0.00060  -0.00000  -0.00337  -0.00337   1.93833
   A30        1.92569   0.00253  -0.00052   0.00508   0.00453   1.93022
   A31        1.89635  -0.00079  -0.00014  -0.00176  -0.00190   1.89445
   A32        1.90038  -0.00147   0.00012   0.00051   0.00057   1.90095
   A33        1.91451  -0.00205   0.00050  -0.01010  -0.00960   1.90491
    D1       -1.02185  -0.00024   0.00022  -0.00694  -0.00672  -1.02857
    D2        2.55658   0.00015  -0.00019   0.00629   0.00610   2.56268
    D3        1.05196  -0.00015   0.00021  -0.00632  -0.00611   1.04584
    D4       -1.65279   0.00024  -0.00020   0.00691   0.00671  -1.64609
    D5       -3.12783  -0.00020   0.00021  -0.00669  -0.00648  -3.13431
    D6        0.45061   0.00020  -0.00020   0.00654   0.00634   0.45695
    D7        0.98668   0.00001  -0.00020   0.00991   0.00972   0.99640
    D8       -1.07134   0.00017  -0.00046   0.01079   0.01033  -1.06100
    D9        3.09963   0.00027   0.00008   0.01228   0.01236   3.11198
   D10       -1.70091   0.00029  -0.00058   0.02343   0.02285  -1.67806
   D11        2.52426   0.00045  -0.00084   0.02430   0.02346   2.54772
   D12        0.41204   0.00054  -0.00030   0.02579   0.02548   0.43752
   D13        0.78914   0.00076  -0.00747   0.03530   0.02783   0.81697
   D14       -1.27531   0.00066  -0.00749   0.03596   0.02847  -1.24684
   D15        2.88531   0.00086  -0.00808   0.03582   0.02774   2.91305
   D16        2.92263   0.00036  -0.00721   0.03460   0.02739   2.95002
   D17        0.85818   0.00026  -0.00723   0.03526   0.02803   0.88621
   D18       -1.26439   0.00046  -0.00782   0.03512   0.02730  -1.23709
   D19       -1.32382   0.00004  -0.00719   0.03270   0.02551  -1.29831
   D20        2.89492  -0.00006  -0.00721   0.03335   0.02614   2.92106
   D21        0.77235   0.00014  -0.00780   0.03322   0.02541   0.79777
   D22        0.82046   0.00016  -0.00550  -0.04978  -0.05529   0.76517
   D23       -1.24977  -0.00089  -0.00433  -0.06156  -0.06588  -1.31565
   D24        2.93735  -0.00106  -0.00447  -0.05926  -0.06374   2.87361
   D25        2.91822   0.00070  -0.00617  -0.04826  -0.05443   2.86378
   D26        0.84799  -0.00034  -0.00500  -0.06004  -0.06503   0.78296
   D27       -1.24808  -0.00051  -0.00514  -0.05775  -0.06289  -1.31096
   D28       -1.29603   0.00054  -0.00611  -0.04995  -0.05606  -1.35209
   D29        2.91693  -0.00051  -0.00494  -0.06172  -0.06666   2.85028
   D30        0.82086  -0.00067  -0.00508  -0.05943  -0.06451   0.75635
   D31        2.97709   0.00031  -0.00911  -0.01016  -0.01925   2.95784
   D32       -1.22683   0.00048  -0.00925  -0.00807  -0.01733  -1.24416
   D33        0.90224  -0.00079  -0.00898  -0.01968  -0.02869   0.87355
   D34       -1.17221  -0.00033  -0.00800  -0.01547  -0.02344  -1.19565
   D35        0.90705  -0.00017  -0.00815  -0.01338  -0.02152   0.88552
   D36        3.03612  -0.00144  -0.00787  -0.02499  -0.03288   3.00324
   D37        0.86240   0.00113  -0.00902  -0.00345  -0.01245   0.84994
   D38        2.94165   0.00129  -0.00916  -0.00137  -0.01053   2.93112
   D39       -1.21246   0.00002  -0.00889  -0.01298  -0.02189  -1.23435
         Item               Value     Threshold  Converged?
 Maximum Force            0.003156     0.000450     NO 
 RMS     Force            0.000965     0.000300     NO 
 Maximum Displacement     0.160921     0.001800     NO 
 RMS     Displacement     0.041515     0.001200     NO 
 Predicted change in Energy=-2.785824D-04
 GradGradGradGradGradGradGradGradGradGradGradGradGradGradGradGradGradGrad

                          Input orientation:                          
 ---------------------------------------------------------------------
 Center     Atomic      Atomic             Coordinates (Angstroms)
 Number     Number       Type             X           Y           Z
 ---------------------------------------------------------------------
      1          6           0        2.730705   -0.195077   -0.050789
      2          9           0        3.559984    0.288523   -0.976560
      3          9           0        3.263200    0.080702    1.146133
      4          9           0        2.660857   -1.514306   -0.182637
      5          6           0        1.372183    0.429814   -0.194339
      6          9           0        1.378574    1.740454   -0.081584
      7          6           0        0.092112   -0.295882    0.111507
      8          9           0        0.102423   -0.746359    1.388101
      9          9           0       -0.013982   -1.368416   -0.693892
     10          6           0       -1.164665    0.605086   -0.084608
     11          9           0       -1.044564    1.238184   -1.262264
     12          9           0       -1.191864    1.511150    0.902930
     13          6           0       -2.513325   -0.170951   -0.095663
     14          9           0       -2.523371   -1.079569    0.888056
     15          9           0       -2.642550   -0.800942   -1.269011
     16          6           0       -3.764132    0.738997    0.088459
     17          9           0       -4.850641    0.018930   -0.163811
     18          9           0       -3.841004    1.197157    1.329097
     19          9           0       -3.722992    1.764628   -0.752383
 ---------------------------------------------------------------------
                    Distance matrix (angstroms):
                    1          2          3          4          5
     1  C    0.000000
     2  F    1.333652   0.000000
     3  F    1.338741   2.153392   0.000000
     4  F    1.327640   2.165395   2.161596   0.000000
     5  C    1.502224   2.327726   2.344076   2.332471   0.000000
     6  F    2.361247   2.769050   2.795332   3.499704   1.315497
     7  C    2.645501   3.681244   3.356794   2.858240   1.502916
     8  F    3.046666   4.314780   3.276139   3.098797   2.345163
     9  F    3.053459   3.949504   4.028096   2.727166   2.324787
    10  C    3.976846   4.818516   4.625547   4.374477   2.545261
    11  F    4.215989   4.710132   5.069218   4.740458   2.763076
    12  F    4.382618   5.254271   4.685395   5.017500   2.991258
    13  C    5.244277   6.154038   5.913851   5.346432   3.932916
    14  F    5.410089   6.508124   5.907388   5.311460   4.315687
    15  F    5.542833   6.304276   6.441125   5.460332   4.334485
    16  C    6.563138   7.414841   7.136905   6.814056   5.153377
    17  F    7.585208   8.454103   8.219135   7.666406   6.236449
    18  F    6.857824   7.804889   7.193723   7.204968   5.485160
    19  F    6.781068   7.434439   7.432823   7.199275   5.296598
                    6          7          8          9         10
     6  F    0.000000
     7  C    2.416388   0.000000
     8  F    3.157970   1.353783   0.000000
     9  F    3.461099   1.345457   2.176051   0.000000
    10  C    2.785163   1.558746   2.366598   2.364319   0.000000
    11  F    2.741874   2.352156   3.504059   2.859984   1.342427
    12  F    2.762065   2.353786   2.647059   3.497020   1.340494
    13  C    4.335960   2.616645   3.061828   2.835228   1.556034
    14  F    4.910999   2.838652   2.693672   2.980440   2.372809
    15  F    4.902868   3.104721   3.820746   2.749938   2.358785
    16  C    5.242066   3.992758   4.341152   4.372286   2.608661
    17  F    6.463244   4.960414   5.246613   5.059544   3.733132
    18  F    5.434076   4.379622   4.396743   5.031972   3.084137
    19  F    5.145535   4.421202   5.051785   4.855527   2.887127
                   11         12         13         14         15
    11  F    0.000000
    12  F    2.187298   0.000000
    13  C    2.346035   2.360701   0.000000
    14  F    3.490377   2.912895   1.339176   0.000000
    15  F    2.590684   3.488206   1.338033   2.178250   0.000000
    16  C    3.077287   2.806447   1.557698   2.342227   2.339248
    17  F    4.144805   4.092836   2.346006   2.780164   2.601792
    18  F    3.812731   2.701509   2.379998   2.667237   3.489821
    19  F    2.776887   3.034949   2.375088   3.495653   2.831327
                   16         17         18         19
    16  C    0.000000
    17  F    1.327644   0.000000
    18  F    1.324765   2.153221   0.000000
    19  F    1.326886   2.159970   2.160673   0.000000
 Stoichiometry    C6F13(2)
 Framework group  C1[X(C6F13)]
 Deg. of freedom    51
 Full point group                 C1      NOp   1
 Largest Abelian subgroup         C1      NOp   1
 Largest concise Abelian subgroup C1      NOp   1
                         Standard orientation:                         
 ---------------------------------------------------------------------
 Center     Atomic      Atomic             Coordinates (Angstroms)
 Number     Number       Type             X           Y           Z
 ---------------------------------------------------------------------
      1          6           0       -3.400518    0.027189   -0.042040
      2          9           0       -4.180553   -0.563739   -0.948117
      3          9           0       -3.896157   -0.268529    1.165900
      4          9           0       -3.466530    1.342540   -0.209736
      5          6           0       -1.985958   -0.459513   -0.179224
      6          9           0       -1.857794   -1.760372   -0.031332
      7          6           0       -0.785285    0.401139    0.097216
      8          9           0       -0.835326    0.883084    1.361318
      9          9           0       -0.793329    1.456387   -0.737434
     10          6           0        0.556025   -0.371920   -0.084329
     11          9           0        0.495490   -1.046055   -1.243635
     12          9           0        0.680540   -1.243028    0.926902
     13          6           0        1.818228    0.537092   -0.126544
     14          9           0        1.740171    1.468651    0.832360
     15          9           0        1.876623    1.144535   -1.317315
     16          6           0        3.156382   -0.235069    0.072287
     17          9           0        4.162347    0.584915   -0.207535
     18          9           0        3.285767   -0.648764    1.324133
     19          9           0        3.216170   -1.282236   -0.740420
 ---------------------------------------------------------------------
 Rotational constants (GHZ):           0.9119501           0.2113534           0.2027797
 Standard basis: 6-311+G(2d,2p) (5D, 7F)
 There are   551 symmetry adapted cartesian basis functions of A   symmetry.
 There are   513 symmetry adapted basis functions of A   symmetry.
   513 basis functions,   798 primitive gaussians,   551 cartesian basis functions
    77 alpha electrons       76 beta electrons
       nuclear repulsion energy      1875.7487507217 Hartrees.
 NAtoms=   19 NActive=   19 NUniq=   19 SFac= 1.00D+00 NAtFMM=   60 NAOKFM=F Big=F
 Integral buffers will be    131072 words long.
 Raffenetti 2 integral format.
 Two-electron integral symmetry is turned on.
 Nuclear repulsion after empirical dispersion term =     1875.7360752539 Hartrees.
 One-electron integrals computed using PRISM.
 NBasis=   513 RedAO= T EigKep=  3.93D-06  NBF=   513
 NBsUse=   513 1.00D-06 EigRej= -1.00D+00 NBFU=   513
 Initial guess from the checkpoint file:  "2_hexyl.chk"
 B after Tr=    -0.000000   -0.000000   -0.000000
         Rot=    0.999996   -0.002953    0.000352    0.000203 Ang=  -0.34 deg.
 Initial guess <Sx>= 0.0000 <Sy>= 0.0000 <Sz>= 0.5000 <S**2>= 0.7541 S= 0.5020
 ExpMin= 4.38D-02 ExpMax= 1.14D+04 ExpMxC= 1.72D+03 IAcc=2 IRadAn=         4 AccDes= 0.00D+00
 Harris functional with IExCor= 4639 and IRadAn=       4 diagonalized for initial guess.
 HarFok:  IExCor= 4639 AccDes= 0.00D+00 IRadAn=         4 IDoV= 1 UseB2=F ITyADJ=14
 ICtDFT=  3500011 ScaDFX=  1.000000  1.000000  1.000000  1.000000
 FoFCou: FMM=F IPFlag=           0 FMFlag=      100000 FMFlg1=           0
         NFxFlg=           0 DoJE=T BraDBF=F KetDBF=T FulRan=T
         wScrn=  0.000000 ICntrl=       500 IOpCl=  0 I1Cent=   200000004 NGrid=           0
         NMat0=    1 NMatS0=      1 NMatT0=    0 NMatD0=    1 NMtDS0=    0 NMtDT0=    0
 Petite list used in FoFCou.
 Requested convergence on RMS density matrix=1.00D-08 within  32 cycles.
 Requested convergence on MAX density matrix=1.00D-06.
 Requested convergence on             energy=1.00D-06.
 No special actions if energy rises.
 SCF Done:  E(UwB97XD) =  -1526.59070006     A.U. after   12 cycles
            NFock= 12  Conv=0.34D-08     -V/T= 2.0025
 <Sx>= 0.0000 <Sy>= 0.0000 <Sz>= 0.5000 <S**2>= 0.7541 S= 0.5020
 <L.S>= 0.000000000000E+00
 Annihilation of the first spin contaminant:
 S**2 before annihilation     0.7541,   after     0.7500
 QCSCF skips out because SCF is already converged.
 Calling FoFJK, ICntrl=      2127 FMM=F ISym2X=0 I1Cent= 0 IOpClX= 1 NMat=1 NMatS=1 NMatT=0.
 ***** Axes restored to original set *****
 -------------------------------------------------------------------
 Center     Atomic                   Forces (Hartrees/Bohr)
 Number     Number              X              Y              Z
 -------------------------------------------------------------------
      1        6           0.000056809   -0.000065184   -0.000026773
      2        9          -0.000014579   -0.000033168    0.000086240
      3        9           0.000013566   -0.000007170   -0.000081208
      4        9           0.000077146   -0.000035602   -0.000013357
      5        6           0.000070108   -0.000306439   -0.000162428
      6        9          -0.000553834    0.000057501    0.000363029
      7        6          -0.000157479    0.000176660    0.000652990
      8        9           0.000129026    0.000308918    0.000079993
      9        9          -0.000480383   -0.000308805   -0.000525162
     10        6           0.001847999    0.000915158   -0.001013652
     11        9          -0.000018250    0.000240712    0.000486010
     12        9           0.000254664    0.000496494   -0.000219834
     13        6          -0.001051274   -0.002493191   -0.000225630
     14        9          -0.000354558    0.000367332    0.000386080
     15        9           0.000604838    0.000665029    0.000063293
     16        6          -0.001489086   -0.000499962    0.000690726
     17        9           0.000685545    0.000517072   -0.000079484
     18        9           0.000496009   -0.000170313   -0.000094876
     19        9          -0.000116270    0.000174959   -0.000365958
 -------------------------------------------------------------------
 Cartesian Forces:  Max     0.002493191 RMS     0.000599405

 GradGradGradGradGradGradGradGradGradGradGradGradGradGradGradGradGradGrad
 Berny optimization.
 Using GEDIIS/GDIIS optimizer.
 FormGI is forming the generalized inverse of G from B-inverse, IUseBI=4.
 Internal  Forces:  Max     0.001780562 RMS     0.000413344
 Search for a local minimum.
 Step number   6 out of a maximum of  100
 All quantities printed in internal units (Hartrees-Bohrs-Radians)
 Mixed Optimization -- En-DIIS/RFO-DIIS
 Swapping is turned off.
 Update second derivatives using D2CorX and points    2    5    6
 DE= -3.01D-04 DEPred=-2.79D-04 R= 1.08D+00
 TightC=F SS=  1.41D+00  RLast= 2.20D-01 DXNew= 1.4270D+00 6.5903D-01
 Trust test= 1.08D+00 RLast= 2.20D-01 DXMaxT set to 8.49D-01
 ITU=  1  0  1  1  0  0
     Eigenvalues ---    0.00143   0.00253   0.00643   0.00739   0.00834
     Eigenvalues ---    0.01170   0.05206   0.05507   0.06460   0.06978
     Eigenvalues ---    0.07315   0.08061   0.08780   0.09554   0.11043
     Eigenvalues ---    0.11233   0.13030   0.13602   0.15422   0.19009
     Eigenvalues ---    0.19625   0.20427   0.23008   0.23693   0.24443
     Eigenvalues ---    0.24989   0.25000   0.25000   0.25000   0.25005
     Eigenvalues ---    0.25315   0.25918   0.26300   0.28013   0.28695
     Eigenvalues ---    0.32165   0.32248   0.36773   0.39423   0.54152
     Eigenvalues ---    0.55021   0.55700   0.55861   0.56930   0.57503
     Eigenvalues ---    0.57554   0.58687   0.59772   0.60036   0.60652
     Eigenvalues ---    0.63085
 En-DIIS/RFO-DIIS/Sim-DIIS IScMMF=       -3 using points:     6    5    4
 RFO step:  Lambda=-8.97483132D-05.
 DidBck=F Rises=F RFO-DIIS coefs:    1.06393   -0.15161    0.08769
 Iteration  1 RMS(Cart)=  0.01134660 RMS(Int)=  0.00007303
 Iteration  2 RMS(Cart)=  0.00007890 RMS(Int)=  0.00000466
 Iteration  3 RMS(Cart)=  0.00000000 RMS(Int)=  0.00000466
 Variable       Old X    -DE/DX   Delta X   Delta X   Delta X     New X
                                 (Linear)    (Quad)   (Total)
    R1        2.52024  -0.00008  -0.00001  -0.00014  -0.00015   2.52009
    R2        2.52985  -0.00007  -0.00000  -0.00013  -0.00013   2.52972
    R3        2.50888   0.00003   0.00001   0.00005   0.00006   2.50893
    R4        2.83879   0.00017  -0.00006   0.00064   0.00057   2.83937
    R5        2.48593   0.00009  -0.00000   0.00015   0.00015   2.48608
    R6        2.84010  -0.00052  -0.00017  -0.00149  -0.00166   2.83844
    R7        2.55828  -0.00003   0.00001  -0.00003  -0.00002   2.55826
    R8        2.54254   0.00060   0.00017   0.00095   0.00113   2.54367
    R9        2.94560  -0.00053   0.00015  -0.00206  -0.00191   2.94370
   R10        2.53682  -0.00031   0.00001  -0.00063  -0.00062   2.53620
   R11        2.53317   0.00017  -0.00010   0.00035   0.00025   2.53342
   R12        2.94048   0.00178   0.00140   0.00553   0.00693   2.94741
   R13        2.53068   0.00004  -0.00020   0.00021   0.00001   2.53069
   R14        2.52852  -0.00043  -0.00027  -0.00050  -0.00077   2.52774
   R15        2.94362   0.00037   0.00062   0.00053   0.00115   2.94477
   R16        2.50888  -0.00083   0.00026  -0.00184  -0.00158   2.50730
   R17        2.50344  -0.00018   0.00018  -0.00047  -0.00029   2.50316
   R18        2.50745   0.00036   0.00021   0.00044   0.00065   2.50810
    A1        1.87402  -0.00007   0.00001  -0.00051  -0.00050   1.87352
    A2        1.90085  -0.00007   0.00002  -0.00028  -0.00025   1.90060
    A3        1.92320   0.00002   0.00002  -0.00001   0.00002   1.92322
    A4        1.89063  -0.00005   0.00002  -0.00008  -0.00006   1.89057
    A5        1.93848   0.00002   0.00004   0.00003   0.00008   1.93856
    A6        1.93507   0.00013  -0.00011   0.00079   0.00067   1.93575
    A7        1.98434   0.00045  -0.00006   0.00092   0.00084   1.98518
    A8        2.15309   0.00049  -0.00011   0.00097   0.00084   2.15394
    A9        2.05756  -0.00097  -0.00033  -0.00520  -0.00555   2.05202
   A10        1.92419  -0.00016  -0.00036  -0.00066  -0.00102   1.92317
   A11        1.90737   0.00055   0.00014   0.00255   0.00269   1.91006
   A12        1.96278  -0.00036   0.00025  -0.00288  -0.00263   1.96015
   A13        1.87530   0.00018  -0.00018   0.00304   0.00285   1.87815
   A14        1.89349   0.00028  -0.00006   0.00106   0.00100   1.89449
   A15        1.89850  -0.00049   0.00020  -0.00289  -0.00269   1.89581
   A16        1.88686   0.00054   0.00074   0.00133   0.00207   1.88894
   A17        1.89058   0.00037  -0.00009   0.00155   0.00146   1.89204
   A18        1.99484  -0.00158  -0.00074  -0.00512  -0.00586   1.98897
   A19        1.90638  -0.00055  -0.00035  -0.00275  -0.00311   1.90327
   A20        1.88232   0.00050   0.00052   0.00150   0.00201   1.88434
   A21        1.90154   0.00073  -0.00007   0.00343   0.00336   1.90490
   A22        1.91736   0.00024  -0.00095   0.00208   0.00112   1.91848
   A23        1.90155  -0.00075  -0.00045  -0.00365  -0.00410   1.89745
   A24        1.98646   0.00041   0.00086  -0.00059   0.00026   1.98672
   A25        1.90073   0.00042   0.00238   0.00247   0.00486   1.90559
   A26        1.87916  -0.00065  -0.00128  -0.00239  -0.00367   1.87549
   A27        1.87669   0.00036  -0.00043   0.00228   0.00185   1.87854
   A28        1.89426   0.00013   0.00059  -0.00022   0.00036   1.89462
   A29        1.93833  -0.00082  -0.00021  -0.00320  -0.00341   1.93492
   A30        1.93022   0.00014   0.00091  -0.00095  -0.00005   1.93017
   A31        1.89445   0.00043   0.00005   0.00281   0.00285   1.89730
   A32        1.90095  -0.00019  -0.00011  -0.00066  -0.00078   1.90017
   A33        1.90491   0.00032  -0.00121   0.00232   0.00111   1.90602
    D1       -1.02857  -0.00012  -0.00068  -0.00345  -0.00414  -1.03272
    D2        2.56268   0.00018   0.00062   0.00585   0.00648   2.56916
    D3        1.04584  -0.00018  -0.00064  -0.00407  -0.00471   1.04113
    D4       -1.64609   0.00012   0.00067   0.00524   0.00591  -1.64018
    D5       -3.13431  -0.00013  -0.00066  -0.00362  -0.00428  -3.13859
    D6        0.45695   0.00016   0.00064   0.00569   0.00634   0.46329
    D7        0.99640   0.00027   0.00086   0.00803   0.00889   1.00529
    D8       -1.06100  -0.00019   0.00121   0.00318   0.00439  -1.05661
    D9        3.11198   0.00028   0.00069   0.00696   0.00766   3.11965
   D10       -1.67806   0.00022   0.00214   0.01616   0.01829  -1.65977
   D11        2.54772  -0.00024   0.00249   0.01131   0.01379   2.56151
   D12        0.43752   0.00023   0.00198   0.01509   0.01706   0.45459
   D13        0.81697   0.00009   0.01060  -0.00529   0.00532   0.82229
   D14       -1.24684   0.00025   0.01066  -0.00360   0.00706  -1.23978
   D15        2.91305   0.00010   0.01131  -0.00572   0.00559   2.91864
   D16        2.95002  -0.00015   0.01026  -0.00727   0.00300   2.95302
   D17        0.88621   0.00001   0.01032  -0.00558   0.00474   0.89095
   D18       -1.23709  -0.00014   0.01097  -0.00770   0.00327  -1.23381
   D19       -1.29831  -0.00004   0.01012  -0.00465   0.00547  -1.29284
   D20        2.92106   0.00012   0.01018  -0.00297   0.00721   2.92828
   D21        0.79777  -0.00003   0.01083  -0.00508   0.00575   0.80351
   D22        0.76517   0.00016   0.00296   0.00153   0.00449   0.76967
   D23       -1.31565  -0.00003   0.00090  -0.00050   0.00039  -1.31526
   D24        2.87361  -0.00022   0.00120  -0.00044   0.00077   2.87438
   D25        2.86378   0.00019   0.00380   0.00102   0.00482   2.86860
   D26        0.78296  -0.00000   0.00174  -0.00102   0.00072   0.78368
   D27       -1.31096  -0.00019   0.00204  -0.00095   0.00109  -1.30987
   D28       -1.35209   0.00022   0.00363   0.00048   0.00411  -1.34798
   D29        2.85028   0.00002   0.00157  -0.00156   0.00001   2.85029
   D30        0.75635  -0.00017   0.00187  -0.00149   0.00038   0.75673
   D31        2.95784  -0.00021   0.00952   0.00042   0.00993   2.96778
   D32       -1.24416  -0.00009   0.00981   0.00180   0.01161  -1.23255
   D33        0.87355  -0.00015   0.00876   0.00193   0.01069   0.88425
   D34       -1.19565  -0.00010   0.00794   0.00095   0.00890  -1.18675
   D35        0.88552   0.00001   0.00824   0.00234   0.01058   0.89610
   D36        3.00324  -0.00004   0.00719   0.00247   0.00966   3.01290
   D37        0.84994   0.00023   0.00985   0.00380   0.01364   0.86359
   D38        2.93112   0.00035   0.01014   0.00518   0.01532   2.94644
   D39       -1.23435   0.00029   0.00909   0.00531   0.01440  -1.21995
         Item               Value     Threshold  Converged?
 Maximum Force            0.001781     0.000450     NO 
 RMS     Force            0.000413     0.000300     NO 
 Maximum Displacement     0.050391     0.001800     NO 
 RMS     Displacement     0.011348     0.001200     NO 
 Predicted change in Energy=-4.457146D-05
 GradGradGradGradGradGradGradGradGradGradGradGradGradGradGradGradGradGrad

                          Input orientation:                          
 ---------------------------------------------------------------------
 Center     Atomic      Atomic             Coordinates (Angstroms)
 Number     Number       Type             X           Y           Z
 ---------------------------------------------------------------------
      1          6           0        2.729515   -0.197037   -0.053531
      2          9           0        3.559949    0.298571   -0.971773
      3          9           0        3.261227    0.062863    1.147209
      4          9           0        2.660075   -1.514447   -0.202931
      5          6           0        1.371148    0.430482   -0.190094
      6          9           0        1.376191    1.739084   -0.054919
      7          6           0        0.090901   -0.294716    0.111850
      8          9           0        0.098734   -0.744655    1.388642
      9          9           0       -0.018854   -1.365364   -0.696560
     10          6           0       -1.161908    0.609382   -0.087203
     11          9           0       -1.042061    1.239181   -1.266278
     12          9           0       -1.186398    1.521106    0.895363
     13          6           0       -2.511977   -0.171598   -0.094018
     14          9           0       -2.522764   -1.072848    0.896456
     15          9           0       -2.635624   -0.804805   -1.265767
     16          6           0       -3.765498    0.736384    0.086438
     17          9           0       -4.850439    0.010047   -0.149683
     18          9           0       -3.831472    1.209354    1.321973
     19          9           0       -3.733796    1.751137   -0.768436
 ---------------------------------------------------------------------
                    Distance matrix (angstroms):
                    1          2          3          4          5
     1  C    0.000000
     2  F    1.333573   0.000000
     3  F    1.338672   2.152877   0.000000
     4  F    1.327671   2.165162   2.161519   0.000000
     5  C    1.502528   2.327933   2.344339   2.333290   0.000000
     6  F    2.362214   2.772093   2.794314   3.500818   1.315575
     7  C    2.645596   3.682461   3.354222   2.861378   1.502037
     8  F    3.049714   4.317394   3.272880   3.112258   2.343585
     9  F    3.054834   3.956293   4.024705   2.728105   2.326731
    10  C    3.974244   4.814041   4.624563   4.373967   2.541449
    11  F    4.214055   4.706375   5.072172   4.734868   2.763284
    12  F    4.380273   5.244864   4.687353   5.021572   2.984748
    13  C    5.241710   6.153031   5.909780   5.344644   3.930698
    14  F    5.408877   6.509260   5.899769   5.316528   4.313136
    15  F    5.533861   6.299920   6.430253   5.447719   4.328652
    16  C    6.563236   7.414423   7.138189   6.814540   5.153172
    17  F    7.583392   8.455395   8.214856   7.663859   6.235908
    18  F    6.849562   7.792554   7.186889   7.203097   5.473595
    19  F    6.788289   7.439759   7.446498   7.201765   5.304627
                    6          7          8          9         10
     6  F    0.000000
     7  C    2.411664   0.000000
     8  F    3.143998   1.353774   0.000000
     9  F    3.463445   1.346053   2.178801   0.000000
    10  C    2.778347   1.557737   2.366590   2.361675   0.000000
    11  F    2.750497   2.352802   3.505084   2.855728   1.342098
    12  F    2.741790   2.354272   2.651144   3.497011   1.340625
    13  C    4.332445   2.613907   3.056548   2.829097   1.559700
    14  F    4.900400   2.837664   2.687417   2.982084   2.376849
    15  F    4.902263   3.097089   3.811327   2.736002   2.358130
    16  C    5.240453   3.991945   4.338375   4.366666   2.612463
    17  F    6.462930   4.957633   5.237398   5.053221   3.737429
    18  F    5.412596   4.371686   4.389660   5.023913   3.077713
    19  F    5.159575   4.425916   5.056704   4.849592   2.895220
                   11         12         13         14         15
    11  F    0.000000
    12  F    2.184721   0.000000
    13  C    2.350563   2.366703   0.000000
    14  F    3.495050   2.917957   1.339181   0.000000
    15  F    2.591780   3.490072   1.337623   2.181694   0.000000
    16  C    3.082168   2.814588   1.558304   2.339624   2.341012
    17  F    4.154672   4.098856   2.346167   2.772209   2.610562
    18  F    3.805358   2.697332   2.377631   2.665001   3.490457
    19  F    2.784850   3.051291   2.375836   3.494762   2.825980
                   16         17         18         19
    16  C    0.000000
    17  F    1.326807   0.000000
    18  F    1.324613   2.154624   0.000000
    19  F    1.327229   2.158968   2.161684   0.000000
 Stoichiometry    C6F13(2)
 Framework group  C1[X(C6F13)]
 Deg. of freedom    51
 Full point group                 C1      NOp   1
 Largest Abelian subgroup         C1      NOp   1
 Largest concise Abelian subgroup C1      NOp   1
                         Standard orientation:                         
 ---------------------------------------------------------------------
 Center     Atomic      Atomic             Coordinates (Angstroms)
 Number     Number       Type             X           Y           Z
 ---------------------------------------------------------------------
      1          6           0       -3.399527    0.029421   -0.045189
      2          9           0       -4.179304   -0.567611   -0.947362
      3          9           0       -3.896171   -0.258067    1.164248
      4          9           0       -3.465830    1.343596   -0.221987
      5          6           0       -1.984793   -0.458863   -0.178228
      6          9           0       -1.855398   -1.758003   -0.016274
      7          6           0       -0.783963    0.399456    0.099998
      8          9           0       -0.831678    0.873029    1.367340
      9          9           0       -0.788072    1.458454   -0.730886
     10          6           0        0.553741   -0.375993   -0.089131
     11          9           0        0.493297   -1.039425   -1.254220
     12          9           0        0.675974   -1.259559    0.911692
     13          6           0        1.816856    0.538432   -0.121214
     14          9           0        1.740168    1.456729    0.850514
     15          9           0        1.869555    1.156139   -1.306497
     16          6           0        3.157471   -0.232817    0.069152
     17          9           0        4.161346    0.595365   -0.189242
     18          9           0        3.277322   -0.670457    1.313623
     19          9           0        3.225602   -1.263279   -0.764541
 ---------------------------------------------------------------------
 Rotational constants (GHZ):           0.9118688           0.2114835           0.2029196
 Standard basis: 6-311+G(2d,2p) (5D, 7F)
 There are   551 symmetry adapted cartesian basis functions of A   symmetry.
 There are   513 symmetry adapted basis functions of A   symmetry.
   513 basis functions,   798 primitive gaussians,   551 cartesian basis functions
    77 alpha electrons       76 beta electrons
       nuclear repulsion energy      1875.9449284336 Hartrees.
 NAtoms=   19 NActive=   19 NUniq=   19 SFac= 1.00D+00 NAtFMM=   60 NAOKFM=F Big=F
 Integral buffers will be    131072 words long.
 Raffenetti 2 integral format.
 Two-electron integral symmetry is turned on.
 Nuclear repulsion after empirical dispersion term =     1875.9322526651 Hartrees.
 One-electron integrals computed using PRISM.
 NBasis=   513 RedAO= T EigKep=  3.97D-06  NBF=   513
 NBsUse=   513 1.00D-06 EigRej= -1.00D+00 NBFU=   513
 Initial guess from the checkpoint file:  "2_hexyl.chk"
 B after Tr=    -0.000000    0.000000   -0.000000
         Rot=    0.999995   -0.003197    0.000081   -0.000003 Ang=  -0.37 deg.
 Initial guess <Sx>= 0.0000 <Sy>= 0.0000 <Sz>= 0.5000 <S**2>= 0.7541 S= 0.5020
 ExpMin= 4.38D-02 ExpMax= 1.14D+04 ExpMxC= 1.72D+03 IAcc=2 IRadAn=         4 AccDes= 0.00D+00
 Harris functional with IExCor= 4639 and IRadAn=       4 diagonalized for initial guess.
 HarFok:  IExCor= 4639 AccDes= 0.00D+00 IRadAn=         4 IDoV= 1 UseB2=F ITyADJ=14
 ICtDFT=  3500011 ScaDFX=  1.000000  1.000000  1.000000  1.000000
 FoFCou: FMM=F IPFlag=           0 FMFlag=      100000 FMFlg1=           0
         NFxFlg=           0 DoJE=T BraDBF=F KetDBF=T FulRan=T
         wScrn=  0.000000 ICntrl=       500 IOpCl=  0 I1Cent=   200000004 NGrid=           0
         NMat0=    1 NMatS0=      1 NMatT0=    0 NMatD0=    1 NMtDS0=    0 NMtDT0=    0
 Petite list used in FoFCou.
 Requested convergence on RMS density matrix=1.00D-08 within  32 cycles.
 Requested convergence on MAX density matrix=1.00D-06.
 Requested convergence on             energy=1.00D-06.
 No special actions if energy rises.
 SCF Done:  E(UwB97XD) =  -1526.59074041     A.U. after   10 cycles
            NFock= 10  Conv=0.68D-08     -V/T= 2.0025
 <Sx>= 0.0000 <Sy>= 0.0000 <Sz>= 0.5000 <S**2>= 0.7540 S= 0.5020
 <L.S>= 0.000000000000E+00
 Annihilation of the first spin contaminant:
 S**2 before annihilation     0.7540,   after     0.7500
 QCSCF skips out because SCF is already converged.
 Calling FoFJK, ICntrl=      2127 FMM=F ISym2X=0 I1Cent= 0 IOpClX= 1 NMat=1 NMatS=1 NMatT=0.
 ***** Axes restored to original set *****
 -------------------------------------------------------------------
 Center     Atomic                   Forces (Hartrees/Bohr)
 Number     Number              X              Y              Z
 -------------------------------------------------------------------
      1        6           0.000221023    0.000059020   -0.000047453
      2        9          -0.000026895    0.000012276   -0.000050983
      3        9          -0.000064308   -0.000019892    0.000025399
      4        9          -0.000083574    0.000044707   -0.000017128
      5        6           0.000354443   -0.000446056   -0.000199259
      6        9          -0.000043822    0.000131492    0.000126977
      7        6          -0.000129840    0.000177705    0.000107039
      8        9           0.000032666    0.000004324   -0.000130509
      9        9           0.000069013   -0.000066939    0.000223039
     10        6           0.000336968    0.000534326   -0.000203808
     11        9          -0.000100343   -0.000213177    0.000277699
     12        9          -0.000141355   -0.000074848   -0.000042105
     13        6          -0.000380438   -0.000168118   -0.000097411
     14        9          -0.000055824    0.000020204   -0.000338256
     15        9           0.000045332    0.000079301    0.000368035
     16        6           0.000010643   -0.000536296    0.000039674
     17        9           0.000153555    0.000283029    0.000127743
     18        9          -0.000131422   -0.000016705   -0.000113880
     19        9          -0.000065822    0.000195645   -0.000054816
 -------------------------------------------------------------------
 Cartesian Forces:  Max     0.000536296 RMS     0.000193734

 GradGradGradGradGradGradGradGradGradGradGradGradGradGradGradGradGradGrad
 Berny optimization.
 Using GEDIIS/GDIIS optimizer.
 FormGI is forming the generalized inverse of G from B-inverse, IUseBI=4.
 Internal  Forces:  Max     0.000444427 RMS     0.000133286
 Search for a local minimum.
 Step number   7 out of a maximum of  100
 All quantities printed in internal units (Hartrees-Bohrs-Radians)
 Mixed Optimization -- En-DIIS/RFO-DIIS
 Swapping is turned off.
 Update second derivatives using D2CorX and points    1    2    4    5    6
                                                      7
 DE= -4.03D-05 DEPred=-4.46D-05 R= 9.05D-01
 TightC=F SS=  1.41D+00  RLast= 5.49D-02 DXNew= 1.4270D+00 1.6459D-01
 Trust test= 9.05D-01 RLast= 5.49D-02 DXMaxT set to 8.49D-01
 ITU=  1  1  0  1  1  0  0
     Eigenvalues ---    0.00128   0.00245   0.00590   0.00737   0.00820
     Eigenvalues ---    0.01202   0.05227   0.05548   0.06576   0.06986
     Eigenvalues ---    0.07602   0.08307   0.08924   0.09835   0.11036
     Eigenvalues ---    0.11241   0.12981   0.13472   0.15268   0.18795
     Eigenvalues ---    0.19407   0.20413   0.21635   0.23438   0.24454
     Eigenvalues ---    0.24988   0.25000   0.25000   0.25000   0.25156
     Eigenvalues ---    0.25587   0.25929   0.27502   0.28477   0.29121
     Eigenvalues ---    0.32192   0.32822   0.36701   0.38581   0.54163
     Eigenvalues ---    0.54757   0.55886   0.55912   0.56951   0.57508
     Eigenvalues ---    0.57762   0.58692   0.60032   0.60314   0.60595
     Eigenvalues ---    0.63133
 En-DIIS/RFO-DIIS/Sim-DIIS IScMMF=       -3 using points:     7    6    5    4
 RFO step:  Lambda=-3.77378761D-05.
 DidBck=F Rises=F RFO-DIIS coefs:    1.97833   -0.64997   -0.10005   -0.22832
 Iteration  1 RMS(Cart)=  0.02630698 RMS(Int)=  0.00029965
 Iteration  2 RMS(Cart)=  0.00047834 RMS(Int)=  0.00000931
 Iteration  3 RMS(Cart)=  0.00000009 RMS(Int)=  0.00000931
 Variable       Old X    -DE/DX   Delta X   Delta X   Delta X     New X
                                 (Linear)    (Quad)   (Total)
    R1        2.52009   0.00002  -0.00009   0.00009   0.00001   2.52009
    R2        2.52972  -0.00001  -0.00008   0.00004  -0.00004   2.52968
    R3        2.50893  -0.00004   0.00001  -0.00008  -0.00007   2.50887
    R4        2.83937  -0.00001   0.00049  -0.00032   0.00017   2.83954
    R5        2.48608   0.00014   0.00009   0.00020   0.00029   2.48637
    R6        2.83844   0.00024  -0.00158   0.00166   0.00008   2.83852
    R7        2.55826  -0.00012  -0.00022  -0.00016  -0.00038   2.55788
    R8        2.54367  -0.00009   0.00096  -0.00069   0.00027   2.54394
    R9        2.94370   0.00032  -0.00231   0.00257   0.00027   2.94396
   R10        2.53620  -0.00035  -0.00036  -0.00041  -0.00077   2.53543
   R11        2.53342  -0.00008   0.00091  -0.00070   0.00021   2.53362
   R12        2.94741   0.00044   0.00505  -0.00167   0.00338   2.95079
   R13        2.53069  -0.00026   0.00097  -0.00133  -0.00035   2.53033
   R14        2.52774  -0.00036   0.00003  -0.00096  -0.00093   2.52682
   R15        2.94477  -0.00002   0.00118  -0.00127  -0.00010   2.94467
   R16        2.50730  -0.00030  -0.00131   0.00074  -0.00057   2.50674
   R17        2.50316  -0.00011  -0.00125   0.00122  -0.00002   2.50313
   R18        2.50810   0.00018   0.00071   0.00062   0.00132   2.50942
    A1        1.87352   0.00009  -0.00033   0.00083   0.00050   1.87402
    A2        1.90060   0.00007  -0.00016   0.00026   0.00010   1.90070
    A3        1.92322  -0.00003   0.00002  -0.00007  -0.00005   1.92317
    A4        1.89057   0.00007   0.00000   0.00015   0.00015   1.89073
    A5        1.93856  -0.00004   0.00002  -0.00012  -0.00010   1.93846
    A6        1.93575  -0.00015   0.00042  -0.00099  -0.00057   1.93517
    A7        1.98518  -0.00002   0.00035  -0.00050  -0.00019   1.98499
    A8        2.15394   0.00023   0.00027   0.00064   0.00087   2.15481
    A9        2.05202  -0.00020  -0.00560   0.00194  -0.00369   2.04833
   A10        1.92317  -0.00007  -0.00165   0.00103  -0.00062   1.92255
   A11        1.91006  -0.00016   0.00362  -0.00276   0.00086   1.91092
   A12        1.96015   0.00031  -0.00154   0.00289   0.00135   1.96149
   A13        1.87815  -0.00006   0.00312  -0.00348  -0.00036   1.87780
   A14        1.89449  -0.00002   0.00214  -0.00144   0.00070   1.89519
   A15        1.89581  -0.00001  -0.00556   0.00352  -0.00203   1.89378
   A16        1.88894   0.00005   0.00165  -0.00046   0.00118   1.89011
   A17        1.89204   0.00006   0.00296  -0.00100   0.00196   1.89400
   A18        1.98897   0.00005  -0.00704   0.00405  -0.00299   1.98599
   A19        1.90327   0.00004  -0.00370   0.00288  -0.00082   1.90245
   A20        1.88434  -0.00015   0.00135  -0.00222  -0.00088   1.88346
   A21        1.90490  -0.00005   0.00469  -0.00315   0.00156   1.90645
   A22        1.91848   0.00009   0.00391  -0.00155   0.00236   1.92084
   A23        1.89745  -0.00006  -0.00601   0.00398  -0.00203   1.89542
   A24        1.98672   0.00006  -0.00206   0.00067  -0.00139   1.98533
   A25        1.90559  -0.00010   0.00426  -0.00519  -0.00093   1.90466
   A26        1.87549  -0.00004  -0.00365   0.00322  -0.00042   1.87507
   A27        1.87854   0.00003   0.00391  -0.00148   0.00241   1.88095
   A28        1.89462   0.00022   0.00375  -0.00111   0.00265   1.89727
   A29        1.93492   0.00014  -0.00446   0.00261  -0.00185   1.93307
   A30        1.93017   0.00012  -0.00017   0.00052   0.00034   1.93051
   A31        1.89730  -0.00021   0.00174  -0.00207  -0.00033   1.89697
   A32        1.90017  -0.00013  -0.00020  -0.00038  -0.00058   1.89959
   A33        1.90602  -0.00014  -0.00052   0.00033  -0.00021   1.90581
    D1       -1.03272  -0.00004  -0.00560   0.00340  -0.00221  -1.03492
    D2        2.56916  -0.00001   0.00775  -0.00196   0.00580   2.57496
    D3        1.04113   0.00003  -0.00598   0.00431  -0.00167   1.03946
    D4       -1.64018   0.00007   0.00737  -0.00105   0.00633  -1.63385
    D5       -3.13859  -0.00001  -0.00568   0.00376  -0.00193  -3.14052
    D6        0.46329   0.00003   0.00766  -0.00160   0.00608   0.46936
    D7        1.00529  -0.00004   0.01128   0.00279   0.01409   1.01938
    D8       -1.05661   0.00017   0.00627   0.00810   0.01438  -1.04224
    D9        3.11965   0.00009   0.01180   0.00364   0.01547   3.13511
   D10       -1.65977  -0.00005   0.02362  -0.00215   0.02146  -1.63830
   D11        2.56151   0.00016   0.01861   0.00316   0.02175   2.58326
   D12        0.45459   0.00008   0.02414  -0.00130   0.02284   0.47742
   D13        0.82229  -0.00002  -0.00863  -0.01017  -0.01880   0.80349
   D14       -1.23978  -0.00013  -0.00677  -0.01279  -0.01955  -1.25934
   D15        2.91864  -0.00015  -0.01026  -0.01073  -0.02098   2.89765
   D16        2.95302   0.00007  -0.01023  -0.00798  -0.01821   2.93481
   D17        0.89095  -0.00004  -0.00837  -0.01060  -0.01897   0.87198
   D18       -1.23381  -0.00005  -0.01186  -0.00853  -0.02040  -1.25421
   D19       -1.29284  -0.00002  -0.00838  -0.01097  -0.01936  -1.31220
   D20        2.92828  -0.00013  -0.00652  -0.01359  -0.02011   2.90816
   D21        0.80351  -0.00014  -0.01001  -0.01153  -0.02154   0.78197
   D22        0.76967  -0.00005  -0.03067  -0.00624  -0.03692   0.73275
   D23       -1.31526   0.00005  -0.03456  -0.00141  -0.03596  -1.35121
   D24        2.87438   0.00001  -0.03392  -0.00276  -0.03669   2.83768
   D25        2.86860  -0.00006  -0.03212  -0.00582  -0.03794   2.83067
   D26        0.78368   0.00004  -0.03600  -0.00098  -0.03698   0.74670
   D27       -1.30987  -0.00000  -0.03536  -0.00234  -0.03771  -1.34758
   D28       -1.34798  -0.00013  -0.03317  -0.00539  -0.03855  -1.38653
   D29        2.85029  -0.00003  -0.03705  -0.00056  -0.03759   2.81269
   D30        0.75673  -0.00007  -0.03641  -0.00191  -0.03833   0.71840
   D31        2.96778  -0.00003  -0.02459   0.00982  -0.01477   2.95301
   D32       -1.23255  -0.00007  -0.02277   0.00815  -0.01463  -1.24718
   D33        0.88425  -0.00007  -0.02655   0.01066  -0.01590   0.86835
   D34       -1.18675   0.00010  -0.02357   0.01059  -0.01297  -1.19972
   D35        0.89610   0.00006  -0.02175   0.00892  -0.01283   0.88327
   D36        3.01290   0.00006  -0.02553   0.01143  -0.01410   2.99880
   D37        0.86359  -0.00002  -0.01845   0.00542  -0.01302   0.85056
   D38        2.94644  -0.00006  -0.01663   0.00375  -0.01288   2.93356
   D39       -1.21995  -0.00006  -0.02042   0.00626  -0.01415  -1.23410
         Item               Value     Threshold  Converged?
 Maximum Force            0.000444     0.000450     YES
 RMS     Force            0.000133     0.000300     YES
 Maximum Displacement     0.093464     0.001800     NO 
 RMS     Displacement     0.026367     0.001200     NO 
 Predicted change in Energy=-1.884810D-05
 GradGradGradGradGradGradGradGradGradGradGradGradGradGradGradGradGradGrad

                          Input orientation:                          
 ---------------------------------------------------------------------
 Center     Atomic      Atomic             Coordinates (Angstroms)
 Number     Number       Type             X           Y           Z
 ---------------------------------------------------------------------
      1          6           0        2.728258   -0.203210   -0.055900
      2          9           0        3.556828    0.279882   -0.982462
      3          9           0        3.266025    0.065187    1.140240
      4          9           0        2.651499   -1.521529   -0.192868
      5          6           0        1.372075    0.429215   -0.192527
      6          9           0        1.383504    1.738911   -0.067187
      7          6           0        0.089584   -0.283835    0.128448
      8          9           0        0.096619   -0.698994    1.416762
      9          9           0       -0.024073   -1.376015   -0.650313
     10          6           0       -1.161969    0.616192   -0.096386
     11          9           0       -1.030848    1.231523   -1.281420
     12          9           0       -1.201325    1.540870    0.873662
     13          6           0       -2.510000   -0.171747   -0.110877
     14          9           0       -2.513257   -1.094034    0.859834
     15          9           0       -2.635190   -0.780979   -1.294553
     16          6           0       -3.765209    0.728155    0.095952
     17          9           0       -4.850332    0.011220   -0.165075
     18          9           0       -3.832409    1.159896    1.346411
     19          9           0       -3.732831    1.771412   -0.725001
 ---------------------------------------------------------------------
                    Distance matrix (angstroms):
                    1          2          3          4          5
     1  C    0.000000
     2  F    1.333576   0.000000
     3  F    1.338649   2.153259   0.000000
     4  F    1.327636   2.165216   2.161594   0.000000
     5  C    1.502617   2.327970   2.344319   2.332880   0.000000
     6  F    2.362270   2.773054   2.793406   3.500582   1.315729
     7  C    2.646334   3.684248   3.351913   2.863309   1.502081
     8  F    3.056150   4.322906   3.271937   3.129678   2.342958
     9  F    3.050266   3.959188   4.013463   2.718293   2.327585
    10  C    3.975792   4.813032   4.630332   4.372836   2.542750
    11  F    4.206095   4.694866   5.068323   4.724819   2.757431
    12  F    4.398582   5.260733   4.712316   5.035874   2.999154
    13  C    5.238641   6.145733   5.914719   5.335701   3.929164
    14  F    5.394962   6.490580   5.901061   5.288255   4.303900
    15  F    5.534858   6.289986   6.439608   5.450799   4.328649
    16  C    6.561677   7.414591   7.139210   6.805780   5.154054
    17  F    7.582409   8.451074   8.220828   7.656864   6.236491
    18  F    6.845939   7.797365   7.185309   7.183348   5.476210
    19  F    6.789146   7.445138   7.441392   7.203214   5.305195
                    6          7          8          9         10
     6  F    0.000000
     7  C    2.409150   0.000000
     8  F    3.130744   1.353573   0.000000
     9  F    3.467574   1.346195   2.178468   0.000000
    10  C    2.782226   1.557878   2.367145   2.360197   0.000000
    11  F    2.749710   2.353594   3.504036   2.865509   1.341689
    12  F    2.757855   2.356128   2.645110   3.495230   1.340735
    13  C    4.337269   2.612982   3.066942   2.814442   1.561489
    14  F    4.906087   2.822433   2.697717   2.925080   2.380170
    15  F    4.899610   3.113917   3.849771   2.754459   2.357557
    16  C    5.249523   3.985550   4.323773   4.356666   2.612736
    17  F    6.469561   4.957417   5.242036   5.045062   3.738280
    18  F    5.435005   4.353139   4.347147   4.992111   3.083590
    19  F    5.158553   4.423039   5.035350   4.864849   2.887737
                   11         12         13         14         15
    11  F    0.000000
    12  F    2.183835   0.000000
    13  C    2.351006   2.369599   0.000000
    14  F    3.491521   2.943480   1.338993   0.000000
    15  F    2.573762   3.485413   1.337133   2.180425   0.000000
    16  C    3.102783   2.799793   1.558252   2.339075   2.342633
    17  F    4.162190   4.090728   2.348099   2.780998   2.609628
    18  F    3.841793   2.700229   2.376073   2.656524   3.489272
    19  F    2.811013   3.002898   2.376621   3.494259   2.836178
                   16         17         18         19
    16  C    0.000000
    17  F    1.326507   0.000000
    18  F    1.324600   2.154115   0.000000
    19  F    1.327929   2.158842   2.162086   0.000000
 Stoichiometry    C6F13(2)
 Framework group  C1[X(C6F13)]
 Deg. of freedom    51
 Full point group                 C1      NOp   1
 Largest Abelian subgroup         C1      NOp   1
 Largest concise Abelian subgroup C1      NOp   1
                         Standard orientation:                         
 ---------------------------------------------------------------------
 Center     Atomic      Atomic             Coordinates (Angstroms)
 Number     Number       Type             X           Y           Z
 ---------------------------------------------------------------------
      1          6           0       -3.398927    0.036262   -0.047162
      2          9           0       -4.178526   -0.551903   -0.955298
      3          9           0       -3.900549   -0.255233    1.159232
      4          9           0       -3.457689    1.351669   -0.217077
      5          6           0       -1.986021   -0.458034   -0.178410
      6          9           0       -1.863209   -1.758506   -0.020824
      7          6           0       -0.781344    0.389761    0.115266
      8          9           0       -0.824253    0.834413    1.393000
      9          9           0       -0.783541    1.467842   -0.690947
     10          6           0        0.554327   -0.383541   -0.096792
     11          9           0        0.480730   -1.038722   -1.265317
     12          9           0        0.692611   -1.274639    0.895374
     13          6           0        1.814892    0.536941   -0.140805
     14          9           0        1.728923    1.478959    0.806884
     15          9           0        1.871397    1.125698   -1.340012
     16          6           0        3.156341   -0.224974    0.078626
     17          9           0        4.161382    0.591906   -0.208116
     18          9           0        3.273454   -0.615945    1.338781
     19          9           0        3.226424   -1.286482   -0.716161
 ---------------------------------------------------------------------
 Rotational constants (GHZ):           0.9112742           0.2115355           0.2030626
 Standard basis: 6-311+G(2d,2p) (5D, 7F)
 There are   551 symmetry adapted cartesian basis functions of A   symmetry.
 There are   513 symmetry adapted basis functions of A   symmetry.
   513 basis functions,   798 primitive gaussians,   551 cartesian basis functions
    77 alpha electrons       76 beta electrons
       nuclear repulsion energy      1876.0056720679 Hartrees.
 NAtoms=   19 NActive=   19 NUniq=   19 SFac= 1.00D+00 NAtFMM=   60 NAOKFM=F Big=F
 Integral buffers will be    131072 words long.
 Raffenetti 2 integral format.
 Two-electron integral symmetry is turned on.
 Nuclear repulsion after empirical dispersion term =     1875.9929924952 Hartrees.
 One-electron integrals computed using PRISM.
 NBasis=   513 RedAO= T EigKep=  4.07D-06  NBF=   513
 NBsUse=   513 1.00D-06 EigRej= -1.00D+00 NBFU=   513
 Initial guess from the checkpoint file:  "2_hexyl.chk"
 B after Tr=    -0.000000   -0.000000    0.000000
         Rot=    0.999998    0.002087   -0.000105    0.000135 Ang=   0.24 deg.
 Initial guess <Sx>= 0.0000 <Sy>= 0.0000 <Sz>= 0.5000 <S**2>= 0.7541 S= 0.5020
 ExpMin= 4.38D-02 ExpMax= 1.14D+04 ExpMxC= 1.72D+03 IAcc=2 IRadAn=         4 AccDes= 0.00D+00
 Harris functional with IExCor= 4639 and IRadAn=       4 diagonalized for initial guess.
 HarFok:  IExCor= 4639 AccDes= 0.00D+00 IRadAn=         4 IDoV= 1 UseB2=F ITyADJ=14
 ICtDFT=  3500011 ScaDFX=  1.000000  1.000000  1.000000  1.000000
 FoFCou: FMM=F IPFlag=           0 FMFlag=      100000 FMFlg1=           0
         NFxFlg=           0 DoJE=T BraDBF=F KetDBF=T FulRan=T
         wScrn=  0.000000 ICntrl=       500 IOpCl=  0 I1Cent=   200000004 NGrid=           0
         NMat0=    1 NMatS0=      1 NMatT0=    0 NMatD0=    1 NMtDS0=    0 NMtDT0=    0
 Petite list used in FoFCou.
 Requested convergence on RMS density matrix=1.00D-08 within  32 cycles.
 Requested convergence on MAX density matrix=1.00D-06.
 Requested convergence on             energy=1.00D-06.
 No special actions if energy rises.
 SCF Done:  E(UwB97XD) =  -1526.59074115     A.U. after   11 cycles
            NFock= 11  Conv=0.68D-08     -V/T= 2.0026
 <Sx>= 0.0000 <Sy>= 0.0000 <Sz>= 0.5000 <S**2>= 0.7540 S= 0.5020
 <L.S>= 0.000000000000E+00
 Annihilation of the first spin contaminant:
 S**2 before annihilation     0.7540,   after     0.7500
 QCSCF skips out because SCF is already converged.
 Calling FoFJK, ICntrl=      2127 FMM=F ISym2X=0 I1Cent= 0 IOpClX= 1 NMat=1 NMatS=1 NMatT=0.
 ***** Axes restored to original set *****
 -------------------------------------------------------------------
 Center     Atomic                   Forces (Hartrees/Bohr)
 Number     Number              X              Y              Z
 -------------------------------------------------------------------
      1        6           0.000071741   -0.000011762   -0.000095055
      2        9          -0.000039108    0.000004597    0.000047490
      3        9          -0.000016773   -0.000019892   -0.000044736
      4        9           0.000107303    0.000029823    0.000017397
      5        6           0.000090366   -0.000310620   -0.000208017
      6        9          -0.000013138    0.000174125    0.000140609
      7        6          -0.000013241   -0.000184740   -0.000041118
      8        9          -0.000264368    0.000056638    0.000080992
      9        9           0.000129734    0.000153392   -0.000021786
     10        6          -0.000079439    0.000455301    0.000130946
     11        9          -0.000166375   -0.000060598    0.000193734
     12        9           0.000091654   -0.000244675   -0.000116627
     13        6          -0.000156006    0.000113102   -0.000158976
     14        9           0.000118721    0.000039145   -0.000046727
     15        9          -0.000071027   -0.000108817    0.000169859
     16        6          -0.000050232   -0.000011396   -0.000069764
     17        9           0.000222957    0.000054418    0.000054872
     18        9          -0.000130246    0.000059021   -0.000053650
     19        9           0.000167476   -0.000187063    0.000020556
 -------------------------------------------------------------------
 Cartesian Forces:  Max     0.000455301 RMS     0.000135442

 GradGradGradGradGradGradGradGradGradGradGradGradGradGradGradGradGradGrad
 Berny optimization.
 Using GEDIIS/GDIIS optimizer.
 FormGI is forming the generalized inverse of G from B-inverse, IUseBI=4.
 Internal  Forces:  Max     0.000389091 RMS     0.000131325
 Search for a local minimum.
 Step number   8 out of a maximum of  100
 All quantities printed in internal units (Hartrees-Bohrs-Radians)
 Mixed Optimization -- En-DIIS/RFO-DIIS
 Swapping is turned off.
 Update second derivatives using D2CorX and points    5    6    7    8
 DE= -7.48D-07 DEPred=-1.88D-05 R= 3.97D-02
 Trust test= 3.97D-02 RLast= 1.42D-01 DXMaxT set to 4.24D-01
 ITU= -1  1  1  0  1  1  0  0
     Eigenvalues ---    0.00199   0.00339   0.00524   0.00710   0.00748
     Eigenvalues ---    0.01175   0.05243   0.05538   0.06552   0.06967
     Eigenvalues ---    0.07486   0.08329   0.08869   0.09266   0.11045
     Eigenvalues ---    0.11259   0.12753   0.13338   0.15250   0.18735
     Eigenvalues ---    0.19435   0.20672   0.20949   0.23400   0.24528
     Eigenvalues ---    0.24990   0.25000   0.25000   0.25035   0.25533
     Eigenvalues ---    0.25757   0.25885   0.27270   0.28616   0.29679
     Eigenvalues ---    0.32208   0.33181   0.35961   0.38571   0.54175
     Eigenvalues ---    0.54702   0.55735   0.55950   0.56841   0.57509
     Eigenvalues ---    0.57922   0.58697   0.59775   0.60055   0.60578
     Eigenvalues ---    0.63156
 En-DIIS/RFO-DIIS/Sim-DIIS IScMMF=       -3 using points:     8    7    6    5    4
 RFO step:  Lambda=-2.93804555D-05.
 DidBck=T Rises=F RFO-DIIS coefs:    0.52495    1.23416   -0.78608    0.11400   -0.08703
 Iteration  1 RMS(Cart)=  0.01153382 RMS(Int)=  0.00005493
 Iteration  2 RMS(Cart)=  0.00006850 RMS(Int)=  0.00000529
 Iteration  3 RMS(Cart)=  0.00000000 RMS(Int)=  0.00000529
 Variable       Old X    -DE/DX   Delta X   Delta X   Delta X     New X
                                 (Linear)    (Quad)   (Total)
    R1        2.52009  -0.00006  -0.00010   0.00008  -0.00002   2.52007
    R2        2.52968  -0.00005  -0.00007   0.00005  -0.00003   2.52965
    R3        2.50887  -0.00004   0.00007  -0.00009  -0.00002   2.50885
    R4        2.83954   0.00010   0.00040  -0.00033   0.00007   2.83961
    R5        2.48637   0.00019  -0.00003   0.00015   0.00012   2.48649
    R6        2.83852   0.00014  -0.00116   0.00148   0.00032   2.83884
    R7        2.55788   0.00006   0.00014  -0.00011   0.00003   2.55791
    R8        2.54394  -0.00012   0.00058  -0.00070  -0.00012   2.54382
    R9        2.94396   0.00009  -0.00173   0.00228   0.00056   2.94452
   R10        2.53543  -0.00022  -0.00009  -0.00012  -0.00021   2.53521
   R11        2.53362  -0.00026   0.00022  -0.00047  -0.00026   2.53336
   R12        2.95079  -0.00007   0.00240  -0.00232   0.00008   2.95087
   R13        2.53033  -0.00006   0.00041  -0.00047  -0.00007   2.53027
   R14        2.52682  -0.00009   0.00013  -0.00016  -0.00004   2.52678
   R15        2.94467  -0.00022   0.00043  -0.00059  -0.00016   2.94451
   R16        2.50674  -0.00022  -0.00112   0.00066  -0.00047   2.50627
   R17        2.50313  -0.00002  -0.00042   0.00021  -0.00022   2.50292
   R18        2.50942  -0.00016  -0.00030  -0.00011  -0.00041   2.50901
    A1        1.87402  -0.00001  -0.00061   0.00064   0.00002   1.87405
    A2        1.90070  -0.00005  -0.00025   0.00025  -0.00000   1.90070
    A3        1.92317  -0.00007   0.00002  -0.00012  -0.00010   1.92307
    A4        1.89073  -0.00007  -0.00013   0.00009  -0.00004   1.89069
    A5        1.93846  -0.00002   0.00007  -0.00011  -0.00005   1.93841
    A6        1.93517   0.00020   0.00086  -0.00070   0.00016   1.93533
    A7        1.98499  -0.00013   0.00074  -0.00091  -0.00019   1.98480
    A8        2.15481   0.00039   0.00027   0.00027   0.00052   2.15533
    A9        2.04833  -0.00024  -0.00221   0.00210  -0.00012   2.04822
   A10        1.92255   0.00020  -0.00024   0.00069   0.00045   1.92300
   A11        1.91092  -0.00014   0.00159  -0.00230  -0.00071   1.91021
   A12        1.96149   0.00007  -0.00276   0.00295   0.00019   1.96168
   A13        1.87780   0.00008   0.00251  -0.00270  -0.00020   1.87760
   A14        1.89519  -0.00026   0.00056  -0.00103  -0.00047   1.89472
   A15        1.89378   0.00006  -0.00146   0.00218   0.00073   1.89451
   A16        1.89011   0.00010   0.00039  -0.00017   0.00022   1.89033
   A17        1.89400   0.00003   0.00036  -0.00048  -0.00011   1.89389
   A18        1.98599  -0.00017  -0.00253   0.00285   0.00032   1.98631
   A19        1.90245  -0.00001  -0.00173   0.00206   0.00032   1.90277
   A20        1.88346  -0.00001   0.00149  -0.00179  -0.00031   1.88316
   A21        1.90645   0.00006   0.00197  -0.00241  -0.00043   1.90602
   A22        1.92084  -0.00014   0.00070  -0.00140  -0.00070   1.92014
   A23        1.89542   0.00020  -0.00194   0.00245   0.00052   1.89594
   A24        1.98533  -0.00011   0.00000   0.00078   0.00078   1.98611
   A25        1.90466  -0.00007   0.00218  -0.00233  -0.00015   1.90451
   A26        1.87507   0.00025  -0.00156   0.00194   0.00038   1.87545
   A27        1.88095  -0.00013   0.00076  -0.00162  -0.00087   1.88008
   A28        1.89727  -0.00012  -0.00120   0.00041  -0.00079   1.89648
   A29        1.93307   0.00036  -0.00162   0.00251   0.00089   1.93395
   A30        1.93051  -0.00039  -0.00093   0.00053  -0.00040   1.93011
   A31        1.89697  -0.00006   0.00221  -0.00216   0.00005   1.89703
   A32        1.89959   0.00018  -0.00019   0.00032   0.00014   1.89973
   A33        1.90581   0.00003   0.00179  -0.00168   0.00010   1.90591
    D1       -1.03492   0.00003  -0.00166   0.00255   0.00088  -1.03405
    D2        2.57496   0.00006   0.00177  -0.00134   0.00044   2.57540
    D3        1.03946  -0.00004  -0.00237   0.00319   0.00081   1.04027
    D4       -1.63385  -0.00000   0.00106  -0.00070   0.00037  -1.63347
    D5       -3.14052  -0.00001  -0.00192   0.00277   0.00084  -3.13967
    D6        0.46936   0.00003   0.00152  -0.00112   0.00040   0.46977
    D7        1.01938   0.00015  -0.00044   0.00288   0.00246   1.02184
    D8       -1.04224   0.00002  -0.00432   0.00717   0.00286  -1.03938
    D9        3.13511   0.00000  -0.00177   0.00405   0.00230   3.13741
   D10       -1.63830   0.00016   0.00240  -0.00037   0.00201  -1.63629
   D11        2.58326   0.00003  -0.00148   0.00391   0.00241   2.58568
   D12        0.47742   0.00001   0.00107   0.00080   0.00186   0.47928
   D13        0.80349   0.00002   0.00346  -0.00033   0.00313   0.80662
   D14       -1.25934  -0.00005   0.00511  -0.00242   0.00268  -1.25665
   D15        2.89765  -0.00003   0.00400  -0.00090   0.00310   2.90076
   D16        2.93481   0.00013   0.00174   0.00175   0.00349   2.93830
   D17        0.87198   0.00006   0.00339  -0.00034   0.00305   0.87503
   D18       -1.25421   0.00008   0.00228   0.00119   0.00347  -1.25074
   D19       -1.31220   0.00011   0.00423  -0.00083   0.00340  -1.30879
   D20        2.90816   0.00005   0.00588  -0.00292   0.00296   2.91112
   D21        0.78197   0.00006   0.00477  -0.00139   0.00338   0.78535
   D22        0.73275   0.00002   0.01599  -0.00052   0.01547   0.74822
   D23       -1.35121   0.00007   0.01408   0.00166   0.01574  -1.33547
   D24        2.83768   0.00016   0.01449   0.00149   0.01598   2.85366
   D25        2.83067   0.00003   0.01592  -0.00019   0.01574   2.84640
   D26        0.74670   0.00009   0.01401   0.00199   0.01601   0.76272
   D27       -1.34758   0.00018   0.01442   0.00183   0.01625  -1.33134
   D28       -1.38653   0.00005   0.01579  -0.00008   0.01571  -1.37083
   D29        2.81269   0.00011   0.01388   0.00210   0.01598   2.82867
   D30        0.71840   0.00020   0.01429   0.00193   0.01622   0.73462
   D31        2.95301   0.00001   0.00441   0.00112   0.00552   2.95854
   D32       -1.24718   0.00007   0.00539   0.00024   0.00563  -1.24155
   D33        0.86835   0.00010   0.00593   0.00016   0.00608   0.87443
   D34       -1.19972  -0.00006   0.00418   0.00123   0.00541  -1.19431
   D35        0.88327   0.00000   0.00517   0.00035   0.00552   0.88879
   D36        2.99880   0.00003   0.00570   0.00027   0.00597   3.00476
   D37        0.85056  -0.00008   0.00632  -0.00133   0.00498   0.85555
   D38        2.93356  -0.00002   0.00730  -0.00221   0.00509   2.93865
   D39       -1.23410   0.00000   0.00783  -0.00230   0.00554  -1.22856
         Item               Value     Threshold  Converged?
 Maximum Force            0.000389     0.000450     YES
 RMS     Force            0.000131     0.000300     YES
 Maximum Displacement     0.042781     0.001800     NO 
 RMS     Displacement     0.011531     0.001200     NO 
 Predicted change in Energy=-1.263443D-05
 GradGradGradGradGradGradGradGradGradGradGradGradGradGradGradGradGradGrad

                          Input orientation:                          
 ---------------------------------------------------------------------
 Center     Atomic      Atomic             Coordinates (Angstroms)
 Number     Number       Type             X           Y           Z
 ---------------------------------------------------------------------
      1          6           0        2.729215   -0.202803   -0.060812
      2          9           0        3.555691    0.289117   -0.984578
      3          9           0        3.269256    0.054862    1.136646
      4          9           0        2.652784   -1.519841   -0.209660
      5          6           0        1.372541    0.430437   -0.188933
      6          9           0        1.384228    1.739094   -0.052589
      7          6           0        0.090387   -0.285203    0.128390
      8          9           0        0.098070   -0.709180    1.413844
      9          9           0       -0.022513   -1.372218   -0.657560
     10          6           0       -1.162016    0.615946   -0.089135
     11          9           0       -1.034458    1.236443   -1.271733
     12          9           0       -1.198848    1.535947    0.885260
     13          6           0       -2.510374   -0.171526   -0.103374
     14          9           0       -2.518143   -1.084732    0.875810
     15          9           0       -2.630298   -0.791879   -1.281787
     16          6           0       -3.766875    0.729814    0.088147
     17          9           0       -4.849890    0.007520   -0.165503
     18          9           0       -3.838232    1.179408    1.331946
     19          9           0       -3.733576    1.760916   -0.747640
 ---------------------------------------------------------------------
                    Distance matrix (angstroms):
                    1          2          3          4          5
     1  C    0.000000
     2  F    1.333563   0.000000
     3  F    1.338634   2.153257   0.000000
     4  F    1.327624   2.165194   2.161543   0.000000
     5  C    1.502655   2.327911   2.344301   2.333031   0.000000
     6  F    2.362207   2.772416   2.793609   3.500651   1.315792
     7  C    2.646886   3.684682   3.352228   2.864347   1.502250
     8  F    3.058423   4.324832   3.273686   3.133608   2.343479
     9  F    3.048876   3.958601   4.011418   2.716545   2.327090
    10  C    3.976535   4.813044   4.631795   4.373649   2.543295
    11  F    4.207492   4.695674   5.071329   4.724494   2.759664
    12  F    4.398634   5.258947   4.713890   5.037038   2.998013
    13  C    5.239856   6.147021   5.915490   5.337364   3.930230
    14  F    5.402761   6.499228   5.904294   5.301513   4.308925
    15  F    5.528306   6.286760   6.431992   5.439700   4.325633
    16  C    6.564385   7.413834   7.145772   6.808939   5.155579
    17  F    7.582745   8.450087   8.223038   7.656689   6.236830
    18  F    6.854315   7.799295   7.198550   7.196928   5.479615
    19  F    6.789373   7.440145   7.449886   7.199887   5.306105
                    6          7          8          9         10
     6  F    0.000000
     7  C    2.409265   0.000000
     8  F    3.130283   1.353590   0.000000
     9  F    3.467733   1.346129   2.178272   0.000000
    10  C    2.783191   1.558172   2.367006   2.361010   0.000000
    11  F    2.754816   2.353939   3.504339   2.864673   1.341576
    12  F    2.755559   2.356176   2.646128   3.495923   1.340599
    13  C    4.338314   2.613541   3.065127   2.817488   1.561533
    14  F    4.905549   2.828835   2.697237   2.943134   2.379602
    15  F    4.902363   3.106034   3.836307   2.743537   2.358016
    16  C    5.250935   3.988778   4.331971   4.358310   2.613367
    17  F    6.471114   4.957660   5.243119   5.044736   3.738506
    18  F    5.431783   4.362072   4.366685   5.002863   3.082060
    19  F    5.164832   4.424559   5.045284   4.857636   2.890935
                   11         12         13         14         15
    11  F    0.000000
    12  F    2.183884   0.000000
    13  C    2.350695   2.369169   0.000000
    14  F    3.493010   2.934040   1.338959   0.000000
    15  F    2.580871   3.487680   1.337115   2.180268   0.000000
    16  C    3.093874   2.807135   1.558168   2.339300   2.341810
    17  F    4.158307   4.095155   2.347179   2.777480   2.609927
    18  F    3.826689   2.700554   2.376630   2.660268   3.489509
    19  F    2.799104   3.023544   2.376053   3.494365   2.831836
                   16         17         18         19
    16  C    0.000000
    17  F    1.326260   0.000000
    18  F    1.324486   2.153863   0.000000
    19  F    1.327712   2.158573   2.161893   0.000000
 Stoichiometry    C6F13(2)
 Framework group  C1[X(C6F13)]
 Deg. of freedom    51
 Full point group                 C1      NOp   1
 Largest Abelian subgroup         C1      NOp   1
 Largest concise Abelian subgroup C1      NOp   1
                         Standard orientation:                         
 ---------------------------------------------------------------------
 Center     Atomic      Atomic             Coordinates (Angstroms)
 Number     Number       Type             X           Y           Z
 ---------------------------------------------------------------------
      1          6           0       -3.399873    0.035197   -0.051454
      2          9           0       -4.176482   -0.559038   -0.958181
      3          9           0       -3.904658   -0.249305    1.155274
      4          9           0       -3.459122    1.349493   -0.229504
      5          6           0       -1.986286   -0.459069   -0.175737
      6          9           0       -1.863551   -1.758706   -0.010846
      7          6           0       -0.782331    0.390551    0.116482
      8          9           0       -0.826724    0.840237    1.392419
      9          9           0       -0.785058    1.465522   -0.693762
     10          6           0        0.554439   -0.382799   -0.090582
     11          9           0        0.484896   -1.039420   -1.258417
     12          9           0        0.690014   -1.272174    0.903318
     13          6           0        1.815224    0.537581   -0.131889
     14          9           0        1.734670    1.468533    0.827094
     15          9           0        1.865147    1.140362   -1.324381
     16          6           0        3.158175   -0.226373    0.069960
     17          9           0        4.160444    0.596755   -0.207322
     18          9           0        3.281421   -0.638353    1.322696
     19          9           0        3.226105   -1.273965   -0.742908
 ---------------------------------------------------------------------
 Rotational constants (GHZ):           0.9116369           0.2114168           0.2029240
 Standard basis: 6-311+G(2d,2p) (5D, 7F)
 There are   551 symmetry adapted cartesian basis functions of A   symmetry.
 There are   513 symmetry adapted basis functions of A   symmetry.
   513 basis functions,   798 primitive gaussians,   551 cartesian basis functions
    77 alpha electrons       76 beta electrons
       nuclear repulsion energy      1875.8070263240 Hartrees.
 NAtoms=   19 NActive=   19 NUniq=   19 SFac= 1.00D+00 NAtFMM=   60 NAOKFM=F Big=F
 Integral buffers will be    131072 words long.
 Raffenetti 2 integral format.
 Two-electron integral symmetry is turned on.
 Nuclear repulsion after empirical dispersion term =     1875.7943482035 Hartrees.
 One-electron integrals computed using PRISM.
 NBasis=   513 RedAO= T EigKep=  4.05D-06  NBF=   513
 NBsUse=   513 1.00D-06 EigRej= -1.00D+00 NBFU=   513
 Initial guess from the checkpoint file:  "2_hexyl.chk"
 B after Tr=     0.000000   -0.000000    0.000000
         Rot=    0.999999   -0.001402   -0.000061   -0.000082 Ang=  -0.16 deg.
 Initial guess <Sx>= 0.0000 <Sy>= 0.0000 <Sz>= 0.5000 <S**2>= 0.7540 S= 0.5020
 ExpMin= 4.38D-02 ExpMax= 1.14D+04 ExpMxC= 1.72D+03 IAcc=2 IRadAn=         4 AccDes= 0.00D+00
 Harris functional with IExCor= 4639 and IRadAn=       4 diagonalized for initial guess.
 HarFok:  IExCor= 4639 AccDes= 0.00D+00 IRadAn=         4 IDoV= 1 UseB2=F ITyADJ=14
 ICtDFT=  3500011 ScaDFX=  1.000000  1.000000  1.000000  1.000000
 FoFCou: FMM=F IPFlag=           0 FMFlag=      100000 FMFlg1=           0
         NFxFlg=           0 DoJE=T BraDBF=F KetDBF=T FulRan=T
         wScrn=  0.000000 ICntrl=       500 IOpCl=  0 I1Cent=   200000004 NGrid=           0
         NMat0=    1 NMatS0=      1 NMatT0=    0 NMatD0=    1 NMtDS0=    0 NMtDT0=    0
 Petite list used in FoFCou.
 Requested convergence on RMS density matrix=1.00D-08 within  32 cycles.
 Requested convergence on MAX density matrix=1.00D-06.
 Requested convergence on             energy=1.00D-06.
 No special actions if energy rises.
 SCF Done:  E(UwB97XD) =  -1526.59075451     A.U. after   10 cycles
            NFock= 10  Conv=0.50D-08     -V/T= 2.0026
 <Sx>= 0.0000 <Sy>= 0.0000 <Sz>= 0.5000 <S**2>= 0.7540 S= 0.5020
 <L.S>= 0.000000000000E+00
 Annihilation of the first spin contaminant:
 S**2 before annihilation     0.7540,   after     0.7500
 QCSCF skips out because SCF is already converged.
 Calling FoFJK, ICntrl=      2127 FMM=F ISym2X=0 I1Cent= 0 IOpClX= 1 NMat=1 NMatS=1 NMatT=0.
 ***** Axes restored to original set *****
 -------------------------------------------------------------------
 Center     Atomic                   Forces (Hartrees/Bohr)
 Number     Number              X              Y              Z
 -------------------------------------------------------------------
      1        6           0.000035315   -0.000038320   -0.000096126
      2        9          -0.000036197    0.000009124    0.000043522
      3        9          -0.000008538   -0.000012903   -0.000028759
      4        9           0.000115813    0.000035565    0.000022224
      5        6          -0.000011000   -0.000240864   -0.000169608
      6        9          -0.000036133    0.000140940    0.000117168
      7        6           0.000025271   -0.000178662   -0.000078181
      8        9          -0.000192884    0.000081035    0.000087208
      9        9           0.000088541    0.000143882    0.000030020
     10        6          -0.000238442    0.000208856    0.000121379
     11        9           0.000010978   -0.000031580    0.000076956
     12        9           0.000037385   -0.000184410   -0.000084163
     13        6           0.000057268    0.000105887   -0.000055487
     14        9           0.000111246    0.000028860    0.000014179
     15        9          -0.000092131   -0.000040589    0.000022892
     16        6           0.000147613   -0.000075658   -0.000081750
     17        9          -0.000025135   -0.000045229    0.000018248
     18        9          -0.000077610    0.000085457    0.000048064
     19        9           0.000088641    0.000008609   -0.000007787
 -------------------------------------------------------------------
 Cartesian Forces:  Max     0.000240864 RMS     0.000097331

 GradGradGradGradGradGradGradGradGradGradGradGradGradGradGradGradGradGrad
 Berny optimization.
 Using GEDIIS/GDIIS optimizer.
 FormGI is forming the generalized inverse of G from B-inverse, IUseBI=4.
 Internal  Forces:  Max     0.000380375 RMS     0.000096593
 Search for a local minimum.
 Step number   9 out of a maximum of  100
 All quantities printed in internal units (Hartrees-Bohrs-Radians)
 Mixed Optimization -- En-DIIS/RFO-DIIS
 Swapping is turned off.
 Update second derivatives using D2CorX and points    2    5    6    7    8
                                                      9
 DE= -1.34D-05 DEPred=-1.26D-05 R= 1.06D+00
 TightC=F SS=  1.41D+00  RLast= 5.18D-02 DXNew= 7.1352D-01 1.5549D-01
 Trust test= 1.06D+00 RLast= 5.18D-02 DXMaxT set to 4.24D-01
 ITU=  1 -1  1  1  0  1  1  0  0
     Eigenvalues ---    0.00203   0.00327   0.00445   0.00735   0.00875
     Eigenvalues ---    0.01220   0.05237   0.05589   0.06587   0.06998
     Eigenvalues ---    0.07577   0.08430   0.08952   0.09901   0.11043
     Eigenvalues ---    0.11264   0.13073   0.13580   0.15494   0.19082
     Eigenvalues ---    0.19328   0.20410   0.21198   0.23522   0.24262
     Eigenvalues ---    0.24920   0.24999   0.25000   0.25024   0.25527
     Eigenvalues ---    0.25854   0.26587   0.27110   0.28343   0.29811
     Eigenvalues ---    0.32122   0.33136   0.36315   0.39626   0.54185
     Eigenvalues ---    0.54675   0.55559   0.56209   0.56599   0.57481
     Eigenvalues ---    0.57530   0.58682   0.59920   0.60092   0.60615
     Eigenvalues ---    0.62974
 En-DIIS/RFO-DIIS/Sim-DIIS IScMMF=       -3 using points:     9    8    7    6    5    4
 RFO step:  Lambda=-1.02299901D-05.
 DidBck=F Rises=F RFO-DIIS coefs:    2.26780   -1.01668   -0.06291   -0.15938   -0.00403
                  RFO-DIIS coefs:   -0.02481
 Iteration  1 RMS(Cart)=  0.00961015 RMS(Int)=  0.00003643
 Iteration  2 RMS(Cart)=  0.00004829 RMS(Int)=  0.00000254
 Iteration  3 RMS(Cart)=  0.00000000 RMS(Int)=  0.00000254
 Variable       Old X    -DE/DX   Delta X   Delta X   Delta X     New X
                                 (Linear)    (Quad)   (Total)
    R1        2.52007  -0.00005  -0.00005  -0.00007  -0.00012   2.51994
    R2        2.52965  -0.00003  -0.00007  -0.00002  -0.00009   2.52957
    R3        2.50885  -0.00005  -0.00004  -0.00009  -0.00013   2.50871
    R4        2.83961   0.00009   0.00024   0.00023   0.00047   2.84007
    R5        2.48649   0.00015   0.00025   0.00018   0.00043   2.48692
    R6        2.83884   0.00003   0.00012  -0.00004   0.00008   2.83892
    R7        2.55791   0.00006  -0.00008   0.00018   0.00010   2.55802
    R8        2.54382  -0.00014   0.00010  -0.00046  -0.00035   2.54346
    R9        2.94452   0.00001   0.00036  -0.00008   0.00028   2.94480
   R10        2.53521  -0.00008  -0.00056   0.00017  -0.00039   2.53482
   R11        2.53336  -0.00019  -0.00016  -0.00037  -0.00053   2.53283
   R12        2.95087  -0.00021   0.00204  -0.00237  -0.00032   2.95055
   R13        2.53027  -0.00001  -0.00007  -0.00006  -0.00014   2.53013
   R14        2.52678   0.00001  -0.00034   0.00019  -0.00015   2.52663
   R15        2.94451  -0.00013  -0.00003  -0.00048  -0.00051   2.94400
   R16        2.50627   0.00004  -0.00102   0.00091  -0.00011   2.50616
   R17        2.50292   0.00008  -0.00043   0.00061   0.00018   2.50309
   R18        2.50901   0.00001  -0.00007   0.00025   0.00019   2.50920
    A1        1.87405  -0.00001   0.00008  -0.00032  -0.00024   1.87380
    A2        1.90070  -0.00005  -0.00002  -0.00007  -0.00009   1.90061
    A3        1.92307  -0.00007  -0.00014  -0.00041  -0.00055   1.92252
    A4        1.89069  -0.00008  -0.00002  -0.00026  -0.00027   1.89042
    A5        1.93841  -0.00003  -0.00008  -0.00022  -0.00029   1.93812
    A6        1.93533   0.00022   0.00017   0.00123   0.00140   1.93674
    A7        1.98480  -0.00011  -0.00017  -0.00065  -0.00083   1.98396
    A8        2.15533   0.00038   0.00099   0.00138   0.00236   2.15769
    A9        2.04822  -0.00025  -0.00212  -0.00041  -0.00254   2.04568
   A10        1.92300   0.00020   0.00017   0.00114   0.00131   1.92431
   A11        1.91021  -0.00004  -0.00009  -0.00020  -0.00029   1.90992
   A12        1.96168  -0.00014   0.00017  -0.00166  -0.00149   1.96019
   A13        1.87760   0.00005   0.00024   0.00072   0.00096   1.87856
   A14        1.89472  -0.00017  -0.00012  -0.00116  -0.00128   1.89344
   A15        1.89451   0.00011  -0.00037   0.00126   0.00089   1.89541
   A16        1.89033  -0.00003   0.00090  -0.00103  -0.00013   1.89020
   A17        1.89389  -0.00001   0.00078  -0.00112  -0.00034   1.89355
   A18        1.98631  -0.00001  -0.00154   0.00151  -0.00003   1.98628
   A19        1.90277   0.00002  -0.00043   0.00077   0.00033   1.90310
   A20        1.88316   0.00005  -0.00031   0.00101   0.00070   1.88386
   A21        1.90602  -0.00002   0.00061  -0.00112  -0.00050   1.90552
   A22        1.92014  -0.00011   0.00022  -0.00112  -0.00091   1.91924
   A23        1.89594   0.00016  -0.00079   0.00179   0.00099   1.89694
   A24        1.98611  -0.00013   0.00044  -0.00092  -0.00048   1.98563
   A25        1.90451  -0.00002   0.00036   0.00004   0.00040   1.90492
   A26        1.87545   0.00017  -0.00028   0.00096   0.00068   1.87613
   A27        1.88008  -0.00008   0.00006  -0.00072  -0.00066   1.87942
   A28        1.89648  -0.00003   0.00004  -0.00016  -0.00013   1.89635
   A29        1.93395   0.00020  -0.00008   0.00088   0.00079   1.93475
   A30        1.93011  -0.00017  -0.00047  -0.00016  -0.00064   1.92948
   A31        1.89703  -0.00006   0.00042  -0.00044  -0.00002   1.89701
   A32        1.89973   0.00009  -0.00006   0.00041   0.00035   1.90008
   A33        1.90591  -0.00003   0.00018  -0.00053  -0.00036   1.90556
    D1       -1.03405   0.00003  -0.00034   0.00166   0.00132  -1.03273
    D2        2.57540   0.00007   0.00334   0.00107   0.00442   2.57981
    D3        1.04027  -0.00004  -0.00038   0.00086   0.00048   1.04075
    D4       -1.63347  -0.00001   0.00330   0.00027   0.00358  -1.62989
    D5       -3.13967  -0.00001  -0.00034   0.00122   0.00088  -3.13880
    D6        0.46977   0.00003   0.00335   0.00063   0.00398   0.47375
    D7        1.02184   0.00015   0.00854   0.00186   0.01041   1.03225
    D8       -1.03938  -0.00000   0.00820   0.00042   0.00863  -1.03075
    D9        3.13741  -0.00002   0.00862   0.00005   0.00868  -3.13709
   D10       -1.63629   0.00015   0.01185   0.00128   0.01313  -1.62316
   D11        2.58568  -0.00000   0.01151  -0.00015   0.01135   2.59703
   D12        0.47928  -0.00002   0.01193  -0.00053   0.01140   0.49068
   D13        0.80662  -0.00003  -0.00144  -0.00058  -0.00202   0.80460
   D14       -1.25665  -0.00003  -0.00186  -0.00029  -0.00215  -1.25880
   D15        2.90076   0.00001  -0.00218   0.00094  -0.00124   2.89952
   D16        2.93830   0.00001  -0.00120  -0.00104  -0.00223   2.93607
   D17        0.87503   0.00002  -0.00161  -0.00075  -0.00236   0.87267
   D18       -1.25074   0.00005  -0.00194   0.00048  -0.00145  -1.25220
   D19       -1.30879   0.00003  -0.00118  -0.00012  -0.00131  -1.31010
   D20        2.91112   0.00004  -0.00160   0.00016  -0.00144   2.90969
   D21        0.78535   0.00007  -0.00192   0.00140  -0.00052   0.78482
   D22        0.74822   0.00001   0.00775  -0.00039   0.00736   0.75558
   D23       -1.33547  -0.00000   0.00766  -0.00085   0.00681  -1.32866
   D24        2.85366   0.00007   0.00786  -0.00060   0.00725   2.86092
   D25        2.84640  -0.00000   0.00770  -0.00003   0.00767   2.85407
   D26        0.76272  -0.00001   0.00761  -0.00049   0.00711   0.76983
   D27       -1.33134   0.00006   0.00781  -0.00024   0.00756  -1.32378
   D28       -1.37083   0.00004   0.00735   0.00084   0.00819  -1.36264
   D29        2.82867   0.00003   0.00725   0.00038   0.00763   2.83631
   D30        0.73462   0.00010   0.00745   0.00063   0.00808   0.74270
   D31        2.95854   0.00004   0.00157   0.00085   0.00241   2.96095
   D32       -1.24155   0.00007   0.00206   0.00073   0.00279  -1.23876
   D33        0.87443   0.00005   0.00190   0.00054   0.00245   0.87687
   D34       -1.19431  -0.00005   0.00193  -0.00049   0.00144  -1.19287
   D35        0.88879  -0.00002   0.00242  -0.00061   0.00182   0.89061
   D36        3.00476  -0.00004   0.00227  -0.00079   0.00147   3.00624
   D37        0.85555  -0.00003   0.00225  -0.00032   0.00192   0.85747
   D38        2.93865   0.00000   0.00274  -0.00044   0.00230   2.94095
   D39       -1.22856  -0.00002   0.00258  -0.00063   0.00196  -1.22660
         Item               Value     Threshold  Converged?
 Maximum Force            0.000380     0.000450     YES
 RMS     Force            0.000097     0.000300     YES
 Maximum Displacement     0.039531     0.001800     NO 
 RMS     Displacement     0.009610     0.001200     NO 
 Predicted change in Energy=-4.895529D-06
 GradGradGradGradGradGradGradGradGradGradGradGradGradGradGradGradGradGrad

                          Input orientation:                          
 ---------------------------------------------------------------------
 Center     Atomic      Atomic             Coordinates (Angstroms)
 Number     Number       Type             X           Y           Z
 ---------------------------------------------------------------------
      1          6           0        2.729719   -0.202408   -0.068195
      2          9           0        3.551476    0.301562   -0.989577
      3          9           0        3.273692    0.043981    1.129806
      4          9           0        2.656768   -1.517973   -0.230579
      5          6           0        1.371299    0.429956   -0.184491
      6          9           0        1.382554    1.737418   -0.035076
      7          6           0        0.089967   -0.286792    0.133860
      8          9           0        0.096234   -0.708996    1.419961
      9          9           0       -0.021983   -1.373998   -0.651639
     10          6           0       -1.162162    0.614893   -0.084083
     11          9           0       -1.033069    1.236469   -1.265714
     12          9           0       -1.199602    1.533377    0.891334
     13          6           0       -2.510561   -0.172146   -0.099537
     14          9           0       -2.521783   -1.079149    0.885265
     15          9           0       -2.627054   -0.799309   -1.274594
     16          6           0       -3.766915    0.731126    0.081357
     17          9           0       -4.849437    0.007316   -0.169757
     18          9           0       -3.842206    1.191348    1.321129
     19          9           0       -3.729990    1.755447   -0.762732
 ---------------------------------------------------------------------
                    Distance matrix (angstroms):
                    1          2          3          4          5
     1  C    0.000000
     2  F    1.333497   0.000000
     3  F    1.338589   2.152975   0.000000
     4  F    1.327555   2.165015   2.161236   0.000000
     5  C    1.502902   2.327621   2.344239   2.334305   0.000000
     6  F    2.361964   2.770736   2.793042   3.501344   1.316020
     7  C    2.648819   3.686505   3.352227   2.870033   1.502294
     8  F    3.067000   4.331952   3.278324   3.151993   2.344626
     9  F    3.047113   3.961226   4.005707   2.715461   2.326738
    10  C    3.976804   4.810039   4.634250   4.376620   2.542186
    11  F    4.202736   4.687041   5.070378   4.719465   2.756899
    12  F    4.401501   5.256228   4.720755   5.043908   2.997410
    13  C    5.240461   6.145312   5.917397   5.341321   3.929196
    14  F    5.408885   6.504297   5.908363   5.315549   4.310205
    15  F    5.523288   6.282307   6.427370   5.433711   4.322759
    16  C    6.565067   7.408797   7.151333   6.813182   5.153894
    17  F    7.582737   8.445946   8.226508   7.659850   6.235094
    18  F    6.860246   7.797282   7.210344   7.210054   5.479712
    19  F    6.785531   7.428660   7.454018   7.196468   5.302306
                    6          7          8          9         10
     6  F    0.000000
     7  C    2.407643   0.000000
     8  F    3.123571   1.353644   0.000000
     9  F    3.468974   1.345941   2.178928   0.000000
    10  C    2.781734   1.558320   2.366092   2.361740   0.000000
    11  F    2.756928   2.353793   3.503286   2.865994   1.341370
    12  F    2.750890   2.355794   2.643269   3.495766   1.340318
    13  C    4.336696   2.613496   3.064713   2.818206   1.561362
    14  F    4.901421   2.830844   2.697578   2.949239   2.378652
    15  F    4.903911   3.103002   3.832112   2.739477   2.358642
    16  C    5.248162   3.989292   4.334712   4.358135   2.612588
    17  F    6.469088   4.957458   5.244041   5.044259   3.737978
    18  F    5.425458   4.365373   4.374058   5.006687   3.080512
    19  F    5.164099   4.423425   5.047536   4.853358   2.890531
                   11         12         13         14         15
    11  F    0.000000
    12  F    2.183746   0.000000
    13  C    2.350989   2.368386   0.000000
    14  F    3.493576   2.928053   1.338886   0.000000
    15  F    2.585587   3.488594   1.337035   2.180455   0.000000
    16  C    3.089318   2.809051   1.557899   2.339598   2.340965
    17  F    4.156513   4.095860   2.346801   2.776950   2.609654
    18  F    3.819037   2.699086   2.377118   2.662452   3.489569
    19  F    2.792081   3.031191   2.375384   3.494366   2.829355
                   16         17         18         19
    16  C    0.000000
    17  F    1.326202   0.000000
    18  F    1.324579   2.153878   0.000000
    19  F    1.327812   2.158875   2.161776   0.000000
 Stoichiometry    C6F13(2)
 Framework group  C1[X(C6F13)]
 Deg. of freedom    51
 Full point group                 C1      NOp   1
 Largest Abelian subgroup         C1      NOp   1
 Largest concise Abelian subgroup C1      NOp   1
                         Standard orientation:                         
 ---------------------------------------------------------------------
 Center     Atomic      Atomic             Coordinates (Angstroms)
 Number     Number       Type             X           Y           Z
 ---------------------------------------------------------------------
      1          6           0       -3.400364    0.034466   -0.057770
      2          9           0       -4.171205   -0.568699   -0.963424
      3          9           0       -3.909876   -0.242721    1.148624
      4          9           0       -3.463170    1.347177   -0.245514
      5          6           0       -1.985050   -0.458022   -0.172036
      6          9           0       -1.861769   -1.756627    0.002137
      7          6           0       -0.782029    0.391913    0.123326
      8          9           0       -0.824548    0.836327    1.401230
      9          9           0       -0.786028    1.469305   -0.683376
     10          6           0        0.554544   -0.381278   -0.086700
     11          9           0        0.483357   -1.035764   -1.255398
     12          9           0        0.690914   -1.271895    0.905599
     13          6           0        1.815306    0.538892   -0.126895
     14          9           0        1.739006    1.461374    0.840484
     15          9           0        1.860777    1.151584   -1.314414
     16          6           0        3.158378   -0.227651    0.061835
     17          9           0        4.159864    0.597874   -0.210830
     18          9           0        3.286962   -0.653457    1.309498
     19          9           0        3.221860   -1.266690   -0.762454
 ---------------------------------------------------------------------
 Rotational constants (GHZ):           0.9116988           0.2113856           0.2028983
 Standard basis: 6-311+G(2d,2p) (5D, 7F)
 There are   551 symmetry adapted cartesian basis functions of A   symmetry.
 There are   513 symmetry adapted basis functions of A   symmetry.
   513 basis functions,   798 primitive gaussians,   551 cartesian basis functions
    77 alpha electrons       76 beta electrons
       nuclear repulsion energy      1875.7946404385 Hartrees.
 NAtoms=   19 NActive=   19 NUniq=   19 SFac= 1.00D+00 NAtFMM=   60 NAOKFM=F Big=F
 Integral buffers will be    131072 words long.
 Raffenetti 2 integral format.
 Two-electron integral symmetry is turned on.
 Nuclear repulsion after empirical dispersion term =     1875.7819660976 Hartrees.
 One-electron integrals computed using PRISM.
 NBasis=   513 RedAO= T EigKep=  4.06D-06  NBF=   513
 NBsUse=   513 1.00D-06 EigRej= -1.00D+00 NBFU=   513
 Initial guess from the checkpoint file:  "2_hexyl.chk"
 B after Tr=    -0.000000    0.000000    0.000000
         Rot=    0.999999   -0.001425   -0.000128   -0.000053 Ang=  -0.16 deg.
 Initial guess <Sx>= 0.0000 <Sy>= 0.0000 <Sz>= 0.5000 <S**2>= 0.7540 S= 0.5020
 ExpMin= 4.38D-02 ExpMax= 1.14D+04 ExpMxC= 1.72D+03 IAcc=2 IRadAn=         4 AccDes= 0.00D+00
 Harris functional with IExCor= 4639 and IRadAn=       4 diagonalized for initial guess.
 HarFok:  IExCor= 4639 AccDes= 0.00D+00 IRadAn=         4 IDoV= 1 UseB2=F ITyADJ=14
 ICtDFT=  3500011 ScaDFX=  1.000000  1.000000  1.000000  1.000000
 FoFCou: FMM=F IPFlag=           0 FMFlag=      100000 FMFlg1=           0
         NFxFlg=           0 DoJE=T BraDBF=F KetDBF=T FulRan=T
         wScrn=  0.000000 ICntrl=       500 IOpCl=  0 I1Cent=   200000004 NGrid=           0
         NMat0=    1 NMatS0=      1 NMatT0=    0 NMatD0=    1 NMtDS0=    0 NMtDT0=    0
 Petite list used in FoFCou.
 Requested convergence on RMS density matrix=1.00D-08 within  32 cycles.
 Requested convergence on MAX density matrix=1.00D-06.
 Requested convergence on             energy=1.00D-06.
 No special actions if energy rises.
 SCF Done:  E(UwB97XD) =  -1526.59076066     A.U. after   10 cycles
            NFock= 10  Conv=0.58D-08     -V/T= 2.0025
 <Sx>= 0.0000 <Sy>= 0.0000 <Sz>= 0.5000 <S**2>= 0.7540 S= 0.5020
 <L.S>= 0.000000000000E+00
 Annihilation of the first spin contaminant:
 S**2 before annihilation     0.7540,   after     0.7500
 QCSCF skips out because SCF is already converged.
 Calling FoFJK, ICntrl=      2127 FMM=F ISym2X=0 I1Cent= 0 IOpClX= 1 NMat=1 NMatS=1 NMatT=0.
 ***** Axes restored to original set *****
 -------------------------------------------------------------------
 Center     Atomic                   Forces (Hartrees/Bohr)
 Number     Number              X              Y              Z
 -------------------------------------------------------------------
      1        6           0.000059899   -0.000018880   -0.000068963
      2        9          -0.000027236    0.000026794   -0.000048572
      3        9          -0.000023140    0.000000610    0.000078772
      4        9          -0.000029946    0.000069025    0.000001368
      5        6          -0.000018095   -0.000180613   -0.000024682
      6        9           0.000090073    0.000051219    0.000058215
      7        6           0.000015077   -0.000091436   -0.000117145
      8        9          -0.000002399   -0.000042291   -0.000026653
      9        9           0.000082898    0.000103673    0.000165282
     10        6          -0.000215105   -0.000098046    0.000093766
     11        9           0.000007519    0.000025263   -0.000115449
     12        9          -0.000034426   -0.000005214    0.000012455
     13        6           0.000151642    0.000255889    0.000018525
     14        9           0.000046991   -0.000048517    0.000024586
     15        9          -0.000032847   -0.000065089   -0.000054229
     16        6           0.000096856    0.000077186   -0.000009357
     17        9          -0.000080767   -0.000022146   -0.000006766
     18        9          -0.000052399   -0.000001692   -0.000004309
     19        9          -0.000034595   -0.000035734    0.000023156
 -------------------------------------------------------------------
 Cartesian Forces:  Max     0.000255889 RMS     0.000078688

 GradGradGradGradGradGradGradGradGradGradGradGradGradGradGradGradGradGrad
 Berny optimization.
 Using GEDIIS/GDIIS optimizer.
 FormGI is forming the generalized inverse of G from B-inverse, IUseBI=4.
 Internal  Forces:  Max     0.000187540 RMS     0.000053977
 Search for a local minimum.
 Step number  10 out of a maximum of  100
 All quantities printed in internal units (Hartrees-Bohrs-Radians)
 Mixed Optimization -- En-DIIS/RFO-DIIS
 Swapping is turned off.
 Update second derivatives using D2CorX and points    2    5    6    7    8
                                                      9   10
 DE= -6.15D-06 DEPred=-4.90D-06 R= 1.26D+00
 TightC=F SS=  1.41D+00  RLast= 3.67D-02 DXNew= 7.1352D-01 1.1011D-01
 Trust test= 1.26D+00 RLast= 3.67D-02 DXMaxT set to 4.24D-01
 ITU=  1  1 -1  1  1  0  1  1  0  0
     Eigenvalues ---    0.00190   0.00204   0.00413   0.00733   0.00853
     Eigenvalues ---    0.01224   0.05248   0.05582   0.06585   0.07002
     Eigenvalues ---    0.07571   0.08557   0.09010   0.10192   0.11034
     Eigenvalues ---    0.11360   0.13101   0.14017   0.15980   0.18755
     Eigenvalues ---    0.19527   0.20330   0.21716   0.23408   0.23573
     Eigenvalues ---    0.24962   0.25000   0.25021   0.25162   0.25716
     Eigenvalues ---    0.25919   0.26600   0.27285   0.28523   0.31000
     Eigenvalues ---    0.32468   0.33887   0.36410   0.39947   0.54205
     Eigenvalues ---    0.54936   0.55398   0.56234   0.57248   0.57490
     Eigenvalues ---    0.58324   0.58864   0.59971   0.60538   0.61516
     Eigenvalues ---    0.62807
 En-DIIS/RFO-DIIS/Sim-DIIS IScMMF=       -3 using points:    10    9    8    7    6    5    4
 RFO step:  Lambda=-4.52102143D-06.
 DidBck=F Rises=F RFO-DIIS coefs:    1.63489    0.16841   -0.45867   -0.42207    0.13791
                  RFO-DIIS coefs:   -0.06923    0.00876
 Iteration  1 RMS(Cart)=  0.00933891 RMS(Int)=  0.00003540
 Iteration  2 RMS(Cart)=  0.00005099 RMS(Int)=  0.00000190
 Iteration  3 RMS(Cart)=  0.00000000 RMS(Int)=  0.00000190
 Variable       Old X    -DE/DX   Delta X   Delta X   Delta X     New X
                                 (Linear)    (Quad)   (Total)
    R1        2.51994   0.00003  -0.00008   0.00006  -0.00002   2.51992
    R2        2.52957   0.00006  -0.00008   0.00016   0.00009   2.52965
    R3        2.50871  -0.00007  -0.00013  -0.00011  -0.00024   2.50848
    R4        2.84007  -0.00005   0.00033  -0.00021   0.00012   2.84020
    R5        2.48692   0.00006   0.00045  -0.00003   0.00042   2.48734
    R6        2.83892   0.00002   0.00041  -0.00040   0.00001   2.83894
    R7        2.55802  -0.00001  -0.00006   0.00006  -0.00000   2.55802
    R8        2.54346  -0.00019  -0.00027  -0.00033  -0.00060   2.54286
    R9        2.94480   0.00017   0.00087  -0.00004   0.00083   2.94563
   R10        2.53482   0.00011  -0.00061   0.00055  -0.00006   2.53476
   R11        2.53283   0.00001  -0.00046   0.00022  -0.00023   2.53260
   R12        2.95055  -0.00016   0.00084  -0.00131  -0.00047   2.95007
   R13        2.53013   0.00005  -0.00023   0.00032   0.00008   2.53021
   R14        2.52663   0.00008  -0.00040   0.00045   0.00005   2.52668
   R15        2.94400   0.00007  -0.00033   0.00031  -0.00002   2.94399
   R16        2.50616   0.00008  -0.00039   0.00028  -0.00011   2.50605
   R17        2.50309  -0.00000  -0.00008   0.00008  -0.00000   2.50309
   R18        2.50920  -0.00004   0.00028  -0.00018   0.00010   2.50930
    A1        1.87380   0.00008   0.00010   0.00034   0.00043   1.87424
    A2        1.90061   0.00005   0.00001   0.00011   0.00012   1.90073
    A3        1.92252  -0.00007  -0.00044  -0.00023  -0.00067   1.92184
    A4        1.89042   0.00003  -0.00013   0.00008  -0.00005   1.89037
    A5        1.93812  -0.00004  -0.00025  -0.00015  -0.00041   1.93771
    A6        1.93674  -0.00004   0.00070  -0.00011   0.00059   1.93732
    A7        1.98396  -0.00012  -0.00089  -0.00036  -0.00126   1.98270
    A8        2.15769   0.00009   0.00205  -0.00007   0.00197   2.15966
    A9        2.04568   0.00004  -0.00269   0.00061  -0.00209   2.04359
   A10        1.92431  -0.00002   0.00085  -0.00023   0.00062   1.92493
   A11        1.90992  -0.00006  -0.00051   0.00017  -0.00033   1.90958
   A12        1.96019   0.00007   0.00008  -0.00061  -0.00053   1.95966
   A13        1.87856  -0.00004   0.00007   0.00001   0.00008   1.87864
   A14        1.89344   0.00001  -0.00092   0.00067  -0.00026   1.89318
   A15        1.89541   0.00004   0.00042   0.00002   0.00044   1.89585
   A16        1.89020  -0.00002   0.00058  -0.00068  -0.00010   1.89010
   A17        1.89355   0.00003   0.00039   0.00001   0.00040   1.89395
   A18        1.98628   0.00002  -0.00076   0.00033  -0.00043   1.98585
   A19        1.90310   0.00002   0.00022  -0.00010   0.00012   1.90322
   A20        1.88386  -0.00000  -0.00013   0.00047   0.00035   1.88421
   A21        1.90552  -0.00005  -0.00026  -0.00006  -0.00032   1.90520
   A22        1.91924  -0.00008  -0.00047  -0.00012  -0.00059   1.91865
   A23        1.89694   0.00001   0.00028   0.00004   0.00032   1.89725
   A24        1.98563   0.00011  -0.00010   0.00021   0.00011   1.98574
   A25        1.90492  -0.00000   0.00030  -0.00036  -0.00006   1.90486
   A26        1.87613   0.00002   0.00038   0.00000   0.00038   1.87651
   A27        1.87942  -0.00006  -0.00037   0.00021  -0.00016   1.87927
   A28        1.89635   0.00002   0.00077  -0.00069   0.00007   1.89643
   A29        1.93475   0.00007   0.00064  -0.00026   0.00038   1.93513
   A30        1.92948   0.00003  -0.00027  -0.00006  -0.00033   1.92915
   A31        1.89701  -0.00005  -0.00040   0.00031  -0.00009   1.89692
   A32        1.90008  -0.00004   0.00021  -0.00032  -0.00011   1.89997
   A33        1.90556  -0.00003  -0.00094   0.00101   0.00007   1.90563
    D1       -1.03273  -0.00000   0.00067   0.00058   0.00124  -1.03149
    D2        2.57981  -0.00001   0.00505   0.00001   0.00506   2.58487
    D3        1.04075   0.00003   0.00035   0.00075   0.00109   1.04184
    D4       -1.62989   0.00002   0.00472   0.00019   0.00491  -1.62498
    D5       -3.13880   0.00001   0.00048   0.00067   0.00115  -3.13764
    D6        0.47375   0.00000   0.00486   0.00011   0.00497   0.47872
    D7        1.03225  -0.00002   0.01336   0.00022   0.01358   1.04583
    D8       -1.03075   0.00007   0.01307   0.00024   0.01332  -1.01743
    D9       -3.13709   0.00002   0.01283   0.00049   0.01333  -3.12377
   D10       -1.62316   0.00000   0.01738  -0.00011   0.01727  -1.60589
   D11        2.59703   0.00010   0.01709  -0.00009   0.01700   2.61403
   D12        0.49068   0.00005   0.01686   0.00016   0.01701   0.50770
   D13        0.80460   0.00001  -0.00309  -0.00014  -0.00323   0.80137
   D14       -1.25880  -0.00002  -0.00389   0.00035  -0.00354  -1.26234
   D15        2.89952   0.00001  -0.00333   0.00020  -0.00313   2.89638
   D16        2.93607   0.00003  -0.00261  -0.00036  -0.00297   2.93310
   D17        0.87267   0.00001  -0.00341   0.00013  -0.00328   0.86938
   D18       -1.25220   0.00003  -0.00285  -0.00003  -0.00288  -1.25507
   D19       -1.31010   0.00001  -0.00280   0.00002  -0.00278  -1.31287
   D20        2.90969  -0.00002  -0.00360   0.00051  -0.00309   2.90660
   D21        0.78482   0.00001  -0.00303   0.00035  -0.00268   0.78214
   D22        0.75558  -0.00002   0.00133  -0.00009   0.00124   0.75682
   D23       -1.32866   0.00003   0.00107   0.00040   0.00147  -1.32719
   D24        2.86092   0.00002   0.00141  -0.00003   0.00138   2.86229
   D25        2.85407  -0.00003   0.00150  -0.00041   0.00109   2.85516
   D26        0.76983   0.00001   0.00124   0.00008   0.00132   0.77115
   D27       -1.32378   0.00001   0.00157  -0.00035   0.00122  -1.32255
   D28       -1.36264  -0.00003   0.00154  -0.00029   0.00125  -1.36139
   D29        2.83631   0.00001   0.00128   0.00020   0.00148   2.83779
   D30        0.74270   0.00001   0.00162  -0.00023   0.00138   0.74408
   D31        2.96095   0.00002   0.00002  -0.00014  -0.00012   2.96083
   D32       -1.23876   0.00001   0.00040  -0.00035   0.00005  -1.23871
   D33        0.87687   0.00004  -0.00055   0.00071   0.00016   0.87704
   D34       -1.19287  -0.00000  -0.00037  -0.00016  -0.00053  -1.19340
   D35        0.89061  -0.00002   0.00000  -0.00036  -0.00036   0.89025
   D36        3.00624   0.00001  -0.00094   0.00069  -0.00024   3.00599
   D37        0.85747  -0.00002  -0.00001  -0.00048  -0.00048   0.85699
   D38        2.94095  -0.00004   0.00037  -0.00068  -0.00031   2.94064
   D39       -1.22660  -0.00001  -0.00057   0.00038  -0.00020  -1.22680
         Item               Value     Threshold  Converged?
 Maximum Force            0.000188     0.000450     YES
 RMS     Force            0.000054     0.000300     YES
 Maximum Displacement     0.041989     0.001800     NO 
 RMS     Displacement     0.009338     0.001200     NO 
 Predicted change in Energy=-2.199105D-06
 GradGradGradGradGradGradGradGradGradGradGradGradGradGradGradGradGradGrad

                          Input orientation:                          
 ---------------------------------------------------------------------
 Center     Atomic      Atomic             Coordinates (Angstroms)
 Number     Number       Type             X           Y           Z
 ---------------------------------------------------------------------
      1          6           0        2.729786   -0.203647   -0.076108
      2          9           0        3.546941    0.311040   -0.995642
      3          9           0        3.278762    0.029512    1.122310
      4          9           0        2.656517   -1.517221   -0.252799
      5          6           0        1.370983    0.430329   -0.179259
      6          9           0        1.385106    1.736378   -0.016365
      7          6           0        0.089759   -0.285335    0.141985
      8          9           0        0.094748   -0.701443    1.430076
      9          9           0       -0.021084   -1.375952   -0.638380
     10          6           0       -1.162452    0.615742   -0.081078
     11          9           0       -1.030539    1.234667   -1.263750
     12          9           0       -1.203213    1.536245    0.892131
     13          6           0       -2.510038   -0.172166   -0.097847
     14          9           0       -2.522828   -1.075625    0.890249
     15          9           0       -2.622857   -0.803800   -1.270896
     16          6           0       -3.767652    0.730711    0.076053
     17          9           0       -4.848825    0.005297   -0.175932
     18          9           0       -3.847477    1.195507    1.313832
     19          9           0       -3.728691    1.751882   -0.771839
 ---------------------------------------------------------------------
                    Distance matrix (angstroms):
                    1          2          3          4          5
     1  C    0.000000
     2  F    1.333486   0.000000
     3  F    1.338634   2.153346   0.000000
     4  F    1.327428   2.164996   2.161133   0.000000
     5  C    1.502968   2.327123   2.344004   2.334728   0.000000
     6  F    2.361235   2.768411   2.792115   3.501184   1.316244
     7  C    2.650279   3.688083   3.351104   2.874307   1.502300
     8  F    3.075682   4.338993   3.281304   3.171785   2.345132
     9  F    3.042653   3.962875   3.995540   2.708907   2.326218
    10  C    3.977555   4.807042   4.638554   4.377618   2.542108
    11  F    4.197533   4.677423   5.071070   4.710551   2.755066
    12  F    4.408310   5.256308   4.734060   5.052923   2.999569
    13  C    5.239964   6.142191   5.919430   5.341018   3.928352
    14  F    5.411483   6.505498   5.910467   5.322328   4.309699
    15  F    5.517109   6.275749   6.422690   5.423770   4.320359
    16  C    6.566040   7.404588   7.158092   6.814051   5.153735
    17  F    7.582148   8.441225   8.230655   7.658598   6.234314
    18  F    6.866582   7.797009   7.223538   7.219082   5.481527
    19  F    6.783809   7.420306   7.460480   7.192171   5.301352
                    6          7          8          9         10
     6  F    0.000000
     7  C    2.406308   0.000000
     8  F    3.114512   1.353644   0.000000
     9  F    3.471436   1.345622   2.178736   0.000000
    10  C    2.783894   1.558759   2.366245   2.362234   0.000000
    11  F    2.764602   2.354053   3.503069   2.867999   1.341336
    12  F    2.750421   2.356406   2.642222   3.495823   1.340195
    13  C    4.338355   2.613288   3.065876   2.817120   1.561111
    14  F    4.899107   2.830207   2.698727   2.947138   2.377986
    15  F    4.908168   3.102149   3.832898   2.738002   2.358718
    16  C    5.250792   3.989526   4.336194   4.357202   2.612465
    17  F    6.471784   4.957333   5.245727   5.042696   3.737778
    18  F    5.426038   4.366686   4.376422   5.006477   3.080788
    19  F    5.169323   4.423335   5.048359   4.852577   2.890251
                   11         12         13         14         15
    11  F    0.000000
    12  F    2.183710   0.000000
    13  C    2.351048   2.367808   0.000000
    14  F    3.493435   2.926303   1.338931   0.000000
    15  F    2.586673   3.488536   1.337062   2.180469   0.000000
    16  C    3.088824   2.809131   1.557890   2.339947   2.340844
    17  F    4.156201   4.095735   2.346809   2.777660   2.609313
    18  F    3.818455   2.699271   2.377416   2.663110   3.489662
    19  F    2.790970   3.032052   2.375151   3.494487   2.829035
                   16         17         18         19
    16  C    0.000000
    17  F    1.326143   0.000000
    18  F    1.324577   2.153763   0.000000
    19  F    1.327866   2.158787   2.161871   0.000000
 Stoichiometry    C6F13(2)
 Framework group  C1[X(C6F13)]
 Deg. of freedom    51
 Full point group                 C1      NOp   1
 Largest Abelian subgroup         C1      NOp   1
 Largest concise Abelian subgroup C1      NOp   1
                         Standard orientation:                         
 ---------------------------------------------------------------------
 Center     Atomic      Atomic             Coordinates (Angstroms)
 Number     Number       Type             X           Y           Z
 ---------------------------------------------------------------------
      1          6           0       -3.400599    0.035408   -0.064559
      2          9           0       -4.165959   -0.575514   -0.969648
      3          9           0       -3.916078   -0.232449    1.141457
      4          9           0       -3.463130    1.346431   -0.262989
      5          6           0       -1.984656   -0.457989   -0.167396
      6          9           0       -1.864138   -1.755713    0.016684
      7          6           0       -0.781605    0.390201    0.132850
      8          9           0       -0.821897    0.825235    1.414050
      9          9           0       -0.787343    1.473150   -0.665830
     10          6           0        0.554965   -0.381774   -0.084781
     11          9           0        0.480424   -1.030753   -1.256298
     12          9           0        0.695187   -1.276781    0.902854
     13          6           0        1.814733    0.539368   -0.124149
     14          9           0        1.740566    1.455899    0.849097
     15          9           0        1.855718    1.159398   -1.308048
     16          6           0        3.159097   -0.227165    0.055110
     17          9           0        4.158925    0.600627   -0.216476
     18          9           0        3.293033   -0.660473    1.299621
     19          9           0        3.220066   -1.261091   -0.775859
 ---------------------------------------------------------------------
 Rotational constants (GHZ):           0.9116276           0.2113313           0.2028743
 Standard basis: 6-311+G(2d,2p) (5D, 7F)
 There are   551 symmetry adapted cartesian basis functions of A   symmetry.
 There are   513 symmetry adapted basis functions of A   symmetry.
   513 basis functions,   798 primitive gaussians,   551 cartesian basis functions
    77 alpha electrons       76 beta electrons
       nuclear repulsion energy      1875.7045023639 Hartrees.
 NAtoms=   19 NActive=   19 NUniq=   19 SFac= 1.00D+00 NAtFMM=   60 NAOKFM=F Big=F
 Integral buffers will be    131072 words long.
 Raffenetti 2 integral format.
 Two-electron integral symmetry is turned on.
 Nuclear repulsion after empirical dispersion term =     1875.6918301066 Hartrees.
 One-electron integrals computed using PRISM.
 NBasis=   513 RedAO= T EigKep=  4.10D-06  NBF=   513
 NBsUse=   513 1.00D-06 EigRej= -1.00D+00 NBFU=   513
 Initial guess from the checkpoint file:  "2_hexyl.chk"
 B after Tr=     0.000000   -0.000000    0.000000
         Rot=    0.999999   -0.001351   -0.000138   -0.000044 Ang=  -0.16 deg.
 Initial guess <Sx>= 0.0000 <Sy>= 0.0000 <Sz>= 0.5000 <S**2>= 0.7540 S= 0.5020
 ExpMin= 4.38D-02 ExpMax= 1.14D+04 ExpMxC= 1.72D+03 IAcc=2 IRadAn=         4 AccDes= 0.00D+00
 Harris functional with IExCor= 4639 and IRadAn=       4 diagonalized for initial guess.
 HarFok:  IExCor= 4639 AccDes= 0.00D+00 IRadAn=         4 IDoV= 1 UseB2=F ITyADJ=14
 ICtDFT=  3500011 ScaDFX=  1.000000  1.000000  1.000000  1.000000
 FoFCou: FMM=F IPFlag=           0 FMFlag=      100000 FMFlg1=           0
         NFxFlg=           0 DoJE=T BraDBF=F KetDBF=T FulRan=T
         wScrn=  0.000000 ICntrl=       500 IOpCl=  0 I1Cent=   200000004 NGrid=           0
         NMat0=    1 NMatS0=      1 NMatT0=    0 NMatD0=    1 NMtDS0=    0 NMtDT0=    0
 Petite list used in FoFCou.
 Requested convergence on RMS density matrix=1.00D-08 within  32 cycles.
 Requested convergence on MAX density matrix=1.00D-06.
 Requested convergence on             energy=1.00D-06.
 No special actions if energy rises.
 SCF Done:  E(UwB97XD) =  -1526.59076315     A.U. after   10 cycles
            NFock= 10  Conv=0.59D-08     -V/T= 2.0025
 <Sx>= 0.0000 <Sy>= 0.0000 <Sz>= 0.5000 <S**2>= 0.7540 S= 0.5020
 <L.S>= 0.000000000000E+00
 Annihilation of the first spin contaminant:
 S**2 before annihilation     0.7540,   after     0.7500
 QCSCF skips out because SCF is already converged.
 Calling FoFJK, ICntrl=      2127 FMM=F ISym2X=0 I1Cent= 0 IOpClX= 1 NMat=1 NMatS=1 NMatT=0.
 ***** Axes restored to original set *****
 -------------------------------------------------------------------
 Center     Atomic                   Forces (Hartrees/Bohr)
 Number     Number              X              Y              Z
 -------------------------------------------------------------------
      1        6          -0.000065054   -0.000044199   -0.000061148
      2        9           0.000015723    0.000003116    0.000012699
      3        9           0.000030878   -0.000000700    0.000026640
      4        9           0.000032452    0.000029465    0.000001838
      5        6          -0.000054354    0.000024331    0.000053415
      6        9           0.000047346    0.000001821   -0.000004206
      7        6           0.000038628   -0.000074258   -0.000122158
      8        9           0.000027047   -0.000005530    0.000012792
      9        9           0.000010622    0.000064014    0.000078797
     10        6          -0.000134503   -0.000226988    0.000102880
     11        9           0.000059681    0.000061493   -0.000128710
     12        9          -0.000013876    0.000045030    0.000031155
     13        6           0.000130358    0.000187660    0.000029478
     14        9          -0.000006371   -0.000035755    0.000033768
     15        9          -0.000033259   -0.000035458   -0.000060124
     16        6           0.000082705    0.000108290   -0.000031961
     17        9          -0.000117100   -0.000066165   -0.000011009
     18        9          -0.000007030   -0.000009441   -0.000023274
     19        9          -0.000043892   -0.000026725    0.000059129
 -------------------------------------------------------------------
 Cartesian Forces:  Max     0.000226988 RMS     0.000068735

 GradGradGradGradGradGradGradGradGradGradGradGradGradGradGradGradGradGrad
 Berny optimization.
 Using GEDIIS/GDIIS optimizer.
 FormGI is forming the generalized inverse of G from B-inverse, IUseBI=4.
 Internal  Forces:  Max     0.000147977 RMS     0.000041044
 Search for a local minimum.
 Step number  11 out of a maximum of  100
 All quantities printed in internal units (Hartrees-Bohrs-Radians)
 Mixed Optimization -- En-DIIS/RFO-DIIS
 Swapping is turned off.
 Update second derivatives using D2CorX and points    2    5    6    7    8
                                                      9   10   11
 DE= -2.50D-06 DEPred=-2.20D-06 R= 1.13D+00
 TightC=F SS=  1.41D+00  RLast= 4.01D-02 DXNew= 7.1352D-01 1.2043D-01
 Trust test= 1.13D+00 RLast= 4.01D-02 DXMaxT set to 4.24D-01
 ITU=  1  1  1 -1  1  1  0  1  1  0  0
     Eigenvalues ---    0.00142   0.00202   0.00441   0.00732   0.00846
     Eigenvalues ---    0.01246   0.05255   0.05600   0.06672   0.07061
     Eigenvalues ---    0.07581   0.08606   0.09021   0.10253   0.11033
     Eigenvalues ---    0.11431   0.13195   0.14006   0.16083   0.18233
     Eigenvalues ---    0.19531   0.20455   0.21685   0.22586   0.23526
     Eigenvalues ---    0.24924   0.25000   0.25031   0.25468   0.25825
     Eigenvalues ---    0.25948   0.26488   0.27707   0.29320   0.30709
     Eigenvalues ---    0.32432   0.34103   0.36343   0.39770   0.54221
     Eigenvalues ---    0.55008   0.55401   0.56131   0.57221   0.57513
     Eigenvalues ---    0.58582   0.58852   0.59991   0.60572   0.61781
     Eigenvalues ---    0.62875
 En-DIIS/RFO-DIIS/Sim-DIIS IScMMF=       -3 using points:    11   10    9    8    7    6    5    4
 RFO step:  Lambda=-1.02550371D-06.
 DidBck=F Rises=F RFO-DIIS coefs:    1.06804    0.16239   -0.07301   -0.04453   -0.19433
                  RFO-DIIS coefs:    0.08323   -0.02168    0.01989
 Iteration  1 RMS(Cart)=  0.00360086 RMS(Int)=  0.00000565
 Iteration  2 RMS(Cart)=  0.00000747 RMS(Int)=  0.00000046
 Iteration  3 RMS(Cart)=  0.00000000 RMS(Int)=  0.00000046
 Variable       Old X    -DE/DX   Delta X   Delta X   Delta X     New X
                                 (Linear)    (Quad)   (Total)
    R1        2.51992   0.00000  -0.00002   0.00001  -0.00002   2.51991
    R2        2.52965   0.00004  -0.00001   0.00007   0.00006   2.52971
    R3        2.50848  -0.00003  -0.00006  -0.00004  -0.00010   2.50838
    R4        2.84020   0.00002   0.00009   0.00004   0.00013   2.84032
    R5        2.48734   0.00000   0.00017  -0.00004   0.00012   2.48746
    R6        2.83894   0.00001   0.00019  -0.00014   0.00005   2.83898
    R7        2.55802   0.00001  -0.00001   0.00004   0.00004   2.55805
    R8        2.54286  -0.00010  -0.00017  -0.00012  -0.00029   2.54257
    R9        2.94563   0.00007   0.00043  -0.00006   0.00037   2.94600
   R10        2.53476   0.00015  -0.00017   0.00033   0.00016   2.53492
   R11        2.53260   0.00005  -0.00021   0.00019  -0.00001   2.53259
   R12        2.95007  -0.00006  -0.00001  -0.00028  -0.00029   2.94978
   R13        2.53021   0.00005  -0.00013   0.00023   0.00010   2.53031
   R14        2.52668   0.00007  -0.00014   0.00026   0.00011   2.52679
   R15        2.94399   0.00007  -0.00015   0.00029   0.00014   2.94412
   R16        2.50605   0.00013  -0.00001   0.00011   0.00010   2.50615
   R17        2.50309  -0.00003   0.00008  -0.00016  -0.00008   2.50300
   R18        2.50930  -0.00006   0.00011  -0.00023  -0.00012   2.50918
    A1        1.87424  -0.00003   0.00007  -0.00020  -0.00012   1.87411
    A2        1.90073  -0.00002   0.00002  -0.00008  -0.00005   1.90067
    A3        1.92184   0.00001  -0.00019   0.00003  -0.00016   1.92169
    A4        1.89037  -0.00003  -0.00005  -0.00006  -0.00011   1.89026
    A5        1.93771   0.00001  -0.00011   0.00005  -0.00006   1.93765
    A6        1.93732   0.00005   0.00026   0.00022   0.00048   1.93780
    A7        1.98270  -0.00005  -0.00040  -0.00003  -0.00042   1.98228
    A8        2.15966   0.00001   0.00079  -0.00011   0.00068   2.16034
    A9        2.04359   0.00005  -0.00076   0.00036  -0.00040   2.04319
   A10        1.92493  -0.00003   0.00039  -0.00032   0.00007   1.92500
   A11        1.90958   0.00001  -0.00033   0.00030  -0.00003   1.90956
   A12        1.95966   0.00000   0.00003  -0.00023  -0.00020   1.95946
   A13        1.87864  -0.00001  -0.00011   0.00018   0.00007   1.87871
   A14        1.89318   0.00003  -0.00043   0.00036  -0.00007   1.89311
   A15        1.89585  -0.00000   0.00045  -0.00028   0.00017   1.89602
   A16        1.89010  -0.00007   0.00009  -0.00039  -0.00029   1.88981
   A17        1.89395  -0.00001  -0.00002   0.00008   0.00006   1.89402
   A18        1.98585   0.00010   0.00007   0.00020   0.00027   1.98612
   A19        1.90322   0.00001   0.00026  -0.00033  -0.00007   1.90315
   A20        1.88421   0.00001  -0.00003   0.00022   0.00020   1.88441
   A21        1.90520  -0.00004  -0.00035   0.00018  -0.00017   1.90502
   A22        1.91865  -0.00004  -0.00041   0.00008  -0.00033   1.91832
   A23        1.89725  -0.00001   0.00042  -0.00019   0.00023   1.89748
   A24        1.98574   0.00013   0.00004   0.00045   0.00049   1.98622
   A25        1.90486   0.00002  -0.00004  -0.00004  -0.00008   1.90477
   A26        1.87651  -0.00005   0.00029  -0.00037  -0.00008   1.87643
   A27        1.87927  -0.00005  -0.00030   0.00006  -0.00024   1.87902
   A28        1.89643   0.00000   0.00013  -0.00017  -0.00004   1.89638
   A29        1.93513  -0.00001   0.00041  -0.00029   0.00012   1.93525
   A30        1.92915   0.00009  -0.00004   0.00017   0.00013   1.92927
   A31        1.89692  -0.00002  -0.00024   0.00012  -0.00012   1.89681
   A32        1.89997  -0.00003   0.00006  -0.00006  -0.00000   1.89996
   A33        1.90563  -0.00004  -0.00033   0.00024  -0.00009   1.90554
    D1       -1.03149   0.00003   0.00054   0.00088   0.00143  -1.03006
    D2        2.58487   0.00001   0.00162   0.00027   0.00189   2.58676
    D3        1.04184   0.00001   0.00044   0.00070   0.00114   1.04298
    D4       -1.62498  -0.00001   0.00152   0.00008   0.00160  -1.62339
    D5       -3.13764   0.00002   0.00048   0.00081   0.00129  -3.13635
    D6        0.47872  -0.00000   0.00155   0.00019   0.00175   0.48046
    D7        1.04583  -0.00001   0.00465   0.00032   0.00497   1.05080
    D8       -1.01743   0.00002   0.00475   0.00011   0.00486  -1.01257
    D9       -3.12377   0.00001   0.00439   0.00040   0.00479  -3.11898
   D10       -1.60589  -0.00000   0.00565  -0.00021   0.00543  -1.60046
   D11        2.61403   0.00003   0.00575  -0.00043   0.00532   2.61936
   D12        0.50770   0.00002   0.00539  -0.00014   0.00525   0.51295
   D13        0.80137  -0.00001  -0.00070  -0.00009  -0.00079   0.80058
   D14       -1.26234   0.00002  -0.00104   0.00047  -0.00057  -1.26292
   D15        2.89638   0.00002  -0.00062   0.00005  -0.00058   2.89581
   D16        2.93310  -0.00003  -0.00049  -0.00039  -0.00088   2.93222
   D17        0.86938   0.00000  -0.00083   0.00016  -0.00067   0.86872
   D18       -1.25507   0.00000  -0.00041  -0.00026  -0.00067  -1.25574
   D19       -1.31287  -0.00002  -0.00061  -0.00013  -0.00075  -1.31362
   D20        2.90660   0.00001  -0.00096   0.00042  -0.00053   2.90607
   D21        0.78214   0.00000  -0.00054   0.00000  -0.00053   0.78161
   D22        0.75682   0.00000   0.00106   0.00014   0.00120   0.75802
   D23       -1.32719   0.00001   0.00110   0.00026   0.00136  -1.32583
   D24        2.86229   0.00000   0.00116   0.00003   0.00119   2.86349
   D25        2.85516  -0.00001   0.00120  -0.00006   0.00114   2.85630
   D26        0.77115  -0.00001   0.00124   0.00006   0.00129   0.77244
   D27       -1.32255  -0.00002   0.00130  -0.00017   0.00113  -1.32143
   D28       -1.36139  -0.00002   0.00129  -0.00023   0.00107  -1.36032
   D29        2.83779  -0.00001   0.00133  -0.00011   0.00122   2.83901
   D30        0.74408  -0.00002   0.00140  -0.00034   0.00106   0.74514
   D31        2.96083   0.00003   0.00135   0.00000   0.00135   2.96217
   D32       -1.23871   0.00000   0.00138  -0.00013   0.00125  -1.23746
   D33        0.87704   0.00001   0.00122   0.00008   0.00130   0.87834
   D34       -1.19340   0.00003   0.00106   0.00013   0.00119  -1.19221
   D35        0.89025   0.00000   0.00110  -0.00000   0.00109   0.89134
   D36        3.00599   0.00001   0.00093   0.00021   0.00115   3.00714
   D37        0.85699  -0.00001   0.00101  -0.00008   0.00093   0.85792
   D38        2.94064  -0.00003   0.00104  -0.00021   0.00083   2.94147
   D39       -1.22680  -0.00002   0.00088   0.00000   0.00088  -1.22592
         Item               Value     Threshold  Converged?
 Maximum Force            0.000148     0.000450     YES
 RMS     Force            0.000041     0.000300     YES
 Maximum Displacement     0.016576     0.001800     NO 
 RMS     Displacement     0.003601     0.001200     NO 
 Predicted change in Energy=-4.077090D-07
 GradGradGradGradGradGradGradGradGradGradGradGradGradGradGradGradGradGrad

                          Input orientation:                          
 ---------------------------------------------------------------------
 Center     Atomic      Atomic             Coordinates (Angstroms)
 Number     Number       Type             X           Y           Z
 ---------------------------------------------------------------------
      1          6           0        2.729989   -0.203992   -0.078885
      2          9           0        3.545659    0.315258   -0.997158
      3          9           0        3.280799    0.023710    1.119774
      4          9           0        2.657061   -1.516712   -0.261570
      5          6           0        1.370984    0.430508   -0.177008
      6          9           0        1.386130    1.736019   -0.009430
      7          6           0        0.089834   -0.285159    0.144638
      8          9           0        0.094428   -0.699830    1.433215
      9          9           0       -0.020465   -1.376495   -0.634532
     10          6           0       -1.162515    0.615735   -0.079747
     11          9           0       -1.029446    1.234100   -1.262678
     12          9           0       -1.204097    1.536790    0.892894
     13          6           0       -2.510055   -0.171933   -0.097015
     14          9           0       -2.523841   -1.073756    0.892630
     15          9           0       -2.621639   -0.805679   -1.269112
     16          6           0       -3.768267    0.730818    0.073839
     17          9           0       -4.848954    0.004141   -0.176866
     18          9           0       -3.849200    1.198773    1.310308
     19          9           0       -3.729459    1.749827   -0.776558
 ---------------------------------------------------------------------
                    Distance matrix (angstroms):
                    1          2          3          4          5
     1  C    0.000000
     2  F    1.333478   0.000000
     3  F    1.338665   2.153265   0.000000
     4  F    1.327376   2.164904   2.161032   0.000000
     5  C    1.503035   2.327046   2.344039   2.335126   0.000000
     6  F    2.361022   2.767261   2.792288   3.501300   1.316309
     7  C    2.650843   3.688756   3.350902   2.876175   1.502325
     8  F    3.078715   4.341441   3.282486   3.179100   2.345224
     9  F    3.041135   3.963681   3.992055   2.707010   2.326095
    10  C    3.977881   4.806124   4.640299   4.378304   2.542122
    11  F    4.195572   4.674009   5.071423   4.707389   2.754361
    12  F    4.410409   5.255913   4.738689   5.056204   2.999932
    13  C    5.240173   6.141603   5.920544   5.341778   3.928332
    14  F    5.413231   6.506880   5.911841   5.326362   4.310058
    15  F    5.515305   6.274234   6.421326   5.420828   4.319940
    16  C    6.566927   7.403596   7.161236   6.815330   5.154125
    17  F    7.582434   8.440332   8.232529   7.659010   6.234534
    18  F    6.869013   7.796726   7.228690   7.223302   5.482030
    19  F    6.784440   7.418490   7.464534   7.191879   5.302318
                    6          7          8          9         10
     6  F    0.000000
     7  C    2.406092   0.000000
     8  F    3.111764   1.353663   0.000000
     9  F    3.472320   1.345469   2.178681   0.000000
    10  C    2.784882   1.558954   2.366362   2.362424   0.000000
    11  F    2.767230   2.354033   3.503001   2.868417   1.341420
    12  F    2.750119   2.356617   2.642079   3.495890   1.340187
    13  C    4.339149   2.613549   3.066531   2.817437   1.560956
    14  F    4.898614   2.830667   2.699516   2.948011   2.377627
    15  F    4.910116   3.101889   3.832857   2.737632   2.358824
    16  C    5.252159   3.990259   4.337634   4.357589   2.612810
    17  F    6.473308   4.957690   5.246424   5.042810   3.738090
    18  F    5.425774   4.367703   4.378584   5.007357   3.080660
    19  F    5.172807   4.424564   5.050349   4.852906   2.891524
                   11         12         13         14         15
    11  F    0.000000
    12  F    2.183716   0.000000
    13  C    2.351149   2.367527   0.000000
    14  F    3.493533   2.925180   1.338982   0.000000
    15  F    2.587627   3.488675   1.337122   2.180495   0.000000
    16  C    3.088804   2.809877   1.557963   2.339979   2.340747
    17  F    4.156974   4.096143   2.346877   2.777019   2.609549
    18  F    3.817397   2.699085   2.377542   2.663723   3.489719
    19  F    2.791479   3.034783   2.375265   3.494614   2.828513
                   16         17         18         19
    16  C    0.000000
    17  F    1.326196   0.000000
    18  F    1.324533   2.153680   0.000000
    19  F    1.327803   2.158777   2.161714   0.000000
 Stoichiometry    C6F13(2)
 Framework group  C1[X(C6F13)]
 Deg. of freedom    51
 Full point group                 C1      NOp   1
 Largest Abelian subgroup         C1      NOp   1
 Largest concise Abelian subgroup C1      NOp   1
                         Standard orientation:                         
 ---------------------------------------------------------------------
 Center     Atomic      Atomic             Coordinates (Angstroms)
 Number     Number       Type             X           Y           Z
 ---------------------------------------------------------------------
      1          6           0       -3.400850    0.035632   -0.066979
      2          9           0       -4.164313   -0.578731   -0.971326
      3          9           0       -3.918600   -0.228269    1.138971
      4          9           0       -3.463729    1.345882   -0.270001
      5          6           0       -1.984615   -0.458030   -0.165418
      6          9           0       -1.865082   -1.755438    0.021969
      7          6           0       -0.781640    0.389888    0.136023
      8          9           0       -0.821297    0.822189    1.418188
      9          9           0       -0.788090    1.474356   -0.660328
     10          6           0        0.555050   -0.381636   -0.083859
     11          9           0        0.479225   -1.028949   -1.256311
     12          9           0        0.696255   -1.278151    0.902257
     13          6           0        1.814759    0.539340   -0.122856
     14          9           0        1.741809    1.453343    0.852926
     15          9           0        1.854184    1.162607   -1.305175
     16          6           0        3.159729   -0.227197    0.052432
     17          9           0        4.158901    0.602142   -0.217101
     18          9           0        3.295202   -0.664860    1.295205
     19          9           0        3.220580   -1.258119   -0.782169
 ---------------------------------------------------------------------
 Rotational constants (GHZ):           0.9116266           0.2112703           0.2028255
 Standard basis: 6-311+G(2d,2p) (5D, 7F)
 There are   551 symmetry adapted cartesian basis functions of A   symmetry.
 There are   513 symmetry adapted basis functions of A   symmetry.
   513 basis functions,   798 primitive gaussians,   551 cartesian basis functions
    77 alpha electrons       76 beta electrons
       nuclear repulsion energy      1875.5782760153 Hartrees.
 NAtoms=   19 NActive=   19 NUniq=   19 SFac= 1.00D+00 NAtFMM=   60 NAOKFM=F Big=F
 Integral buffers will be    131072 words long.
 Raffenetti 2 integral format.
 Two-electron integral symmetry is turned on.
 Nuclear repulsion after empirical dispersion term =     1875.5656044954 Hartrees.
 One-electron integrals computed using PRISM.
 NBasis=   513 RedAO= T EigKep=  4.11D-06  NBF=   513
 NBsUse=   513 1.00D-06 EigRej= -1.00D+00 NBFU=   513
 Initial guess from the checkpoint file:  "2_hexyl.chk"
 B after Tr=    -0.000000   -0.000000   -0.000000
         Rot=    1.000000   -0.000524   -0.000039   -0.000019 Ang=  -0.06 deg.
 Initial guess <Sx>= 0.0000 <Sy>= 0.0000 <Sz>= 0.5000 <S**2>= 0.7540 S= 0.5020
 Requested convergence on RMS density matrix=1.00D-08 within  32 cycles.
 Requested convergence on MAX density matrix=1.00D-06.
 Requested convergence on             energy=1.00D-06.
 No special actions if energy rises.
 SCF Done:  E(UwB97XD) =  -1526.59076353     A.U. after    9 cycles
            NFock=  9  Conv=0.79D-08     -V/T= 2.0025
 <Sx>= 0.0000 <Sy>= 0.0000 <Sz>= 0.5000 <S**2>= 0.7540 S= 0.5020
 <L.S>= 0.000000000000E+00
 Annihilation of the first spin contaminant:
 S**2 before annihilation     0.7540,   after     0.7500
 QCSCF skips out because SCF is already converged.
 Calling FoFJK, ICntrl=      2127 FMM=F ISym2X=0 I1Cent= 0 IOpClX= 1 NMat=1 NMatS=1 NMatT=0.
 ***** Axes restored to original set *****
 -------------------------------------------------------------------
 Center     Atomic                   Forces (Hartrees/Bohr)
 Number     Number              X              Y              Z
 -------------------------------------------------------------------
      1        6          -0.000030863   -0.000042541   -0.000038779
      2        9           0.000002862    0.000014016   -0.000012001
      3        9           0.000012464    0.000002670    0.000044622
      4        9           0.000000521    0.000019455   -0.000000758
      5        6          -0.000029049    0.000053722    0.000042056
      6        9           0.000018072   -0.000035724   -0.000014095
      7        6           0.000014687   -0.000034788   -0.000079729
      8        9           0.000024732   -0.000003602    0.000016044
      9        9          -0.000009147    0.000033798    0.000045203
     10        6          -0.000060308   -0.000160042    0.000065658
     11        9           0.000036921    0.000043425   -0.000098046
     12        9          -0.000012707    0.000037348    0.000026894
     13        6           0.000057645    0.000085250    0.000011933
     14        9          -0.000003917   -0.000018695    0.000030204
     15        9          -0.000004327   -0.000004005   -0.000043672
     16        6           0.000066295    0.000093837   -0.000014127
     17        9          -0.000075501   -0.000065647   -0.000024260
     18        9           0.000011593   -0.000009008    0.000025377
     19        9          -0.000019970   -0.000009470    0.000017474
 -------------------------------------------------------------------
 Cartesian Forces:  Max     0.000160042 RMS     0.000044856

 GradGradGradGradGradGradGradGradGradGradGradGradGradGradGradGradGradGrad
 Berny optimization.
 Using GEDIIS/GDIIS optimizer.
 FormGI is forming the generalized inverse of G from B-inverse, IUseBI=4.
 Internal  Forces:  Max     0.000110411 RMS     0.000025876
 Search for a local minimum.
 Step number  12 out of a maximum of  100
 All quantities printed in internal units (Hartrees-Bohrs-Radians)
 Mixed Optimization -- En-DIIS/RFO-DIIS
 Swapping is turned off.
 Update second derivatives using D2CorX and points    2    5    6    7    8
                                                      9   10   11   12
 DE= -3.76D-07 DEPred=-4.08D-07 R= 9.22D-01
 Trust test= 9.22D-01 RLast= 1.42D-02 DXMaxT set to 4.24D-01
 ITU=  0  1  1  1 -1  1  1  0  1  1  0  0
     Eigenvalues ---    0.00125   0.00221   0.00435   0.00718   0.00839
     Eigenvalues ---    0.01234   0.05241   0.05602   0.06676   0.07077
     Eigenvalues ---    0.07632   0.08645   0.08993   0.10191   0.11030
     Eigenvalues ---    0.11517   0.13259   0.13896   0.15949   0.17992
     Eigenvalues ---    0.19397   0.20639   0.21184   0.22077   0.23552
     Eigenvalues ---    0.24946   0.25000   0.25032   0.25465   0.25788
     Eigenvalues ---    0.25979   0.26835   0.27335   0.29137   0.30652
     Eigenvalues ---    0.32665   0.34679   0.37547   0.39675   0.53632
     Eigenvalues ---    0.54303   0.55355   0.55788   0.56902   0.57572
     Eigenvalues ---    0.57994   0.58793   0.59921   0.60219   0.60625
     Eigenvalues ---    0.63191
 En-DIIS/RFO-DIIS/Sim-DIIS IScMMF=       -3 using points:    12   11   10    9    8    7    6    5    4
 RFO step:  Lambda=-4.25999147D-07.
 DIIS inversion failure, remove point   9.
 RFO-DIIS uses    8 points instead of    9
 DidBck=F Rises=F RFO-DIIS coefs:    1.44217   -0.28618   -0.16708   -0.16540    0.16021
                  RFO-DIIS coefs:   -0.02231    0.04313   -0.00454    0.00000
 Iteration  1 RMS(Cart)=  0.00202144 RMS(Int)=  0.00000157
 Iteration  2 RMS(Cart)=  0.00000273 RMS(Int)=  0.00000037
 Iteration  3 RMS(Cart)=  0.00000000 RMS(Int)=  0.00000037
 Variable       Old X    -DE/DX   Delta X   Delta X   Delta X     New X
                                 (Linear)    (Quad)   (Total)
    R1        2.51991   0.00002   0.00000   0.00002   0.00002   2.51993
    R2        2.52971   0.00005   0.00005   0.00006   0.00011   2.52982
    R3        2.50838  -0.00002  -0.00008  -0.00000  -0.00008   2.50830
    R4        2.84032  -0.00001   0.00003  -0.00002   0.00002   2.84034
    R5        2.48746  -0.00004   0.00008  -0.00008  -0.00000   2.48746
    R6        2.83898  -0.00002   0.00002  -0.00008  -0.00005   2.83893
    R7        2.55805   0.00002   0.00001   0.00003   0.00004   2.55810
    R8        2.54257  -0.00005  -0.00024   0.00003  -0.00021   2.54236
    R9        2.94600  -0.00000   0.00026  -0.00019   0.00007   2.94606
   R10        2.53492   0.00011   0.00014   0.00009   0.00023   2.53515
   R11        2.53259   0.00005  -0.00000   0.00007   0.00007   2.53266
   R12        2.94978  -0.00006  -0.00052   0.00020  -0.00032   2.94946
   R13        2.53031   0.00004   0.00008   0.00002   0.00010   2.53041
   R14        2.52679   0.00004   0.00011  -0.00003   0.00008   2.52688
   R15        2.94412   0.00002   0.00006  -0.00003   0.00004   2.94416
   R16        2.50615   0.00010   0.00019   0.00002   0.00021   2.50636
   R17        2.50300   0.00002   0.00001   0.00002   0.00002   2.50303
   R18        2.50918  -0.00002  -0.00001  -0.00003  -0.00004   2.50915
    A1        1.87411   0.00001   0.00002   0.00001   0.00003   1.87415
    A2        1.90067   0.00001   0.00001   0.00002   0.00003   1.90070
    A3        1.92169  -0.00002  -0.00015  -0.00002  -0.00017   1.92151
    A4        1.89026   0.00000  -0.00004   0.00002  -0.00003   1.89024
    A5        1.93765  -0.00001  -0.00008   0.00000  -0.00008   1.93758
    A6        1.93780   0.00000   0.00024  -0.00002   0.00021   1.93802
    A7        1.98228  -0.00001  -0.00038   0.00017  -0.00021   1.98207
    A8        2.16034  -0.00002   0.00044  -0.00012   0.00032   2.16066
    A9        2.04319   0.00003  -0.00019  -0.00000  -0.00019   2.04300
   A10        1.92500  -0.00002   0.00007  -0.00014  -0.00007   1.92492
   A11        1.90956   0.00002  -0.00004   0.00023   0.00019   1.90975
   A12        1.95946  -0.00002  -0.00009  -0.00006  -0.00015   1.95931
   A13        1.87871  -0.00001  -0.00004   0.00011   0.00007   1.87878
   A14        1.89311   0.00003  -0.00002   0.00006   0.00005   1.89316
   A15        1.89602  -0.00000   0.00012  -0.00020  -0.00007   1.89595
   A16        1.88981  -0.00003  -0.00027   0.00006  -0.00021   1.88960
   A17        1.89402  -0.00000   0.00004   0.00009   0.00013   1.89415
   A18        1.98612   0.00004   0.00024  -0.00019   0.00005   1.98617
   A19        1.90315   0.00001   0.00005  -0.00013  -0.00008   1.90307
   A20        1.88441   0.00000   0.00013  -0.00005   0.00008   1.88449
   A21        1.90502  -0.00002  -0.00019   0.00021   0.00002   1.90504
   A22        1.91832  -0.00001  -0.00018   0.00008  -0.00010   1.91822
   A23        1.89748  -0.00002   0.00021  -0.00024  -0.00003   1.89745
   A24        1.98622   0.00005   0.00011   0.00010   0.00021   1.98644
   A25        1.90477   0.00002  -0.00014   0.00012  -0.00002   1.90475
   A26        1.87643  -0.00003   0.00007  -0.00018  -0.00011   1.87632
   A27        1.87902  -0.00001  -0.00007   0.00012   0.00004   1.87907
   A28        1.89638  -0.00003   0.00012  -0.00022  -0.00010   1.89628
   A29        1.93525  -0.00004   0.00009  -0.00021  -0.00011   1.93514
   A30        1.92927   0.00005   0.00010   0.00003   0.00013   1.92940
   A31        1.89681   0.00002  -0.00019   0.00018  -0.00001   1.89680
   A32        1.89996  -0.00001  -0.00000  -0.00001  -0.00001   1.89995
   A33        1.90554   0.00000  -0.00013   0.00023   0.00010   1.90564
    D1       -1.03006   0.00001   0.00082   0.00047   0.00129  -1.02876
    D2        2.58676   0.00000   0.00118   0.00036   0.00154   2.58830
    D3        1.04298   0.00001   0.00071   0.00047   0.00118   1.04416
    D4       -1.62339  -0.00000   0.00107   0.00036   0.00143  -1.62196
    D5       -3.13635   0.00001   0.00076   0.00048   0.00124  -3.13512
    D6        0.48046  -0.00000   0.00112   0.00037   0.00148   0.48195
    D7        1.05080  -0.00000   0.00324   0.00008   0.00331   1.05411
    D8       -1.01257   0.00000   0.00327  -0.00011   0.00316  -1.00942
    D9       -3.11898   0.00001   0.00320   0.00002   0.00322  -3.11576
   D10       -1.60046  -0.00000   0.00364  -0.00008   0.00357  -1.59690
   D11        2.61936   0.00000   0.00367  -0.00027   0.00341   2.62277
   D12        0.51295   0.00001   0.00361  -0.00014   0.00347   0.51642
   D13        0.80058  -0.00000  -0.00116   0.00011  -0.00104   0.79954
   D14       -1.26292   0.00001  -0.00108   0.00018  -0.00090  -1.26382
   D15        2.89581   0.00001  -0.00103  -0.00002  -0.00105   2.89476
   D16        2.93222  -0.00002  -0.00114  -0.00006  -0.00120   2.93102
   D17        0.86872  -0.00001  -0.00107   0.00001  -0.00106   0.86766
   D18       -1.25574  -0.00001  -0.00101  -0.00020  -0.00121  -1.25695
   D19       -1.31362  -0.00001  -0.00113  -0.00000  -0.00113  -1.31475
   D20        2.90607  -0.00000  -0.00105   0.00007  -0.00099   2.90508
   D21        0.78161  -0.00000  -0.00100  -0.00014  -0.00114   0.78047
   D22        0.75802   0.00000  -0.00191   0.00012  -0.00179   0.75624
   D23       -1.32583   0.00000  -0.00175   0.00007  -0.00169  -1.32752
   D24        2.86349  -0.00001  -0.00188   0.00002  -0.00186   2.86163
   D25        2.85630  -0.00001  -0.00201   0.00004  -0.00196   2.85434
   D26        0.77244  -0.00001  -0.00185  -0.00001  -0.00186   0.77058
   D27       -1.32143  -0.00002  -0.00198  -0.00006  -0.00203  -1.32346
   D28       -1.36032  -0.00001  -0.00198  -0.00002  -0.00200  -1.36232
   D29        2.83901  -0.00001  -0.00183  -0.00008  -0.00190   2.83711
   D30        0.74514  -0.00002  -0.00195  -0.00012  -0.00207   0.74307
   D31        2.96217   0.00001  -0.00066  -0.00014  -0.00079   2.96138
   D32       -1.23746  -0.00001  -0.00075  -0.00018  -0.00094  -1.23839
   D33        0.87834   0.00000  -0.00078  -0.00001  -0.00080   0.87754
   D34       -1.19221   0.00001  -0.00077  -0.00010  -0.00086  -1.19307
   D35        0.89134  -0.00001  -0.00086  -0.00014  -0.00101   0.89034
   D36        3.00714   0.00000  -0.00089   0.00003  -0.00086   3.00627
   D37        0.85792   0.00000  -0.00094   0.00002  -0.00092   0.85700
   D38        2.94147  -0.00001  -0.00104  -0.00003  -0.00106   2.94041
   D39       -1.22592  -0.00000  -0.00107   0.00014  -0.00092  -1.22684
         Item               Value     Threshold  Converged?
 Maximum Force            0.000110     0.000450     YES
 RMS     Force            0.000026     0.000300     YES
 Maximum Displacement     0.008365     0.001800     NO 
 RMS     Displacement     0.002022     0.001200     NO 
 Predicted change in Energy=-2.054167D-07
 GradGradGradGradGradGradGradGradGradGradGradGradGradGradGradGradGradGrad

                          Input orientation:                          
 ---------------------------------------------------------------------
 Center     Atomic      Atomic             Coordinates (Angstroms)
 Number     Number       Type             X           Y           Z
 ---------------------------------------------------------------------
      1          6           0        2.729841   -0.204442   -0.080156
      2          9           0        3.544818    0.316716   -0.997979
      3          9           0        3.281510    0.020837    1.118629
      4          9           0        2.656814   -1.516752   -0.265423
      5          6           0        1.370881    0.430519   -0.176028
      6          9           0        1.386858    1.735863   -0.007234
      7          6           0        0.089731   -0.284594    0.146715
      8          9           0        0.094025   -0.696458    1.436218
      9          9           0       -0.020483   -1.377477   -0.630105
     10          6           0       -1.162526    0.615909   -0.079983
     11          9           0       -1.028142    1.232742   -1.263703
     12          9           0       -1.205173    1.538375    0.891326
     13          6           0       -2.509859   -0.171772   -0.097566
     14          9           0       -2.523507   -1.073898    0.891876
     15          9           0       -2.621238   -0.805275   -1.269865
     16          6           0       -3.768358    0.730559    0.073579
     17          9           0       -4.848783    0.003751   -0.178457
     18          9           0       -3.849980    1.197025    1.310578
     19          9           0       -3.729481    1.750489   -0.775681
 ---------------------------------------------------------------------
                    Distance matrix (angstroms):
                    1          2          3          4          5
     1  C    0.000000
     2  F    1.333489   0.000000
     3  F    1.338722   2.153348   0.000000
     4  F    1.327334   2.164901   2.161024   0.000000
     5  C    1.503044   2.326921   2.344031   2.335269   0.000000
     6  F    2.360870   2.766288   2.792595   3.501280   1.316309
     7  C    2.651051   3.689109   3.350426   2.877149   1.502296
     8  F    3.080422   4.342789   3.282596   3.183764   2.345160
     9  F    3.040187   3.964466   3.989550   2.705607   2.326140
    10  C    3.977876   4.805343   4.641146   4.378355   2.541996
    11  F    4.193890   4.671368   5.071225   4.704804   2.753527
    12  F    4.411975   5.255887   4.741826   5.058342   3.000440
    13  C    5.239831   6.140723   5.920826   5.341504   3.927984
    14  F    5.412806   6.506146   5.911690   5.326461   4.309286
    15  F    5.514567   6.273200   6.421043   5.419681   4.319801
    16  C    6.566920   7.402840   7.162155   6.815289   5.154037
    17  F    7.582120   8.439319   8.233127   7.658556   6.234288
    18  F    6.869665   7.796629   7.230381   7.224039   5.482236
    19  F    6.784420   7.417584   7.465527   7.191662   5.302414
                    6          7          8          9         10
     6  F    0.000000
     7  C    2.405927   0.000000
     8  F    3.109848   1.353687   0.000000
     9  F    3.472962   1.345358   2.178666   0.000000
    10  C    2.785489   1.558989   2.366451   2.362305   0.000000
    11  F    2.768406   2.353981   3.502948   2.868809   1.341542
    12  F    2.750461   2.356786   2.641837   3.495774   1.340225
    13  C    4.339544   2.613479   3.067247   2.816792   1.560788
    14  F    4.898378   2.829714   2.700045   2.945117   2.377441
    15  F    4.910851   3.102767   3.835020   2.738729   2.358691
    16  C    5.252943   3.990079   4.337184   4.357241   2.612869
    17  F    6.474005   4.957600   5.246791   5.042247   3.738037
    18  F    5.426918   4.367047   4.376784   5.005932   3.081195
    19  F    5.173746   4.424789   5.049678   4.854073   2.891458
                   11         12         13         14         15
    11  F    0.000000
    12  F    2.183782   0.000000
    13  C    2.351174   2.367429   0.000000
    14  F    3.493311   2.926085   1.339034   0.000000
    15  F    2.586794   3.488364   1.337166   2.180558   0.000000
    16  C    3.090192   2.809126   1.557983   2.339942   2.340835
    17  F    4.157580   4.095778   2.346895   2.777381   2.609147
    18  F    3.819812   2.699499   2.377478   2.663068   3.489656
    19  F    2.793467   3.032496   2.375375   3.494607   2.829196
                   16         17         18         19
    16  C    0.000000
    17  F    1.326307   0.000000
    18  F    1.324545   2.153773   0.000000
    19  F    1.327784   2.158844   2.161786   0.000000
 Stoichiometry    C6F13(2)
 Framework group  C1[X(C6F13)]
 Deg. of freedom    51
 Full point group                 C1      NOp   1
 Largest Abelian subgroup         C1      NOp   1
 Largest concise Abelian subgroup C1      NOp   1
                         Standard orientation:                         
 ---------------------------------------------------------------------
 Center     Atomic      Atomic             Coordinates (Angstroms)
 Number     Number       Type             X           Y           Z
 ---------------------------------------------------------------------
      1          6           0       -3.400754    0.036089   -0.068041
      2          9           0       -4.163385   -0.579989   -0.971941
      3          9           0       -3.919537   -0.225623    1.138005
      4          9           0       -3.463516    1.345924   -0.273487
      5          6           0       -1.984511   -0.457993   -0.164361
      6          9           0       -1.865808   -1.755323    0.024092
      7          6           0       -0.781453    0.389353    0.138212
      8          9           0       -0.820443    0.818763    1.421393
      9          9           0       -0.788175    1.475477   -0.655690
     10          6           0        0.555077   -0.381807   -0.084153
     11          9           0        0.477713   -1.027610   -1.257476
     12          9           0        0.697533   -1.279750    0.900534
     13          6           0        1.814578    0.539157   -0.123433
     14          9           0        1.741517    1.453332    0.852250
     15          9           0        1.853756    1.162290   -1.305881
     16          6           0        3.159799   -0.226954    0.051971
     17          9           0        4.158676    0.602496   -0.218856
     18          9           0        3.295879   -0.663197    1.295190
     19          9           0        3.220631   -1.258686   -0.781597
 ---------------------------------------------------------------------
 Rotational constants (GHZ):           0.9115590           0.2112637           0.2028305
 Standard basis: 6-311+G(2d,2p) (5D, 7F)
 There are   551 symmetry adapted cartesian basis functions of A   symmetry.
 There are   513 symmetry adapted basis functions of A   symmetry.
   513 basis functions,   798 primitive gaussians,   551 cartesian basis functions
    77 alpha electrons       76 beta electrons
       nuclear repulsion energy      1875.5578700531 Hartrees.
 NAtoms=   19 NActive=   19 NUniq=   19 SFac= 1.00D+00 NAtFMM=   60 NAOKFM=F Big=F
 Integral buffers will be    131072 words long.
 Raffenetti 2 integral format.
 Two-electron integral symmetry is turned on.
 Nuclear repulsion after empirical dispersion term =     1875.5451987530 Hartrees.
 One-electron integrals computed using PRISM.
 NBasis=   513 RedAO= T EigKep=  4.12D-06  NBF=   513
 NBsUse=   513 1.00D-06 EigRej= -1.00D+00 NBFU=   513
 Initial guess from the checkpoint file:  "2_hexyl.chk"
 B after Tr=     0.000000   -0.000000    0.000000
         Rot=    1.000000   -0.000055   -0.000028    0.000001 Ang=  -0.01 deg.
 Initial guess <Sx>= 0.0000 <Sy>= 0.0000 <Sz>= 0.5000 <S**2>= 0.7540 S= 0.5020
 Requested convergence on RMS density matrix=1.00D-08 within  32 cycles.
 Requested convergence on MAX density matrix=1.00D-06.
 Requested convergence on             energy=1.00D-06.
 No special actions if energy rises.
 SCF Done:  E(UwB97XD) =  -1526.59076378     A.U. after    9 cycles
            NFock=  9  Conv=0.53D-08     -V/T= 2.0025
 <Sx>= 0.0000 <Sy>= 0.0000 <Sz>= 0.5000 <S**2>= 0.7540 S= 0.5020
 <L.S>= 0.000000000000E+00
 Annihilation of the first spin contaminant:
 S**2 before annihilation     0.7540,   after     0.7500
 QCSCF skips out because SCF is already converged.
 Calling FoFJK, ICntrl=      2127 FMM=F ISym2X=0 I1Cent= 0 IOpClX= 1 NMat=1 NMatS=1 NMatT=0.
 ***** Axes restored to original set *****
 -------------------------------------------------------------------
 Center     Atomic                   Forces (Hartrees/Bohr)
 Number     Number              X              Y              Z
 -------------------------------------------------------------------
      1        6          -0.000025519   -0.000017905   -0.000020306
      2        9           0.000002936    0.000003505    0.000002831
      3        9           0.000011751   -0.000004377    0.000017168
      4        9           0.000005145    0.000009607    0.000000761
      5        6           0.000001799    0.000033891    0.000008794
      6        9          -0.000006821   -0.000030283   -0.000009204
      7        6          -0.000002987    0.000000966   -0.000029682
      8        9           0.000008041   -0.000005016    0.000017278
      9        9          -0.000004720    0.000008257    0.000007233
     10        6           0.000007351   -0.000040775    0.000025186
     11        9           0.000002506    0.000022309   -0.000024461
     12        9          -0.000006787    0.000010094    0.000003201
     13        6          -0.000001199    0.000001662   -0.000006386
     14        9          -0.000005791   -0.000006461    0.000010576
     15        9           0.000005399    0.000006253   -0.000004715
     16        6           0.000018121    0.000036953   -0.000009006
     17        9          -0.000013522   -0.000009969   -0.000004601
     18        9           0.000007850   -0.000001855   -0.000006009
     19        9          -0.000003555   -0.000016856    0.000021342
 -------------------------------------------------------------------
 Cartesian Forces:  Max     0.000040775 RMS     0.000014838

 GradGradGradGradGradGradGradGradGradGradGradGradGradGradGradGradGradGrad
 Berny optimization.
 Using GEDIIS/GDIIS optimizer.
 FormGI is forming the generalized inverse of G from B-inverse, IUseBI=4.
 Internal  Forces:  Max     0.000032346 RMS     0.000008630
 Search for a local minimum.
 Step number  13 out of a maximum of  100
 All quantities printed in internal units (Hartrees-Bohrs-Radians)
 Mixed Optimization -- En-DIIS/RFO-DIIS
 Swapping is turned off.
 Update second derivatives using D2CorX and points    5    6    7    8    9
                                                     10   11   12   13
 DE= -2.49D-07 DEPred=-2.05D-07 R= 1.21D+00
 Trust test= 1.21D+00 RLast= 1.14D-02 DXMaxT set to 4.24D-01
 ITU=  0  0  1  1  1 -1  1  1  0  1  1  0  0
     Eigenvalues ---    0.00127   0.00223   0.00427   0.00676   0.00863
     Eigenvalues ---    0.01224   0.05215   0.05594   0.06614   0.07040
     Eigenvalues ---    0.07650   0.08643   0.09006   0.10084   0.11029
     Eigenvalues ---    0.11518   0.13345   0.13917   0.15945   0.18225
     Eigenvalues ---    0.18923   0.20065   0.20903   0.22104   0.23582
     Eigenvalues ---    0.24731   0.24996   0.25029   0.25359   0.25778
     Eigenvalues ---    0.25993   0.26681   0.27629   0.28850   0.30923
     Eigenvalues ---    0.32787   0.35043   0.38364   0.39822   0.49642
     Eigenvalues ---    0.54361   0.55492   0.55568   0.56633   0.57535
     Eigenvalues ---    0.57649   0.58791   0.59727   0.60030   0.60683
     Eigenvalues ---    0.63239
 En-DIIS/RFO-DIIS/Sim-DIIS IScMMF=       -3 using points:    13   12   11   10    9    8    7    6    5    4
 RFO step:  Lambda=-3.80410903D-08.
 DIIS inversion failure, remove point  10.
 DIIS inversion failure, remove point   9.
 DIIS inversion failure, remove point   8.
 RFO-DIIS uses    7 points instead of   10
 DidBck=F Rises=F RFO-DIIS coefs:    1.26745   -0.02492   -0.41857    0.23600   -0.03038
                  RFO-DIIS coefs:   -0.01302   -0.01658    0.00000    0.00000    0.00000
 Iteration  1 RMS(Cart)=  0.00036198 RMS(Int)=  0.00000010
 Iteration  2 RMS(Cart)=  0.00000011 RMS(Int)=  0.00000005
 Variable       Old X    -DE/DX   Delta X   Delta X   Delta X     New X
                                 (Linear)    (Quad)   (Total)
    R1        2.51993   0.00000  -0.00000   0.00001   0.00001   2.51994
    R2        2.52982   0.00002   0.00002   0.00004   0.00006   2.52988
    R3        2.50830  -0.00001  -0.00001  -0.00002  -0.00003   2.50827
    R4        2.84034  -0.00000   0.00005  -0.00007  -0.00002   2.84032
    R5        2.48746  -0.00003  -0.00001  -0.00005  -0.00006   2.48740
    R6        2.83893  -0.00001   0.00001  -0.00005  -0.00004   2.83889
    R7        2.55810   0.00002   0.00002   0.00002   0.00004   2.55814
    R8        2.54236  -0.00001  -0.00004  -0.00001  -0.00005   2.54230
    R9        2.94606  -0.00001  -0.00000  -0.00003  -0.00004   2.94603
   R10        2.53515   0.00003   0.00007   0.00003   0.00010   2.53524
   R11        2.53266   0.00001   0.00002   0.00001   0.00003   2.53268
   R12        2.94946  -0.00001  -0.00003  -0.00007  -0.00011   2.94936
   R13        2.53041   0.00001   0.00002   0.00003   0.00005   2.53046
   R14        2.52688   0.00000   0.00002   0.00001   0.00002   2.52690
   R15        2.94416  -0.00000   0.00001  -0.00001  -0.00000   2.94416
   R16        2.50636   0.00002   0.00007  -0.00003   0.00004   2.50639
   R17        2.50303  -0.00001  -0.00001  -0.00002  -0.00003   2.50300
   R18        2.50915  -0.00003  -0.00004  -0.00005  -0.00009   2.50906
    A1        1.87415  -0.00001  -0.00010   0.00011   0.00000   1.87415
    A2        1.90070  -0.00000  -0.00003   0.00005   0.00002   1.90072
    A3        1.92151  -0.00000  -0.00000  -0.00004  -0.00004   1.92147
    A4        1.89024  -0.00001  -0.00004   0.00001  -0.00003   1.89020
    A5        1.93758   0.00001   0.00002  -0.00000   0.00001   1.93759
    A6        1.93802   0.00001   0.00015  -0.00011   0.00004   1.93805
    A7        1.98207   0.00001   0.00001   0.00002   0.00002   1.98209
    A8        2.16066  -0.00001   0.00008  -0.00006   0.00001   2.16067
    A9        2.04300  -0.00001   0.00000  -0.00004  -0.00004   2.04296
   A10        1.92492  -0.00000  -0.00003  -0.00001  -0.00004   1.92488
   A11        1.90975   0.00001   0.00008  -0.00001   0.00007   1.90982
   A12        1.95931  -0.00001  -0.00006   0.00001  -0.00005   1.95926
   A13        1.87878  -0.00000   0.00007  -0.00007  -0.00001   1.87877
   A14        1.89316   0.00001  -0.00004   0.00006   0.00002   1.89318
   A15        1.89595  -0.00000  -0.00001   0.00001   0.00000   1.89595
   A16        1.88960  -0.00000  -0.00009   0.00010   0.00001   1.88961
   A17        1.89415   0.00000  -0.00001   0.00007   0.00006   1.89420
   A18        1.98617   0.00001   0.00011  -0.00007   0.00004   1.98621
   A19        1.90307  -0.00000  -0.00004  -0.00002  -0.00006   1.90301
   A20        1.88449  -0.00000   0.00003  -0.00006  -0.00003   1.88446
   A21        1.90504  -0.00001   0.00000  -0.00002  -0.00002   1.90502
   A22        1.91822   0.00001  -0.00004   0.00004  -0.00000   1.91822
   A23        1.89745  -0.00000   0.00003  -0.00007  -0.00004   1.89741
   A24        1.98644  -0.00001   0.00013  -0.00016  -0.00004   1.98640
   A25        1.90475   0.00000  -0.00001   0.00005   0.00004   1.90479
   A26        1.87632  -0.00000  -0.00007   0.00007  -0.00000   1.87631
   A27        1.87907   0.00001  -0.00004   0.00009   0.00005   1.87912
   A28        1.89628  -0.00000  -0.00004   0.00001  -0.00002   1.89626
   A29        1.93514  -0.00001  -0.00002   0.00000  -0.00002   1.93511
   A30        1.92940   0.00001   0.00008  -0.00002   0.00006   1.92946
   A31        1.89680   0.00001  -0.00002   0.00003   0.00001   1.89680
   A32        1.89995  -0.00000   0.00003  -0.00005  -0.00002   1.89994
   A33        1.90564  -0.00000  -0.00003   0.00003  -0.00000   1.90563
    D1       -1.02876   0.00000   0.00054   0.00014   0.00068  -1.02808
    D2        2.58830   0.00001   0.00035   0.00035   0.00070   2.58900
    D3        1.04416   0.00000   0.00042   0.00025   0.00067   1.04483
    D4       -1.62196   0.00000   0.00023   0.00046   0.00069  -1.62127
    D5       -3.13512   0.00000   0.00049   0.00018   0.00066  -3.13445
    D6        0.48195   0.00000   0.00030   0.00039   0.00068   0.48263
    D7        1.05411  -0.00000   0.00063  -0.00028   0.00035   1.05446
    D8       -1.00942  -0.00000   0.00052  -0.00018   0.00034  -1.00908
    D9       -3.11576   0.00000   0.00052  -0.00020   0.00032  -3.11544
   D10       -1.59690  -0.00000   0.00043  -0.00008   0.00036  -1.59654
   D11        2.62277  -0.00000   0.00032   0.00002   0.00034   2.62311
   D12        0.51642  -0.00000   0.00032   0.00000   0.00032   0.51675
   D13        0.79954  -0.00000  -0.00024  -0.00001  -0.00026   0.79928
   D14       -1.26382   0.00000  -0.00013  -0.00009  -0.00022  -1.26403
   D15        2.89476   0.00000  -0.00020  -0.00006  -0.00026   2.89450
   D16        2.93102  -0.00001  -0.00034   0.00002  -0.00032   2.93070
   D17        0.86766  -0.00000  -0.00023  -0.00005  -0.00028   0.86738
   D18       -1.25695  -0.00000  -0.00030  -0.00002  -0.00033  -1.25727
   D19       -1.31475  -0.00000  -0.00029  -0.00002  -0.00032  -1.31507
   D20        2.90508  -0.00000  -0.00018  -0.00010  -0.00028   2.90480
   D21        0.78047  -0.00000  -0.00025  -0.00007  -0.00032   0.78015
   D22        0.75624   0.00000  -0.00012   0.00003  -0.00009   0.75615
   D23       -1.32752  -0.00000  -0.00010  -0.00001  -0.00011  -1.32763
   D24        2.86163  -0.00000  -0.00015   0.00003  -0.00012   2.86151
   D25        2.85434   0.00001  -0.00014   0.00007  -0.00007   2.85426
   D26        0.77058   0.00000  -0.00013   0.00004  -0.00009   0.77049
   D27       -1.32346   0.00000  -0.00018   0.00007  -0.00010  -1.32356
   D28       -1.36232  -0.00000  -0.00018   0.00001  -0.00017  -1.36250
   D29        2.83711  -0.00001  -0.00016  -0.00003  -0.00019   2.83691
   D30        0.74307  -0.00001  -0.00021   0.00001  -0.00020   0.74286
   D31        2.96138  -0.00000   0.00020  -0.00007   0.00013   2.96151
   D32       -1.23839  -0.00000   0.00014  -0.00003   0.00011  -1.23829
   D33        0.87754  -0.00000   0.00014  -0.00001   0.00013   0.87767
   D34       -1.19307   0.00000   0.00018  -0.00009   0.00010  -1.19297
   D35        0.89034   0.00000   0.00012  -0.00004   0.00008   0.89041
   D36        3.00627  -0.00000   0.00012  -0.00002   0.00010   3.00637
   D37        0.85700   0.00001   0.00011   0.00005   0.00016   0.85716
   D38        2.94041   0.00001   0.00005   0.00010   0.00014   2.94055
   D39       -1.22684   0.00000   0.00005   0.00012   0.00016  -1.22668
         Item               Value     Threshold  Converged?
 Maximum Force            0.000032     0.000450     YES
 RMS     Force            0.000009     0.000300     YES
 Maximum Displacement     0.001862     0.001800     NO 
 RMS     Displacement     0.000362     0.001200     YES
 Predicted change in Energy=-1.780095D-08
 GradGradGradGradGradGradGradGradGradGradGradGradGradGradGradGradGradGrad

                          Input orientation:                          
 ---------------------------------------------------------------------
 Center     Atomic      Atomic             Coordinates (Angstroms)
 Number     Number       Type             X           Y           Z
 ---------------------------------------------------------------------
      1          6           0        2.729769   -0.204473   -0.080363
      2          9           0        3.544788    0.317306   -0.997803
      3          9           0        3.281342    0.020095    1.118635
      4          9           0        2.656848   -1.516662   -0.266408
      5          6           0        1.370809    0.430499   -0.175982
      6          9           0        1.386804    1.735813   -0.007205
      7          6           0        0.089721   -0.284568    0.147020
      8          9           0        0.094121   -0.696001    1.436684
      9          9           0       -0.020545   -1.377696   -0.629397
     10          6           0       -1.162529    0.615853   -0.079911
     11          9           0       -1.028029    1.232607   -1.263717
     12          9           0       -1.205367    1.538476    0.891259
     13          6           0       -2.509815   -0.171796   -0.097601
     14          9           0       -2.523548   -1.073926    0.891870
     15          9           0       -2.621064   -0.805277   -1.269937
     16          6           0       -3.768288    0.730582    0.073475
     17          9           0       -4.848733    0.003745   -0.178496
     18          9           0       -3.849875    1.197118    1.310432
     19          9           0       -3.729460    1.750427   -0.775817
 ---------------------------------------------------------------------
                    Distance matrix (angstroms):
                    1          2          3          4          5
     1  C    0.000000
     2  F    1.333494   0.000000
     3  F    1.338753   2.153380   0.000000
     4  F    1.327317   2.164905   2.161009   0.000000
     5  C    1.503033   2.326883   2.344057   2.335275   0.000000
     6  F    2.360851   2.765924   2.792933   3.501256   1.316277
     7  C    2.651033   3.689222   3.350120   2.877346   1.502277
     8  F    3.080531   4.342881   3.282123   3.184585   2.345128
     9  F    3.040086   3.964890   3.988972   2.705459   2.326160
    10  C    3.977804   4.805256   4.641059   4.378361   2.541926
    11  F    4.193635   4.671096   5.071140   4.704405   2.753355
    12  F    4.412167   5.255833   4.742124   5.058732   3.000550
    13  C    5.239715   6.140668   5.920604   5.341495   3.927868
    14  F    5.412812   6.506235   5.911434   5.326738   4.309248
    15  F    5.514296   6.273115   6.420663   5.419363   4.319598
    16  C    6.566791   7.402669   7.162014   6.815278   5.153891
    17  F    7.581997   8.439240   8.232918   7.658532   6.234166
    18  F    6.869533   7.796349   7.230244   7.224159   5.482032
    19  F    6.784315   7.417398   7.465544   7.191544   5.302335
                    6          7          8          9         10
     6  F    0.000000
     7  C    2.405857   0.000000
     8  F    3.109592   1.353709   0.000000
     9  F    3.472995   1.345329   2.178657   0.000000
    10  C    2.785444   1.558970   2.366472   2.362266   0.000000
    11  F    2.768295   2.354010   3.502986   2.868984   1.341593
    12  F    2.750551   2.356827   2.641788   3.495749   1.340239
    13  C    4.339446   2.613454   3.067458   2.816641   1.560732
    14  F    4.898349   2.829676   2.700341   2.944750   2.377412
    15  F    4.910665   3.102782   3.835357   2.738732   2.358621
    16  C    5.252807   3.990009   4.337244   4.357115   2.612790
    17  F    6.473896   4.957561   5.246928   5.042131   3.737980
    18  F    5.426709   4.366845   4.376636   5.005634   3.081031
    19  F    5.173697   4.424814   5.049747   4.854137   2.891484
                   11         12         13         14         15
    11  F    0.000000
    12  F    2.183787   0.000000
    13  C    2.351142   2.367374   0.000000
    14  F    3.493312   2.926132   1.339059   0.000000
    15  F    2.586652   3.488287   1.337179   2.180617   0.000000
    16  C    3.090167   2.808919   1.557982   2.339957   2.340886
    17  F    4.157594   4.095594   2.346890   2.777326   2.609266
    18  F    3.819728   2.699195   2.377445   2.663077   3.489681
    19  F    2.793549   3.032344   2.375385   3.494621   2.829191
                   16         17         18         19
    16  C    0.000000
    17  F    1.326327   0.000000
    18  F    1.324528   2.153779   0.000000
    19  F    1.327738   2.158811   2.161733   0.000000
 Stoichiometry    C6F13(2)
 Framework group  C1[X(C6F13)]
 Deg. of freedom    51
 Full point group                 C1      NOp   1
 Largest Abelian subgroup         C1      NOp   1
 Largest concise Abelian subgroup C1      NOp   1
                         Standard orientation:                         
 ---------------------------------------------------------------------
 Center     Atomic      Atomic             Coordinates (Angstroms)
 Number     Number       Type             X           Y           Z
 ---------------------------------------------------------------------
      1          6           0       -3.400687    0.036094   -0.068222
      2          9           0       -4.163295   -0.580698   -0.971661
      3          9           0       -3.919434   -0.224781    1.138055
      4          9           0       -3.463558    1.345764   -0.274576
      5          6           0       -1.984438   -0.457995   -0.164252
      6          9           0       -1.865745   -1.755277    0.024313
      7          6           0       -0.781439    0.389343    0.138486
      8          9           0       -0.820483    0.818444    1.421793
      9          9           0       -0.788147    1.475643   -0.655125
     10          6           0        0.555078   -0.381752   -0.084047
     11          9           0        0.477584   -1.027609   -1.257390
     12          9           0        0.697754   -1.279734    0.900591
     13          6           0        1.814527    0.539179   -0.123535
     14          9           0        1.741552    1.453465    0.852085
     15          9           0        1.853563    1.162159   -1.306082
     16          6           0        3.159735   -0.226954    0.051867
     17          9           0        4.158620    0.602509   -0.218988
     18          9           0        3.295800   -0.663145    1.295088
     19          9           0        3.220607   -1.258681   -0.781633
 ---------------------------------------------------------------------
 Rotational constants (GHZ):           0.9115475           0.2112692           0.2028369
 Standard basis: 6-311+G(2d,2p) (5D, 7F)
 There are   551 symmetry adapted cartesian basis functions of A   symmetry.
 There are   513 symmetry adapted basis functions of A   symmetry.
   513 basis functions,   798 primitive gaussians,   551 cartesian basis functions
    77 alpha electrons       76 beta electrons
       nuclear repulsion energy      1875.5700560833 Hartrees.
 NAtoms=   19 NActive=   19 NUniq=   19 SFac= 1.00D+00 NAtFMM=   60 NAOKFM=F Big=F
 Integral buffers will be    131072 words long.
 Raffenetti 2 integral format.
 Two-electron integral symmetry is turned on.
 Nuclear repulsion after empirical dispersion term =     1875.5573847854 Hartrees.
 One-electron integrals computed using PRISM.
 NBasis=   513 RedAO= T EigKep=  4.12D-06  NBF=   513
 NBsUse=   513 1.00D-06 EigRej= -1.00D+00 NBFU=   513
 Initial guess from the checkpoint file:  "2_hexyl.chk"
 B after Tr=     0.000000    0.000000   -0.000000
         Rot=    1.000000    0.000051   -0.000004   -0.000004 Ang=   0.01 deg.
 Initial guess <Sx>= 0.0000 <Sy>= 0.0000 <Sz>= 0.5000 <S**2>= 0.7540 S= 0.5020
 Requested convergence on RMS density matrix=1.00D-08 within  32 cycles.
 Requested convergence on MAX density matrix=1.00D-06.
 Requested convergence on             energy=1.00D-06.
 No special actions if energy rises.
 SCF Done:  E(UwB97XD) =  -1526.59076381     A.U. after    6 cycles
            NFock=  6  Conv=0.77D-08     -V/T= 2.0025
 <Sx>= 0.0000 <Sy>= 0.0000 <Sz>= 0.5000 <S**2>= 0.7540 S= 0.5020
 <L.S>= 0.000000000000E+00
 Annihilation of the first spin contaminant:
 S**2 before annihilation     0.7540,   after     0.7500
 QCSCF skips out because SCF is already converged.
 Calling FoFJK, ICntrl=      2127 FMM=F ISym2X=0 I1Cent= 0 IOpClX= 1 NMat=1 NMatS=1 NMatT=0.
 ***** Axes restored to original set *****
 -------------------------------------------------------------------
 Center     Atomic                   Forces (Hartrees/Bohr)
 Number     Number              X              Y              Z
 -------------------------------------------------------------------
      1        6          -0.000010127   -0.000006525   -0.000007886
      2        9          -0.000000061   -0.000000219    0.000008854
      3        9           0.000007218   -0.000003502    0.000002703
      4        9           0.000003850    0.000001386   -0.000001936
      5        6           0.000006703    0.000008984   -0.000004725
      6        9          -0.000004534   -0.000004781   -0.000002302
      7        6          -0.000000575    0.000005081   -0.000008135
      8        9          -0.000001948   -0.000002667    0.000008320
      9        9          -0.000002001   -0.000000840   -0.000002919
     10        6           0.000007714    0.000006720    0.000010179
     11        9           0.000002283    0.000002940    0.000000804
     12        9           0.000005796   -0.000001366   -0.000002085
     13        6          -0.000006488   -0.000014604   -0.000007029
     14        9          -0.000004845    0.000004619   -0.000007320
     15        9          -0.000003603    0.000005058    0.000011260
     16        6           0.000003954    0.000003899   -0.000004866
     17        9          -0.000008476   -0.000008726   -0.000001790
     18        9           0.000001355   -0.000000013    0.000010159
     19        9           0.000003782    0.000004554   -0.000001283
 -------------------------------------------------------------------
 Cartesian Forces:  Max     0.000014604 RMS     0.000005832

 GradGradGradGradGradGradGradGradGradGradGradGradGradGradGradGradGradGrad
 Berny optimization.
 Using GEDIIS/GDIIS optimizer.
 FormGI is forming the generalized inverse of G from B-inverse, IUseBI=4.
 Internal  Forces:  Max     0.000017907 RMS     0.000004294
 Search for a local minimum.
 Step number  14 out of a maximum of  100
 All quantities printed in internal units (Hartrees-Bohrs-Radians)
 Mixed Optimization -- En-DIIS/RFO-DIIS
 Swapping is turned off.
 Update second derivatives using D2CorX and points    5    6    7    8    9
                                                     10   11   12   13   14
 DE= -2.64D-08 DEPred=-1.78D-08 R= 1.49D+00
 Trust test= 1.49D+00 RLast= 2.15D-03 DXMaxT set to 4.24D-01
 ITU=  0  0  0  1  1  1 -1  1  1  0  1  1  0  0
     Eigenvalues ---    0.00115   0.00231   0.00453   0.00463   0.00821
     Eigenvalues ---    0.01265   0.05195   0.05530   0.06589   0.07065
     Eigenvalues ---    0.07587   0.08674   0.09010   0.10116   0.11028
     Eigenvalues ---    0.11552   0.13546   0.13949   0.16141   0.18046
     Eigenvalues ---    0.19381   0.20356   0.21646   0.23217   0.23610
     Eigenvalues ---    0.24257   0.25008   0.25049   0.25446   0.25898
     Eigenvalues ---    0.26449   0.27699   0.28703   0.29323   0.30933
     Eigenvalues ---    0.33173   0.35302   0.38292   0.40921   0.47996
     Eigenvalues ---    0.54472   0.55406   0.55660   0.56565   0.57440
     Eigenvalues ---    0.57778   0.58986   0.59841   0.60100   0.60619
     Eigenvalues ---    0.62423
 En-DIIS/RFO-DIIS/Sim-DIIS IScMMF=       -3 using points:    14   13   12   11   10    9    8    7    6    5
 RFO step:  Lambda=-1.62775951D-08.
 DIIS inversion failure, remove point  10.
 DIIS inversion failure, remove point   9.
 DIIS inversion failure, remove point   8.
 DIIS inversion failure, remove point   7.
 DIIS inversion failure, remove point   6.
 DIIS inversion failure, remove point   5.
 RFO-DIIS uses    4 points instead of   10
 DidBck=F Rises=F RFO-DIIS coefs:    1.60329   -0.56510   -0.08314    0.04495    0.00000
                  RFO-DIIS coefs:    0.00000    0.00000    0.00000    0.00000    0.00000
 Iteration  1 RMS(Cart)=  0.00025835 RMS(Int)=  0.00000006
 Iteration  2 RMS(Cart)=  0.00000006 RMS(Int)=  0.00000000
 Variable       Old X    -DE/DX   Delta X   Delta X   Delta X     New X
                                 (Linear)    (Quad)   (Total)
    R1        2.51994  -0.00001   0.00001  -0.00001  -0.00001   2.51993
    R2        2.52988   0.00001   0.00004  -0.00000   0.00004   2.52991
    R3        2.50827  -0.00000  -0.00002   0.00000  -0.00002   2.50825
    R4        2.84032   0.00000  -0.00002   0.00002  -0.00000   2.84032
    R5        2.48740  -0.00000  -0.00004   0.00001  -0.00003   2.48737
    R6        2.83889   0.00000  -0.00003   0.00002  -0.00000   2.83889
    R7        2.55814   0.00001   0.00003   0.00001   0.00004   2.55818
    R8        2.54230   0.00000  -0.00003   0.00001  -0.00002   2.54228
    R9        2.94603  -0.00000  -0.00004   0.00002  -0.00002   2.94601
   R10        2.53524   0.00000   0.00006  -0.00001   0.00005   2.53529
   R11        2.53268  -0.00000   0.00002  -0.00001   0.00000   2.53269
   R12        2.94936   0.00002  -0.00006   0.00010   0.00004   2.94939
   R13        2.53046  -0.00001   0.00003  -0.00003  -0.00001   2.53045
   R14        2.52690  -0.00001   0.00001  -0.00003  -0.00002   2.52688
   R15        2.94416  -0.00000  -0.00001  -0.00000  -0.00001   2.94415
   R16        2.50639   0.00001   0.00003   0.00004   0.00007   2.50646
   R17        2.50300   0.00001  -0.00001   0.00004   0.00003   2.50302
   R18        2.50906   0.00000  -0.00005   0.00004  -0.00001   2.50905
    A1        1.87415  -0.00001   0.00001  -0.00005  -0.00004   1.87411
    A2        1.90072  -0.00000   0.00001  -0.00001   0.00001   1.90073
    A3        1.92147   0.00000  -0.00002   0.00001  -0.00001   1.92146
    A4        1.89020  -0.00001  -0.00002  -0.00001  -0.00003   1.89018
    A5        1.93759   0.00001   0.00001   0.00003   0.00003   1.93762
    A6        1.93805   0.00001   0.00001   0.00003   0.00004   1.93809
    A7        1.98209   0.00001   0.00002   0.00000   0.00003   1.98212
    A8        2.16067  -0.00000  -0.00001  -0.00001  -0.00002   2.16065
    A9        2.04296  -0.00001  -0.00001  -0.00002  -0.00003   2.04293
   A10        1.92488   0.00000  -0.00003   0.00000  -0.00003   1.92485
   A11        1.90982   0.00000   0.00005  -0.00001   0.00004   1.90986
   A12        1.95926   0.00000  -0.00002   0.00002  -0.00000   1.95926
   A13        1.87877   0.00000  -0.00000  -0.00000  -0.00001   1.87876
   A14        1.89318  -0.00000   0.00002  -0.00003  -0.00001   1.89317
   A15        1.89595  -0.00000  -0.00001   0.00002   0.00001   1.89596
   A16        1.88961  -0.00000   0.00001  -0.00003  -0.00002   1.88958
   A17        1.89420  -0.00000   0.00004  -0.00003   0.00001   1.89421
   A18        1.98621   0.00000   0.00002   0.00001   0.00003   1.98624
   A19        1.90301  -0.00000  -0.00004  -0.00000  -0.00004   1.90297
   A20        1.88446   0.00000  -0.00002   0.00002  -0.00001   1.88445
   A21        1.90502   0.00000  -0.00000   0.00003   0.00003   1.90505
   A22        1.91822   0.00000   0.00001   0.00001   0.00002   1.91824
   A23        1.89741   0.00000  -0.00003   0.00005   0.00002   1.89743
   A24        1.98640   0.00000  -0.00004   0.00005   0.00001   1.98642
   A25        1.90479  -0.00000   0.00003  -0.00003  -0.00001   1.90479
   A26        1.87631  -0.00000  -0.00000  -0.00004  -0.00004   1.87627
   A27        1.87912  -0.00000   0.00004  -0.00005  -0.00001   1.87911
   A28        1.89626  -0.00000  -0.00002  -0.00002  -0.00003   1.89623
   A29        1.93511  -0.00000  -0.00002  -0.00001  -0.00004   1.93508
   A30        1.92946  -0.00000   0.00003  -0.00001   0.00003   1.92949
   A31        1.89680   0.00000   0.00001  -0.00000   0.00000   1.89681
   A32        1.89994   0.00000  -0.00001   0.00003   0.00002   1.89996
   A33        1.90563   0.00000   0.00001   0.00001   0.00002   1.90565
    D1       -1.02808   0.00000   0.00040   0.00022   0.00062  -1.02746
    D2        2.58900   0.00001   0.00040   0.00028   0.00068   2.58969
    D3        1.04483  -0.00000   0.00040   0.00018   0.00058   1.04541
    D4       -1.62127   0.00000   0.00040   0.00024   0.00064  -1.62063
    D5       -3.13445   0.00000   0.00039   0.00020   0.00059  -3.13386
    D6        0.48263   0.00000   0.00039   0.00027   0.00066   0.48329
    D7        1.05446   0.00000   0.00011  -0.00011   0.00001   1.05447
    D8       -1.00908  -0.00000   0.00011  -0.00009   0.00001  -1.00906
    D9       -3.11544  -0.00000   0.00010  -0.00013  -0.00003  -3.11547
   D10       -1.59654   0.00000   0.00011  -0.00005   0.00006  -1.59648
   D11        2.62311  -0.00000   0.00010  -0.00003   0.00006   2.62317
   D12        0.51675  -0.00000   0.00009  -0.00007   0.00003   0.51677
   D13        0.79928  -0.00000  -0.00016   0.00014  -0.00002   0.79927
   D14       -1.26403   0.00000  -0.00014   0.00018   0.00004  -1.26400
   D15        2.89450  -0.00000  -0.00017   0.00015  -0.00002   2.89448
   D16        2.93070  -0.00000  -0.00020   0.00014  -0.00006   2.93063
   D17        0.86738   0.00000  -0.00018   0.00017  -0.00001   0.86737
   D18       -1.25727  -0.00000  -0.00021   0.00015  -0.00007  -1.25734
   D19       -1.31507  -0.00000  -0.00020   0.00013  -0.00007  -1.31514
   D20        2.90480   0.00000  -0.00018   0.00016  -0.00002   2.90478
   D21        0.78015  -0.00000  -0.00021   0.00014  -0.00008   0.78007
   D22        0.75615   0.00000  -0.00017   0.00017  -0.00000   0.75614
   D23       -1.32763  -0.00000  -0.00019   0.00017  -0.00002  -1.32765
   D24        2.86151   0.00000  -0.00020   0.00017  -0.00003   2.86148
   D25        2.85426   0.00000  -0.00017   0.00015  -0.00002   2.85425
   D26        0.77049  -0.00000  -0.00018   0.00015  -0.00003   0.77046
   D27       -1.32356  -0.00000  -0.00019   0.00015  -0.00004  -1.32360
   D28       -1.36250   0.00000  -0.00023   0.00018  -0.00005  -1.36255
   D29        2.83691   0.00000  -0.00024   0.00018  -0.00007   2.83685
   D30        0.74286   0.00000  -0.00025   0.00017  -0.00008   0.74279
   D31        2.96151   0.00000  -0.00001  -0.00014  -0.00015   2.96136
   D32       -1.23829  -0.00000  -0.00003  -0.00016  -0.00019  -1.23848
   D33        0.87767  -0.00000  -0.00001  -0.00016  -0.00017   0.87750
   D34       -1.19297   0.00000  -0.00003  -0.00012  -0.00014  -1.19312
   D35        0.89041   0.00000  -0.00004  -0.00014  -0.00018   0.89023
   D36        3.00637   0.00000  -0.00003  -0.00013  -0.00016   3.00621
   D37        0.85716  -0.00000   0.00002  -0.00020  -0.00017   0.85699
   D38        2.94055  -0.00000   0.00001  -0.00022  -0.00021   2.94034
   D39       -1.22668  -0.00000   0.00002  -0.00022  -0.00019  -1.22687
         Item               Value     Threshold  Converged?
 Maximum Force            0.000018     0.000450     YES
 RMS     Force            0.000004     0.000300     YES
 Maximum Displacement     0.001179     0.001800     YES
 RMS     Displacement     0.000258     0.001200     YES
 Predicted change in Energy=-8.118388D-09
 Optimization completed.
    -- Stationary point found.
                           ----------------------------
                           !   Optimized Parameters   !
                           ! (Angstroms and Degrees)  !
 --------------------------                            --------------------------
 ! Name  Definition              Value          Derivative Info.                !
 --------------------------------------------------------------------------------
 ! R1    R(1,2)                  1.3335         -DE/DX =    0.0                 !
 ! R2    R(1,3)                  1.3388         -DE/DX =    0.0                 !
 ! R3    R(1,4)                  1.3273         -DE/DX =    0.0                 !
 ! R4    R(1,5)                  1.503          -DE/DX =    0.0                 !
 ! R5    R(5,6)                  1.3163         -DE/DX =    0.0                 !
 ! R6    R(5,7)                  1.5023         -DE/DX =    0.0                 !
 ! R7    R(7,8)                  1.3537         -DE/DX =    0.0                 !
 ! R8    R(7,9)                  1.3453         -DE/DX =    0.0                 !
 ! R9    R(7,10)                 1.559          -DE/DX =    0.0                 !
 ! R10   R(10,11)                1.3416         -DE/DX =    0.0                 !
 ! R11   R(10,12)                1.3402         -DE/DX =    0.0                 !
 ! R12   R(10,13)                1.5607         -DE/DX =    0.0                 !
 ! R13   R(13,14)                1.3391         -DE/DX =    0.0                 !
 ! R14   R(13,15)                1.3372         -DE/DX =    0.0                 !
 ! R15   R(13,16)                1.558          -DE/DX =    0.0                 !
 ! R16   R(16,17)                1.3263         -DE/DX =    0.0                 !
 ! R17   R(16,18)                1.3245         -DE/DX =    0.0                 !
 ! R18   R(16,19)                1.3277         -DE/DX =    0.0                 !
 ! A1    A(2,1,3)              107.3811         -DE/DX =    0.0                 !
 ! A2    A(2,1,4)              108.9033         -DE/DX =    0.0                 !
 ! A3    A(2,1,5)              110.0922         -DE/DX =    0.0                 !
 ! A4    A(3,1,4)              108.3006         -DE/DX =    0.0                 !
 ! A5    A(3,1,5)              111.0157         -DE/DX =    0.0                 !
 ! A6    A(4,1,5)              111.0422         -DE/DX =    0.0                 !
 ! A7    A(1,5,6)              113.5655         -DE/DX =    0.0                 !
 ! A8    A(1,5,7)              123.7974         -DE/DX =    0.0                 !
 ! A9    A(6,5,7)              117.0532         -DE/DX =    0.0                 !
 ! A10   A(5,7,8)              110.2875         -DE/DX =    0.0                 !
 ! A11   A(5,7,9)              109.4246         -DE/DX =    0.0                 !
 ! A12   A(5,7,10)             112.2575         -DE/DX =    0.0                 !
 ! A13   A(8,7,9)              107.6456         -DE/DX =    0.0                 !
 ! A14   A(8,7,10)             108.4714         -DE/DX =    0.0                 !
 ! A15   A(9,7,10)             108.63           -DE/DX =    0.0                 !
 ! A16   A(7,10,11)            108.2664         -DE/DX =    0.0                 !
 ! A17   A(7,10,12)            108.5298         -DE/DX =    0.0                 !
 ! A18   A(7,10,13)            113.8015         -DE/DX =    0.0                 !
 ! A19   A(11,10,12)           109.0343         -DE/DX =    0.0                 !
 ! A20   A(11,10,13)           107.9717         -DE/DX =    0.0                 !
 ! A21   A(12,10,13)           109.1495         -DE/DX =    0.0                 !
 ! A22   A(10,13,14)           109.9058         -DE/DX =    0.0                 !
 ! A23   A(10,13,15)           108.7136         -DE/DX =    0.0                 !
 ! A24   A(10,13,16)           113.8124         -DE/DX =    0.0                 !
 ! A25   A(14,13,15)           109.1366         -DE/DX =    0.0                 !
 ! A26   A(14,13,16)           107.5047         -DE/DX =    0.0                 !
 ! A27   A(15,13,16)           107.6654         -DE/DX =    0.0                 !
 ! A28   A(13,16,17)           108.6476         -DE/DX =    0.0                 !
 ! A29   A(13,16,18)           110.8738         -DE/DX =    0.0                 !
 ! A30   A(13,16,19)           110.55           -DE/DX =    0.0                 !
 ! A31   A(17,16,18)           108.6788         -DE/DX =    0.0                 !
 ! A32   A(17,16,19)           108.8585         -DE/DX =    0.0                 !
 ! A33   A(18,16,19)           109.1848         -DE/DX =    0.0                 !
 ! D1    D(2,1,5,6)            -58.9046         -DE/DX =    0.0                 !
 ! D2    D(2,1,5,7)            148.339          -DE/DX =    0.0                 !
 ! D3    D(3,1,5,6)             59.8644         -DE/DX =    0.0                 !
 ! D4    D(3,1,5,7)            -92.8919         -DE/DX =    0.0                 !
 ! D5    D(4,1,5,6)           -179.591          -DE/DX =    0.0                 !
 ! D6    D(4,1,5,7)             27.6527         -DE/DX =    0.0                 !
 ! D7    D(1,5,7,8)             60.416          -DE/DX =    0.0                 !
 ! D8    D(1,5,7,9)            -57.8158         -DE/DX =    0.0                 !
 ! D9    D(1,5,7,10)          -178.5016         -DE/DX =    0.0                 !
 ! D10   D(6,5,7,8)            -91.475          -DE/DX =    0.0                 !
 ! D11   D(6,5,7,9)            150.2932         -DE/DX =    0.0                 !
 ! D12   D(6,5,7,10)            29.6074         -DE/DX =    0.0                 !
 ! D13   D(5,7,10,11)           45.7956         -DE/DX =    0.0                 !
 ! D14   D(5,7,10,12)          -72.4237         -DE/DX =    0.0                 !
 ! D15   D(5,7,10,13)          165.8427         -DE/DX =    0.0                 !
 ! D16   D(8,7,10,11)          167.9165         -DE/DX =    0.0                 !
 ! D17   D(8,7,10,12)           49.6971         -DE/DX =    0.0                 !
 ! D18   D(8,7,10,13)          -72.0365         -DE/DX =    0.0                 !
 ! D19   D(9,7,10,11)          -75.3478         -DE/DX =    0.0                 !
 ! D20   D(9,7,10,12)          166.4328         -DE/DX =    0.0                 !
 ! D21   D(9,7,10,13)           44.6993         -DE/DX =    0.0                 !
 ! D22   D(7,10,13,14)          43.3241         -DE/DX =    0.0                 !
 ! D23   D(7,10,13,15)         -76.0674         -DE/DX =    0.0                 !
 ! D24   D(7,10,13,16)         163.9523         -DE/DX =    0.0                 !
 ! D25   D(11,10,13,14)        163.5373         -DE/DX =    0.0                 !
 ! D26   D(11,10,13,15)         44.1458         -DE/DX =    0.0                 !
 ! D27   D(11,10,13,16)        -75.8344         -DE/DX =    0.0                 !
 ! D28   D(12,10,13,14)        -78.0652         -DE/DX =    0.0                 !
 ! D29   D(12,10,13,15)        162.5432         -DE/DX =    0.0                 !
 ! D30   D(12,10,13,16)         42.563          -DE/DX =    0.0                 !
 ! D31   D(10,13,16,17)        169.682          -DE/DX =    0.0                 !
 ! D32   D(10,13,16,18)        -70.9487         -DE/DX =    0.0                 !
 ! D33   D(10,13,16,19)         50.2867         -DE/DX =    0.0                 !
 ! D34   D(14,13,16,17)        -68.3524         -DE/DX =    0.0                 !
 ! D35   D(14,13,16,18)         51.0169         -DE/DX =    0.0                 !
 ! D36   D(14,13,16,19)        172.2523         -DE/DX =    0.0                 !
 ! D37   D(15,13,16,17)         49.1117         -DE/DX =    0.0                 !
 ! D38   D(15,13,16,18)        168.481          -DE/DX =    0.0                 !
 ! D39   D(15,13,16,19)        -70.2835         -DE/DX =    0.0                 !
 --------------------------------------------------------------------------------
 GradGradGradGradGradGradGradGradGradGradGradGradGradGradGradGradGradGrad

                          Input orientation:                          
 ---------------------------------------------------------------------
 Center     Atomic      Atomic             Coordinates (Angstroms)
 Number     Number       Type             X           Y           Z
 ---------------------------------------------------------------------
      1          6           0        2.729769   -0.204473   -0.080363
      2          9           0        3.544788    0.317306   -0.997803
      3          9           0        3.281342    0.020095    1.118635
      4          9           0        2.656848   -1.516662   -0.266408
      5          6           0        1.370809    0.430499   -0.175982
      6          9           0        1.386804    1.735813   -0.007205
      7          6           0        0.089721   -0.284568    0.147020
      8          9           0        0.094121   -0.696001    1.436684
      9          9           0       -0.020545   -1.377696   -0.629397
     10          6           0       -1.162529    0.615853   -0.079911
     11          9           0       -1.028029    1.232607   -1.263717
     12          9           0       -1.205367    1.538476    0.891259
     13          6           0       -2.509815   -0.171796   -0.097601
     14          9           0       -2.523548   -1.073926    0.891870
     15          9           0       -2.621064   -0.805277   -1.269937
     16          6           0       -3.768288    0.730582    0.073475
     17          9           0       -4.848733    0.003745   -0.178496
     18          9           0       -3.849875    1.197118    1.310432
     19          9           0       -3.729460    1.750427   -0.775817
 ---------------------------------------------------------------------
                    Distance matrix (angstroms):
                    1          2          3          4          5
     1  C    0.000000
     2  F    1.333494   0.000000
     3  F    1.338753   2.153380   0.000000
     4  F    1.327317   2.164905   2.161009   0.000000
     5  C    1.503033   2.326883   2.344057   2.335275   0.000000
     6  F    2.360851   2.765924   2.792933   3.501256   1.316277
     7  C    2.651033   3.689222   3.350120   2.877346   1.502277
     8  F    3.080531   4.342881   3.282123   3.184585   2.345128
     9  F    3.040086   3.964890   3.988972   2.705459   2.326160
    10  C    3.977804   4.805256   4.641059   4.378361   2.541926
    11  F    4.193635   4.671096   5.071140   4.704405   2.753355
    12  F    4.412167   5.255833   4.742124   5.058732   3.000550
    13  C    5.239715   6.140668   5.920604   5.341495   3.927868
    14  F    5.412812   6.506235   5.911434   5.326738   4.309248
    15  F    5.514296   6.273115   6.420663   5.419363   4.319598
    16  C    6.566791   7.402669   7.162014   6.815278   5.153891
    17  F    7.581997   8.439240   8.232918   7.658532   6.234166
    18  F    6.869533   7.796349   7.230244   7.224159   5.482032
    19  F    6.784315   7.417398   7.465544   7.191544   5.302335
                    6          7          8          9         10
     6  F    0.000000
     7  C    2.405857   0.000000
     8  F    3.109592   1.353709   0.000000
     9  F    3.472995   1.345329   2.178657   0.000000
    10  C    2.785444   1.558970   2.366472   2.362266   0.000000
    11  F    2.768295   2.354010   3.502986   2.868984   1.341593
    12  F    2.750551   2.356827   2.641788   3.495749   1.340239
    13  C    4.339446   2.613454   3.067458   2.816641   1.560732
    14  F    4.898349   2.829676   2.700341   2.944750   2.377412
    15  F    4.910665   3.102782   3.835357   2.738732   2.358621
    16  C    5.252807   3.990009   4.337244   4.357115   2.612790
    17  F    6.473896   4.957561   5.246928   5.042131   3.737980
    18  F    5.426709   4.366845   4.376636   5.005634   3.081031
    19  F    5.173697   4.424814   5.049747   4.854137   2.891484
                   11         12         13         14         15
    11  F    0.000000
    12  F    2.183787   0.000000
    13  C    2.351142   2.367374   0.000000
    14  F    3.493312   2.926132   1.339059   0.000000
    15  F    2.586652   3.488287   1.337179   2.180617   0.000000
    16  C    3.090167   2.808919   1.557982   2.339957   2.340886
    17  F    4.157594   4.095594   2.346890   2.777326   2.609266
    18  F    3.819728   2.699195   2.377445   2.663077   3.489681
    19  F    2.793549   3.032344   2.375385   3.494621   2.829191
                   16         17         18         19
    16  C    0.000000
    17  F    1.326327   0.000000
    18  F    1.324528   2.153779   0.000000
    19  F    1.327738   2.158811   2.161733   0.000000
 Stoichiometry    C6F13(2)
 Framework group  C1[X(C6F13)]
 Deg. of freedom    51
 Full point group                 C1      NOp   1
 Largest Abelian subgroup         C1      NOp   1
 Largest concise Abelian subgroup C1      NOp   1
                         Standard orientation:                         
 ---------------------------------------------------------------------
 Center     Atomic      Atomic             Coordinates (Angstroms)
 Number     Number       Type             X           Y           Z
 ---------------------------------------------------------------------
      1          6           0       -3.400687    0.036094   -0.068222
      2          9           0       -4.163295   -0.580698   -0.971661
      3          9           0       -3.919434   -0.224781    1.138055
      4          9           0       -3.463558    1.345764   -0.274576
      5          6           0       -1.984438   -0.457995   -0.164252
      6          9           0       -1.865745   -1.755277    0.024313
      7          6           0       -0.781439    0.389343    0.138486
      8          9           0       -0.820483    0.818444    1.421793
      9          9           0       -0.788147    1.475643   -0.655125
     10          6           0        0.555078   -0.381752   -0.084047
     11          9           0        0.477584   -1.027609   -1.257390
     12          9           0        0.697754   -1.279734    0.900591
     13          6           0        1.814527    0.539179   -0.123535
     14          9           0        1.741552    1.453465    0.852085
     15          9           0        1.853563    1.162159   -1.306082
     16          6           0        3.159735   -0.226954    0.051867
     17          9           0        4.158620    0.602509   -0.218988
     18          9           0        3.295800   -0.663145    1.295088
     19          9           0        3.220607   -1.258681   -0.781633
 ---------------------------------------------------------------------
 Rotational constants (GHZ):           0.9115475           0.2112692           0.2028369

 **********************************************************************

            Population analysis using the SCF density.

 **********************************************************************

 Orbital symmetries:
 Alpha Orbitals:
       Occupied  (A) (A) (A) (A) (A) (A) (A) (A) (A) (A) (A) (A)
                 (A) (A) (A) (A) (A) (A) (A) (A) (A) (A) (A) (A)
                 (A) (A) (A) (A) (A) (A) (A) (A) (A) (A) (A) (A)
                 (A) (A) (A) (A) (A) (A) (A) (A) (A) (A) (A) (A)
                 (A) (A) (A) (A) (A) (A) (A) (A) (A) (A) (A) (A)
                 (A) (A) (A) (A) (A) (A) (A) (A) (A) (A) (A) (A)
                 (A) (A) (A) (A) (A)
       Virtual   (A) (A) (A) (A) (A) (A) (A) (A) (A) (A) (A) (A)
                 (A) (A) (A) (A) (A) (A) (A) (A) (A) (A) (A) (A)
                 (A) (A) (A) (A) (A) (A) (A) (A) (A) (A) (A) (A)
                 (A) (A) (A) (A) (A) (A) (A) (A) (A) (A) (A) (A)
                 (A) (A) (A) (A) (A) (A) (A) (A) (A) (A) (A) (A)
                 (A) (A) (A) (A) (A) (A) (A) (A) (A) (A) (A) (A)
                 (A) (A) (A) (A) (A) (A) (A) (A) (A) (A) (A) (A)
                 (A) (A) (A) (A) (A) (A) (A) (A) (A) (A) (A) (A)
                 (A) (A) (A) (A) (A) (A) (A) (A) (A) (A) (A) (A)
                 (A) (A) (A) (A) (A) (A) (A) (A) (A) (A) (A) (A)
                 (A) (A) (A) (A) (A) (A) (A) (A) (A) (A) (A) (A)
                 (A) (A) (A) (A) (A) (A) (A) (A) (A) (A) (A) (A)
                 (A) (A) (A) (A) (A) (A) (A) (A) (A) (A) (A) (A)
                 (A) (A) (A) (A) (A) (A) (A) (A) (A) (A) (A) (A)
                 (A) (A) (A) (A) (A) (A) (A) (A) (A) (A) (A) (A)
                 (A) (A) (A) (A) (A) (A) (A) (A) (A) (A) (A) (A)
                 (A) (A) (A) (A) (A) (A) (A) (A) (A) (A) (A) (A)
                 (A) (A) (A) (A) (A) (A) (A) (A) (A) (A) (A) (A)
                 (A) (A) (A) (A) (A) (A) (A) (A) (A) (A) (A) (A)
                 (A) (A) (A) (A) (A) (A) (A) (A) (A) (A) (A) (A)
                 (A) (A) (A) (A) (A) (A) (A) (A) (A) (A) (A) (A)
                 (A) (A) (A) (A) (A) (A) (A) (A) (A) (A) (A) (A)
                 (A) (A) (A) (A) (A) (A) (A) (A) (A) (A) (A) (A)
                 (A) (A) (A) (A) (A) (A) (A) (A) (A) (A) (A) (A)
                 (A) (A) (A) (A) (A) (A) (A) (A) (A) (A) (A) (A)
                 (A) (A) (A) (A) (A) (A) (A) (A) (A) (A) (A) (A)
                 (A) (A) (A) (A) (A) (A) (A) (A) (A) (A) (A) (A)
                 (A) (A) (A) (A) (A) (A) (A) (A) (A) (A) (A) (A)
                 (A) (A) (A) (A) (A) (A) (A) (A) (A) (A) (A) (A)
                 (A) (A) (A) (A) (A) (A) (A) (A) (A) (A) (A) (A)
                 (A) (A) (A) (A) (A) (A) (A) (A) (A) (A) (A) (A)
                 (A) (A) (A) (A) (A) (A) (A) (A) (A) (A) (A) (A)
                 (A) (A) (A) (A) (A) (A) (A) (A) (A) (A) (A) (A)
                 (A) (A) (A) (A) (A) (A) (A) (A) (A) (A) (A) (A)
                 (A) (A) (A) (A) (A) (A) (A) (A) (A) (A) (A) (A)
                 (A) (A) (A) (A) (A) (A) (A) (A) (A) (A) (A) (A)
                 (A) (A) (A) (A)
 Beta  Orbitals:
       Occupied  (A) (A) (A) (A) (A) (A) (A) (A) (A) (A) (A) (A)
                 (A) (A) (A) (A) (A) (A) (A) (A) (A) (A) (A) (A)
                 (A) (A) (A) (A) (A) (A) (A) (A) (A) (A) (A) (A)
                 (A) (A) (A) (A) (A) (A) (A) (A) (A) (A) (A) (A)
                 (A) (A) (A) (A) (A) (A) (A) (A) (A) (A) (A) (A)
                 (A) (A) (A) (A) (A) (A) (A) (A) (A) (A) (A) (A)
                 (A) (A) (A) (A)
       Virtual   (A) (A) (A) (A) (A) (A) (A) (A) (A) (A) (A) (A)
                 (A) (A) (A) (A) (A) (A) (A) (A) (A) (A) (A) (A)
                 (A) (A) (A) (A) (A) (A) (A) (A) (A) (A) (A) (A)
                 (A) (A) (A) (A) (A) (A) (A) (A) (A) (A) (A) (A)
                 (A) (A) (A) (A) (A) (A) (A) (A) (A) (A) (A) (A)
                 (A) (A) (A) (A) (A) (A) (A) (A) (A) (A) (A) (A)
                 (A) (A) (A) (A) (A) (A) (A) (A) (A) (A) (A) (A)
                 (A) (A) (A) (A) (A) (A) (A) (A) (A) (A) (A) (A)
                 (A) (A) (A) (A) (A) (A) (A) (A) (A) (A) (A) (A)
                 (A) (A) (A) (A) (A) (A) (A) (A) (A) (A) (A) (A)
                 (A) (A) (A) (A) (A) (A) (A) (A) (A) (A) (A) (A)
                 (A) (A) (A) (A) (A) (A) (A) (A) (A) (A) (A) (A)
                 (A) (A) (A) (A) (A) (A) (A) (A) (A) (A) (A) (A)
                 (A) (A) (A) (A) (A) (A) (A) (A) (A) (A) (A) (A)
                 (A) (A) (A) (A) (A) (A) (A) (A) (A) (A) (A) (A)
                 (A) (A) (A) (A) (A) (A) (A) (A) (A) (A) (A) (A)
                 (A) (A) (A) (A) (A) (A) (A) (A) (A) (A) (A) (A)
                 (A) (A) (A) (A) (A) (A) (A) (A) (A) (A) (A) (A)
                 (A) (A) (A) (A) (A) (A) (A) (A) (A) (A) (A) (A)
                 (A) (A) (A) (A) (A) (A) (A) (A) (A) (A) (A) (A)
                 (A) (A) (A) (A) (A) (A) (A) (A) (A) (A) (A) (A)
                 (A) (A) (A) (A) (A) (A) (A) (A) (A) (A) (A) (A)
                 (A) (A) (A) (A) (A) (A) (A) (A) (A) (A) (A) (A)
                 (A) (A) (A) (A) (A) (A) (A) (A) (A) (A) (A) (A)
                 (A) (A) (A) (A) (A) (A) (A) (A) (A) (A) (A) (A)
                 (A) (A) (A) (A) (A) (A) (A) (A) (A) (A) (A) (A)
                 (A) (A) (A) (A) (A) (A) (A) (A) (A) (A) (A) (A)
                 (A) (A) (A) (A) (A) (A) (A) (A) (A) (A) (A) (A)
                 (A) (A) (A) (A) (A) (A) (A) (A) (A) (A) (A) (A)
                 (A) (A) (A) (A) (A) (A) (A) (A) (A) (A) (A) (A)
                 (A) (A) (A) (A) (A) (A) (A) (A) (A) (A) (A) (A)
                 (A) (A) (A) (A) (A) (A) (A) (A) (A) (A) (A) (A)
                 (A) (A) (A) (A) (A) (A) (A) (A) (A) (A) (A) (A)
                 (A) (A) (A) (A) (A) (A) (A) (A) (A) (A) (A) (A)
                 (A) (A) (A) (A) (A) (A) (A) (A) (A) (A) (A) (A)
                 (A) (A) (A) (A) (A) (A) (A) (A) (A) (A) (A) (A)
                 (A) (A) (A) (A) (A)
 The electronic state is 2-A.
 Alpha  occ. eigenvalues --  -24.90136 -24.88530 -24.88491 -24.88370 -24.88262
 Alpha  occ. eigenvalues --  -24.88234 -24.88151 -24.88104 -24.88008 -24.87904
 Alpha  occ. eigenvalues --  -24.87562 -24.87562 -24.87428 -10.58705 -10.58633
 Alpha  occ. eigenvalues --  -10.53508 -10.53484 -10.53284 -10.45804  -1.47756
 Alpha  occ. eigenvalues --   -1.46767  -1.45056  -1.43180  -1.42709  -1.42140
 Alpha  occ. eigenvalues --   -1.38725  -1.37977  -1.37857  -1.37547  -1.37018
 Alpha  occ. eigenvalues --   -1.36991  -1.36583  -0.97238  -0.94746  -0.90458
 Alpha  occ. eigenvalues --   -0.85266  -0.81070  -0.79256  -0.76315  -0.75750
 Alpha  occ. eigenvalues --   -0.74634  -0.74042  -0.73878  -0.73471  -0.72781
 Alpha  occ. eigenvalues --   -0.72116  -0.71310  -0.70434  -0.69909  -0.68957
 Alpha  occ. eigenvalues --   -0.64757  -0.62338  -0.61959  -0.61026  -0.60516
 Alpha  occ. eigenvalues --   -0.60405  -0.60080  -0.59747  -0.59428  -0.59234
 Alpha  occ. eigenvalues --   -0.58594  -0.57784  -0.56812  -0.56750  -0.56365
 Alpha  occ. eigenvalues --   -0.55874  -0.55599  -0.55363  -0.55057  -0.54533
 Alpha  occ. eigenvalues --   -0.54227  -0.54048  -0.53710  -0.52889  -0.50226
 Alpha  occ. eigenvalues --   -0.45351  -0.37906
 Alpha virt. eigenvalues --    0.05224   0.07194   0.07348   0.08278   0.09752
 Alpha virt. eigenvalues --    0.09973   0.10282   0.10538   0.11772   0.12275
 Alpha virt. eigenvalues --    0.12733   0.13104   0.13445   0.14025   0.14632
 Alpha virt. eigenvalues --    0.15299   0.16107   0.16699   0.17515   0.17910
 Alpha virt. eigenvalues --    0.18574   0.19007   0.19517   0.21335   0.21414
 Alpha virt. eigenvalues --    0.22868   0.22925   0.23744   0.24290   0.24991
 Alpha virt. eigenvalues --    0.25882   0.25974   0.26551   0.27193   0.28934
 Alpha virt. eigenvalues --    0.29187   0.29848   0.30570   0.30922   0.31374
 Alpha virt. eigenvalues --    0.31896   0.31988   0.32401   0.32819   0.33531
 Alpha virt. eigenvalues --    0.33858   0.34343   0.35297   0.35746   0.36540
 Alpha virt. eigenvalues --    0.36750   0.37522   0.37778   0.38211   0.38871
 Alpha virt. eigenvalues --    0.38933   0.39404   0.40252   0.40813   0.41325
 Alpha virt. eigenvalues --    0.41634   0.41983   0.42524   0.43012   0.43585
 Alpha virt. eigenvalues --    0.43705   0.43970   0.44335   0.44939   0.45292
 Alpha virt. eigenvalues --    0.45799   0.46422   0.46771   0.47080   0.48240
 Alpha virt. eigenvalues --    0.48711   0.49298   0.49381   0.50577   0.51228
 Alpha virt. eigenvalues --    0.51474   0.52230   0.53307   0.53735   0.54595
 Alpha virt. eigenvalues --    0.55252   0.56458   0.57368   0.57734   0.59446
 Alpha virt. eigenvalues --    0.61397   0.61849   0.64125   0.64938   0.65155
 Alpha virt. eigenvalues --    0.67572   0.69166   0.69472   0.70194   0.71905
 Alpha virt. eigenvalues --    0.72413   0.74002   0.74802   0.74936   0.76285
 Alpha virt. eigenvalues --    0.78045   0.79727   0.80602   0.81109   0.82710
 Alpha virt. eigenvalues --    0.83985   0.84395   0.85997   0.86893   0.92919
 Alpha virt. eigenvalues --    0.95291   0.98159   1.00845   1.03169   1.04449
 Alpha virt. eigenvalues --    1.06891   1.07816   1.09098   1.10231   1.11623
 Alpha virt. eigenvalues --    1.12473   1.15163   1.15945   1.17289   1.18700
 Alpha virt. eigenvalues --    1.21255   1.25307   1.26469   1.29736   1.30386
 Alpha virt. eigenvalues --    1.31739   1.32424   1.34710   1.35545   1.37345
 Alpha virt. eigenvalues --    1.37811   1.39445   1.40059   1.40321   1.41373
 Alpha virt. eigenvalues --    1.41678   1.42262   1.42454   1.43769   1.44284
 Alpha virt. eigenvalues --    1.44857   1.45124   1.45601   1.46319   1.46511
 Alpha virt. eigenvalues --    1.46895   1.47430   1.47644   1.48818   1.49172
 Alpha virt. eigenvalues --    1.49531   1.50317   1.50423   1.51733   1.51948
 Alpha virt. eigenvalues --    1.52757   1.53004   1.53953   1.54235   1.55079
 Alpha virt. eigenvalues --    1.55452   1.56195   1.57268   1.57394   1.58660
 Alpha virt. eigenvalues --    1.59065   1.59919   1.61561   1.63526   1.64061
 Alpha virt. eigenvalues --    1.68101   1.68862   1.69917   1.71543   1.73207
 Alpha virt. eigenvalues --    1.78565   1.79767   1.90076   1.92342   1.97179
 Alpha virt. eigenvalues --    1.98686   1.99001   2.01095   2.02412   2.03461
 Alpha virt. eigenvalues --    2.04264   2.04874   2.05789   2.06751   2.07897
 Alpha virt. eigenvalues --    2.08234   2.08780   2.10950   2.11294   2.12466
 Alpha virt. eigenvalues --    2.13210   2.13567   2.14270   2.15126   2.16004
 Alpha virt. eigenvalues --    2.17469   2.18910   2.19403   2.20749   2.21167
 Alpha virt. eigenvalues --    2.21632   2.22470   2.24448   2.24665   2.26925
 Alpha virt. eigenvalues --    2.28203   2.28554   2.31345   2.32257   2.33777
 Alpha virt. eigenvalues --    2.34633   2.37218   2.38782   2.39279   2.41310
 Alpha virt. eigenvalues --    2.43787   2.44642   2.47208   2.48099   2.51476
 Alpha virt. eigenvalues --    2.53343   2.55349   2.56365   2.58265   2.60260
 Alpha virt. eigenvalues --    2.63181   2.65092   2.67464   2.68195   2.69318
 Alpha virt. eigenvalues --    2.70421   2.73095   2.74249   2.75018   2.77042
 Alpha virt. eigenvalues --    2.79842   2.82032   2.82954   2.84324   2.86216
 Alpha virt. eigenvalues --    2.87059   2.90032   2.95225   2.99461   3.02713
 Alpha virt. eigenvalues --    3.05119   3.12970   3.15071   3.18454   3.23499
 Alpha virt. eigenvalues --    3.24543   3.26970   3.27383   3.33112   3.36974
 Alpha virt. eigenvalues --    3.41903   3.44676   3.46540   3.48111   3.50051
 Alpha virt. eigenvalues --    3.50939   3.51817   3.53308   3.54406   3.55764
 Alpha virt. eigenvalues --    3.57177   3.58421   3.59986   3.61026   3.62811
 Alpha virt. eigenvalues --    3.64230   3.65026   3.66895   3.69571   3.72141
 Alpha virt. eigenvalues --    3.75451   3.76901   3.77776   3.78422   3.81150
 Alpha virt. eigenvalues --    3.83830   3.86376   3.88578   4.00602   4.02813
 Alpha virt. eigenvalues --    4.06989   4.30194   4.30856   4.31421   4.32186
 Alpha virt. eigenvalues --    4.35976   4.36845   4.39473   4.40065   4.40872
 Alpha virt. eigenvalues --    4.44545   4.51234   4.62681   6.37558   6.41213
 Alpha virt. eigenvalues --    6.41827   6.42569   6.43171   6.43568   6.44314
 Alpha virt. eigenvalues --    6.44456   6.45351   6.46803   6.47077   6.47816
 Alpha virt. eigenvalues --    6.48366   6.49183   6.50183   6.51340   6.51845
 Alpha virt. eigenvalues --    6.52216   6.53791   6.53848   6.54739   6.55489
 Alpha virt. eigenvalues --    6.56193   6.57244   6.60338   6.63145   6.64041
 Alpha virt. eigenvalues --    6.66141   6.70040   6.72633   6.74103   6.79523
 Alpha virt. eigenvalues --    6.85209   6.85370   6.88151   6.88593   6.91897
 Alpha virt. eigenvalues --    6.95527   7.00203   9.07940   9.08213   9.08843
 Alpha virt. eigenvalues --    9.09081   9.09781   9.10550   9.10840   9.11283
 Alpha virt. eigenvalues --    9.12269   9.12535   9.14640   9.16704   9.17504
 Alpha virt. eigenvalues --    9.18389   9.19315   9.19924   9.21018   9.21196
 Alpha virt. eigenvalues --    9.21248   9.22225   9.22675   9.23199   9.23950
 Alpha virt. eigenvalues --    9.24317   9.25466   9.25663   9.26180   9.27715
 Alpha virt. eigenvalues --    9.28454   9.28718   9.28793   9.29418   9.34235
 Alpha virt. eigenvalues --    9.34781   9.35183   9.36872   9.39633   9.42189
 Alpha virt. eigenvalues --    9.43533   9.44998   9.46099   9.49968   9.50947
 Alpha virt. eigenvalues --    9.56582   9.63795   9.65210   9.66960   9.67459
 Alpha virt. eigenvalues --    9.68587   9.69434   9.72487   9.73486   9.75655
 Alpha virt. eigenvalues --    9.76107   9.77381   9.78041   9.78866   9.80867
 Alpha virt. eigenvalues --    9.81468   9.83813   9.87496   9.88417   9.90057
 Alpha virt. eigenvalues --    9.91834   9.92018  23.89776  23.94635  23.98456
 Alpha virt. eigenvalues --   24.00618  24.06915  24.08471  66.90591  66.93113
 Alpha virt. eigenvalues --   66.93726  66.94627  66.94835  66.95075  66.96551
 Alpha virt. eigenvalues --   66.98858  66.99046  67.00398  67.02248  67.04914
 Alpha virt. eigenvalues --   67.05963
  Beta  occ. eigenvalues --  -24.89751 -24.88527 -24.88481 -24.88370 -24.88261
  Beta  occ. eigenvalues --  -24.88234 -24.88151 -24.88104 -24.88000 -24.87860
  Beta  occ. eigenvalues --  -24.87515 -24.87415 -24.87322 -10.58705 -10.58689
  Beta  occ. eigenvalues --  -10.53559 -10.53486 -10.53286 -10.44574  -1.47754
  Beta  occ. eigenvalues --   -1.46612  -1.44990  -1.43118  -1.42550  -1.41194
  Beta  occ. eigenvalues --   -1.38713  -1.37972  -1.37832  -1.37471  -1.37006
  Beta  occ. eigenvalues --   -1.36783  -1.36353  -0.96305  -0.93741  -0.89968
  Beta  occ. eigenvalues --   -0.85048  -0.80842  -0.78830  -0.76232  -0.75592
  Beta  occ. eigenvalues --   -0.74600  -0.73884  -0.73611  -0.72859  -0.72680
  Beta  occ. eigenvalues --   -0.72043  -0.71062  -0.70235  -0.69491  -0.68756
  Beta  occ. eigenvalues --   -0.62234  -0.62053  -0.61705  -0.60863  -0.60455
  Beta  occ. eigenvalues --   -0.60355  -0.59882  -0.59435  -0.59307  -0.59140
  Beta  occ. eigenvalues --   -0.58394  -0.57696  -0.56526  -0.56378  -0.55833
  Beta  occ. eigenvalues --   -0.55757  -0.55373  -0.55295  -0.55011  -0.54424
  Beta  occ. eigenvalues --   -0.54156  -0.54004  -0.53579  -0.52586  -0.49900
  Beta  occ. eigenvalues --   -0.45137
  Beta virt. eigenvalues --   -0.07029   0.05480   0.07222   0.07601   0.08285
  Beta virt. eigenvalues --    0.09870   0.10045   0.10309   0.10724   0.11939
  Beta virt. eigenvalues --    0.12320   0.12759   0.13130   0.13481   0.14095
  Beta virt. eigenvalues --    0.15128   0.15497   0.16165   0.16710   0.17691
  Beta virt. eigenvalues --    0.17972   0.18702   0.19378   0.19579   0.21345
  Beta virt. eigenvalues --    0.22089   0.22983   0.23184   0.23815   0.24317
  Beta virt. eigenvalues --    0.25691   0.26034   0.26514   0.26585   0.27672
  Beta virt. eigenvalues --    0.28976   0.29361   0.29904   0.30562   0.30936
  Beta virt. eigenvalues --    0.31764   0.31997   0.32180   0.32510   0.32951
  Beta virt. eigenvalues --    0.33604   0.34073   0.34687   0.35380   0.35862
  Beta virt. eigenvalues --    0.36689   0.37101   0.37622   0.37930   0.38514
  Beta virt. eigenvalues --    0.38938   0.39342   0.39487   0.40327   0.40918
  Beta virt. eigenvalues --    0.41375   0.41646   0.42022   0.42547   0.43107
  Beta virt. eigenvalues --    0.43597   0.43779   0.44036   0.44415   0.45116
  Beta virt. eigenvalues --    0.45350   0.45823   0.46434   0.46939   0.47104
  Beta virt. eigenvalues --    0.48297   0.48785   0.49291   0.49427   0.50625
  Beta virt. eigenvalues --    0.51265   0.51532   0.52302   0.53318   0.53750
  Beta virt. eigenvalues --    0.54671   0.55411   0.56616   0.57369   0.57949
  Beta virt. eigenvalues --    0.59479   0.61534   0.61904   0.64332   0.65020
  Beta virt. eigenvalues --    0.65242   0.67633   0.69403   0.69668   0.70424
  Beta virt. eigenvalues --    0.71963   0.72704   0.74138   0.75067   0.75348
  Beta virt. eigenvalues --    0.76831   0.78450   0.80212   0.80813   0.81387
  Beta virt. eigenvalues --    0.83093   0.84175   0.84502   0.86451   0.87300
  Beta virt. eigenvalues --    0.93525   0.95358   0.98740   1.00848   1.03550
  Beta virt. eigenvalues --    1.04527   1.07159   1.08149   1.09204   1.10432
  Beta virt. eigenvalues --    1.11681   1.12557   1.15333   1.16162   1.17505
  Beta virt. eigenvalues --    1.18847   1.21401   1.25431   1.26888   1.29915
  Beta virt. eigenvalues --    1.30620   1.31847   1.32726   1.34894   1.35633
  Beta virt. eigenvalues --    1.37513   1.37947   1.39535   1.40119   1.40454
  Beta virt. eigenvalues --    1.41625   1.41792   1.42350   1.42607   1.43988
  Beta virt. eigenvalues --    1.44339   1.45022   1.45278   1.45651   1.46424
  Beta virt. eigenvalues --    1.46598   1.47096   1.47516   1.47875   1.48915
  Beta virt. eigenvalues --    1.49318   1.49585   1.50391   1.50534   1.51852
  Beta virt. eigenvalues --    1.52082   1.52808   1.53065   1.54032   1.54326
  Beta virt. eigenvalues --    1.55125   1.55525   1.56257   1.57405   1.57525
  Beta virt. eigenvalues --    1.58801   1.59105   1.59966   1.61616   1.63702
  Beta virt. eigenvalues --    1.64137   1.68222   1.68970   1.70021   1.71610
  Beta virt. eigenvalues --    1.73842   1.78643   1.79921   1.90150   1.92413
  Beta virt. eigenvalues --    1.97279   1.98774   1.99135   2.01185   2.02479
  Beta virt. eigenvalues --    2.03513   2.04309   2.04956   2.05848   2.06832
  Beta virt. eigenvalues --    2.07980   2.08276   2.08834   2.11031   2.11318
  Beta virt. eigenvalues --    2.12536   2.13259   2.13619   2.14555   2.15191
  Beta virt. eigenvalues --    2.16076   2.17565   2.19036   2.19679   2.20896
  Beta virt. eigenvalues --    2.21206   2.21688   2.22649   2.24562   2.25080
  Beta virt. eigenvalues --    2.27048   2.28909   2.29021   2.31621   2.32392
  Beta virt. eigenvalues --    2.33926   2.34794   2.37305   2.38818   2.39384
  Beta virt. eigenvalues --    2.41500   2.43874   2.44705   2.47356   2.48225
  Beta virt. eigenvalues --    2.51772   2.53437   2.55632   2.56528   2.58368
  Beta virt. eigenvalues --    2.60423   2.63244   2.65388   2.67719   2.68248
  Beta virt. eigenvalues --    2.69399   2.70444   2.73312   2.74455   2.76053
  Beta virt. eigenvalues --    2.77089   2.79988   2.82697   2.83302   2.84712
  Beta virt. eigenvalues --    2.86656   2.87274   2.90290   2.95290   2.99850
  Beta virt. eigenvalues --    3.03169   3.05470   3.13264   3.15360   3.18676
  Beta virt. eigenvalues --    3.24234   3.24629   3.27354   3.29541   3.34042
  Beta virt. eigenvalues --    3.38348   3.43152   3.45521   3.47962   3.48158
  Beta virt. eigenvalues --    3.51080   3.51789   3.52094   3.53660   3.54560
  Beta virt. eigenvalues --    3.56175   3.57392   3.58556   3.61103   3.61346
  Beta virt. eigenvalues --    3.63057   3.65285   3.66499   3.68211   3.70045
  Beta virt. eigenvalues --    3.72351   3.75703   3.77147   3.78263   3.78578
  Beta virt. eigenvalues --    3.81546   3.84335   3.86890   3.89385   4.01676
  Beta virt. eigenvalues --    4.03812   4.07440   4.30338   4.30866   4.31492
  Beta virt. eigenvalues --    4.32199   4.36077   4.37009   4.39553   4.40681
  Beta virt. eigenvalues --    4.40985   4.45015   4.51336   4.63675   6.38606
  Beta virt. eigenvalues --    6.41289   6.41953   6.42725   6.43233   6.43639
  Beta virt. eigenvalues --    6.44339   6.44492   6.45422   6.46903   6.47173
  Beta virt. eigenvalues --    6.47877   6.48440   6.49261   6.50240   6.51498
  Beta virt. eigenvalues --    6.51918   6.52279   6.53813   6.53939   6.54831
  Beta virt. eigenvalues --    6.55582   6.56241   6.57316   6.60409   6.63288
  Beta virt. eigenvalues --    6.64155   6.66252   6.70103   6.72682   6.74173
  Beta virt. eigenvalues --    6.79934   6.85340   6.85548   6.88179   6.88600
  Beta virt. eigenvalues --    6.91899   6.95616   7.00276   9.08112   9.08276
  Beta virt. eigenvalues --    9.08876   9.09239   9.09925   9.10606   9.10926
  Beta virt. eigenvalues --    9.11333   9.12366   9.13146   9.15231   9.17022
  Beta virt. eigenvalues --    9.17970   9.18714   9.19402   9.20004   9.21126
  Beta virt. eigenvalues --    9.21236   9.21415   9.22477   9.22911   9.23369
  Beta virt. eigenvalues --    9.24026   9.24447   9.25492   9.25718   9.26247
  Beta virt. eigenvalues --    9.27863   9.28584   9.28803   9.29014   9.29928
  Beta virt. eigenvalues --    9.34391   9.34855   9.35229   9.37457   9.39761
  Beta virt. eigenvalues --    9.42280   9.43597   9.45138   9.46385   9.50123
  Beta virt. eigenvalues --    9.50954   9.56824   9.63915   9.65316   9.67008
  Beta virt. eigenvalues --    9.67617   9.68597   9.69585   9.72657   9.73570
  Beta virt. eigenvalues --    9.75909   9.76135   9.77647   9.78085   9.78975
  Beta virt. eigenvalues --    9.81040   9.81512   9.83958   9.87609   9.88585
  Beta virt. eigenvalues --    9.90062   9.91838   9.92118  23.91594  23.94659
  Beta virt. eigenvalues --   23.98434  24.00744  24.07096  24.08515  66.90799
  Beta virt. eigenvalues --   66.93127  66.93742  66.94679  66.94840  66.95089
  Beta virt. eigenvalues --   66.96593  66.98871  66.99088  67.00416  67.02312
  Beta virt. eigenvalues --   67.04932  67.06015
          Condensed to atoms (all electrons):
               1          2          3          4          5          6
     1  C    9.048277   0.127819   0.316079   0.166521  -3.387154  -0.109383
     2  F    0.127819   9.097349  -0.011695   0.012685  -0.053653   0.024493
     3  F    0.316079  -0.011695   9.064390   0.001264  -0.062438   0.009275
     4  F    0.166521   0.012685   0.001264   9.081191  -0.037918   0.006723
     5  C   -3.387154  -0.053653  -0.062438  -0.037918  11.753093   0.183997
     6  F   -0.109383   0.024493   0.009275   0.006723   0.183997   9.166189
     7  C    1.305293   0.053739  -0.076333   0.022087  -4.341661   0.027362
     8  F    0.047432   0.000033   0.007765   0.003736  -0.155034   0.000280
     9  F   -0.012172  -0.001063  -0.002500   0.010785  -0.126582   0.002063
    10  C   -2.187241   0.016692   0.007753   0.022140   2.830425  -0.139878
    11  F    0.035984  -0.000024   0.000047  -0.000181   0.059020   0.017380
    12  F   -0.007232  -0.000016  -0.000215  -0.000043  -0.060726   0.015599
    13  C   -0.261564   0.001871  -0.000687   0.006022  -0.967050   0.031847
    14  F    0.000639  -0.000001   0.000005   0.000018   0.031303  -0.000075
    15  F    0.001967   0.000006  -0.000001   0.000011  -0.015115   0.000044
    16  C   -0.049760   0.000034   0.000111  -0.000276  -0.047415  -0.005916
    17  F    0.000114   0.000000   0.000000  -0.000000   0.000341  -0.000007
    18  F    0.000564  -0.000000   0.000000  -0.000001   0.004610   0.000025
    19  F    0.000938  -0.000000  -0.000000   0.000000   0.008003   0.000006
               7          8          9         10         11         12
     1  C    1.305293   0.047432  -0.012172  -2.187241   0.035984  -0.007232
     2  F    0.053739   0.000033  -0.001063   0.016692  -0.000024  -0.000016
     3  F   -0.076333   0.007765  -0.002500   0.007753   0.000047  -0.000215
     4  F    0.022087   0.003736   0.010785   0.022140  -0.000181  -0.000043
     5  C   -4.341661  -0.155034  -0.126582   2.830425   0.059020  -0.060726
     6  F    0.027362   0.000280   0.002063  -0.139878   0.017380   0.015599
     7  C   15.099366   0.420416   0.374861  -7.802004  -0.218346  -0.106884
     8  F    0.420416   9.082738  -0.004175  -0.170376  -0.000386   0.028156
     9  F    0.374861  -0.004175   9.094936  -0.140842   0.013989   0.000702
    10  C   -7.802004  -0.170376  -0.140842  16.222495   0.389129   0.387649
    11  F   -0.218346  -0.000386   0.013989   0.389129   9.085612   0.007269
    12  F   -0.106884   0.028156   0.000702   0.387649   0.007269   9.097255
    13  C    1.957529  -0.007619  -0.025330  -4.656363  -0.154683  -0.171188
    14  F   -0.013615   0.006766   0.013267  -0.109557  -0.000769   0.010610
    15  F    0.012573  -0.002019   0.010543  -0.093214   0.021096   0.000228
    16  C   -0.953868  -0.017592   0.027078   1.109635  -0.012225   0.037327
    17  F    0.015343   0.000014  -0.000018   0.055580  -0.000915   0.000200
    18  F   -0.010382  -0.000723   0.000115   0.010322  -0.002431   0.005291
    19  F    0.062669  -0.000061  -0.000129  -0.010515   0.006655   0.007459
              13         14         15         16         17         18
     1  C   -0.261564   0.000639   0.001967  -0.049760   0.000114   0.000564
     2  F    0.001871  -0.000001   0.000006   0.000034   0.000000  -0.000000
     3  F   -0.000687   0.000005  -0.000001   0.000111   0.000000   0.000000
     4  F    0.006022   0.000018   0.000011  -0.000276  -0.000000  -0.000001
     5  C   -0.967050   0.031303  -0.015115  -0.047415   0.000341   0.004610
     6  F    0.031847  -0.000075   0.000044  -0.005916  -0.000007   0.000025
     7  C    1.957529  -0.013615   0.012573  -0.953868   0.015343  -0.010382
     8  F   -0.007619   0.006766  -0.002019  -0.017592   0.000014  -0.000723
     9  F   -0.025330   0.013267   0.010543   0.027078  -0.000018   0.000115
    10  C   -4.656363  -0.109557  -0.093214   1.109635   0.055580   0.010322
    11  F   -0.154683  -0.000769   0.021096  -0.012225  -0.000915  -0.002431
    12  F   -0.171188   0.010610   0.000228   0.037327   0.000200   0.005291
    13  C   10.831261   0.321188   0.370689  -1.465421  -0.130839  -0.075927
    14  F    0.321188   9.113321   0.002679  -0.146964   0.020326   0.022180
    15  F    0.370689   0.002679   9.072883  -0.165078   0.021666  -0.000958
    16  C   -1.465421  -0.146964  -0.165078   5.885359   0.195177   0.282278
    17  F   -0.130839   0.020326   0.021666   0.195177   9.116292  -0.007976
    18  F   -0.075927   0.022180  -0.000958   0.282278  -0.007976   9.037341
    19  F   -0.092460   0.001240   0.015730   0.206107   0.003529   0.005164
              19
     1  C    0.000938
     2  F   -0.000000
     3  F   -0.000000
     4  F    0.000000
     5  C    0.008003
     6  F    0.000006
     7  C    0.062669
     8  F   -0.000061
     9  F   -0.000129
    10  C   -0.010515
    11  F    0.006655
    12  F    0.007459
    13  C   -0.092460
    14  F    0.001240
    15  F    0.015730
    16  C    0.206107
    17  F    0.003529
    18  F    0.005164
    19  F    9.069630
          Atomic-Atomic Spin Densities.
               1          2          3          4          5          6
     1  C   -0.070492  -0.000347  -0.013324   0.002707   0.060751   0.002256
     2  F   -0.000347   0.025075  -0.003833   0.000803  -0.018917   0.002574
     3  F   -0.013324  -0.003833   0.056593   0.001023  -0.026365   0.002836
     4  F    0.002707   0.000803   0.001023   0.001446  -0.000567  -0.000186
     5  C    0.060751  -0.018917  -0.026365  -0.000567   0.989889  -0.110116
     6  F    0.002256   0.002574   0.002836  -0.000186  -0.110116   0.168731
     7  C    0.036142  -0.000153  -0.006318  -0.003642   0.010549  -0.004886
     8  F   -0.003278  -0.000677   0.003222   0.000464  -0.027384   0.002071
     9  F    0.000152   0.000499  -0.000482   0.000256  -0.017421   0.000844
    10  C   -0.016269  -0.000571   0.002343   0.001172   0.028175   0.002130
    11  F   -0.000672   0.000060  -0.000075  -0.000008  -0.008216   0.001880
    12  F    0.000134   0.000002   0.000011   0.000007  -0.000377   0.000026
    13  C    0.002733  -0.000107   0.000166   0.000014  -0.002721  -0.000663
    14  F   -0.000046   0.000001  -0.000005  -0.000002   0.000204   0.000003
    15  F    0.000040   0.000001  -0.000000   0.000001  -0.000305   0.000004
    16  C   -0.000382  -0.000031   0.000065   0.000021  -0.001187  -0.000005
    17  F    0.000000   0.000000  -0.000000  -0.000000  -0.000002   0.000000
    18  F    0.000005  -0.000000   0.000000   0.000000  -0.000040   0.000001
    19  F   -0.000009  -0.000000   0.000000  -0.000000  -0.000000  -0.000005
               7          8          9         10         11         12
     1  C    0.036142  -0.003278   0.000152  -0.016269  -0.000672   0.000134
     2  F   -0.000153  -0.000677   0.000499  -0.000571   0.000060   0.000002
     3  F   -0.006318   0.003222  -0.000482   0.002343  -0.000075   0.000011
     4  F   -0.003642   0.000464   0.000256   0.001172  -0.000008   0.000007
     5  C    0.010549  -0.027384  -0.017421   0.028175  -0.008216  -0.000377
     6  F   -0.004886   0.002071   0.000844   0.002130   0.001880   0.000026
     7  C    0.033854  -0.026045   0.004530  -0.067846   0.001442  -0.000133
     8  F   -0.026045   0.078419  -0.004228  -0.004496  -0.000882   0.000647
     9  F    0.004530  -0.004228   0.020232   0.003338   0.001118  -0.000222
    10  C   -0.067846  -0.004496   0.003338   0.090196   0.001230  -0.001119
    11  F    0.001442  -0.000882   0.001118   0.001230   0.002650  -0.000227
    12  F   -0.000133   0.000647  -0.000222  -0.001119  -0.000227   0.001408
    13  C    0.018256   0.002732  -0.002446  -0.023551   0.001174   0.000545
    14  F    0.000203  -0.000287   0.000195   0.000393   0.000058  -0.000034
    15  F    0.000283   0.000019  -0.000004   0.000260   0.000066  -0.000016
    16  C   -0.007190   0.000774  -0.000507   0.004126  -0.000954   0.000047
    17  F    0.000075  -0.000004   0.000005   0.000201  -0.000002  -0.000001
    18  F   -0.000176   0.000021  -0.000012   0.000047  -0.000009  -0.000003
    19  F   -0.000081   0.000005  -0.000005  -0.000085   0.000020   0.000011
              13         14         15         16         17         18
     1  C    0.002733  -0.000046   0.000040  -0.000382   0.000000   0.000005
     2  F   -0.000107   0.000001   0.000001  -0.000031   0.000000  -0.000000
     3  F    0.000166  -0.000005  -0.000000   0.000065  -0.000000   0.000000
     4  F    0.000014  -0.000002   0.000001   0.000021  -0.000000   0.000000
     5  C   -0.002721   0.000204  -0.000305  -0.001187  -0.000002  -0.000040
     6  F   -0.000663   0.000003   0.000004  -0.000005   0.000000   0.000001
     7  C    0.018256   0.000203   0.000283  -0.007190   0.000075  -0.000176
     8  F    0.002732  -0.000287   0.000019   0.000774  -0.000004   0.000021
     9  F   -0.002446   0.000195  -0.000004  -0.000507   0.000005  -0.000012
    10  C   -0.023551   0.000393   0.000260   0.004126   0.000201   0.000047
    11  F    0.001174   0.000058   0.000066  -0.000954  -0.000002  -0.000009
    12  F    0.000545  -0.000034  -0.000016   0.000047  -0.000001  -0.000003
    13  C    0.012180  -0.000217  -0.000728  -0.009180   0.000134  -0.000342
    14  F   -0.000217   0.000125  -0.000001  -0.000314  -0.000009  -0.000014
    15  F   -0.000728  -0.000001   0.000034   0.000339   0.000002   0.000006
    16  C   -0.009180  -0.000314   0.000339   0.013782  -0.000343   0.000453
    17  F    0.000134  -0.000009   0.000002  -0.000343  -0.000064  -0.000004
    18  F   -0.000342  -0.000014   0.000006   0.000453  -0.000004   0.000026
    19  F   -0.000068  -0.000013   0.000007   0.000233  -0.000013   0.000020
              19
     1  C   -0.000009
     2  F   -0.000000
     3  F    0.000000
     4  F   -0.000000
     5  C   -0.000000
     6  F   -0.000005
     7  C   -0.000081
     8  F    0.000005
     9  F   -0.000005
    10  C   -0.000085
    11  F    0.000020
    12  F    0.000011
    13  C   -0.000068
    14  F   -0.000013
    15  F    0.000007
    16  C    0.000233
    17  F   -0.000013
    18  F    0.000020
    19  F    0.000006
 Mulliken charges and spin densities:
               1          2
     1  C    0.962881   0.000099
     2  F   -0.268268   0.004376
     3  F   -0.252819   0.015856
     4  F   -0.294763   0.003510
     5  C    0.383956   0.875947
     6  F   -0.230023   0.067493
     7  C    0.171855  -0.011135
     8  F   -0.239351   0.021095
     9  F   -0.235528   0.005841
    10  C    0.258167   0.019673
    11  F   -0.246220  -0.001347
    12  F   -0.251441   0.000706
    13  C    0.488721  -0.002089
    14  F   -0.272560   0.000238
    15  F   -0.253731   0.000009
    16  C    1.121409  -0.000252
    17  F   -0.288827  -0.000024
    18  F   -0.269491  -0.000019
    19  F   -0.283966   0.000022
 Sum of Mulliken charges =  -0.00000   1.00000
 Mulliken charges and spin densities with hydrogens summed into heavy atoms:
               1          2
     1  C    0.962881   0.000099
     2  F   -0.268268   0.004376
     3  F   -0.252819   0.015856
     4  F   -0.294763   0.003510
     5  C    0.383956   0.875947
     6  F   -0.230023   0.067493
     7  C    0.171855  -0.011135
     8  F   -0.239351   0.021095
     9  F   -0.235528   0.005841
    10  C    0.258167   0.019673
    11  F   -0.246220  -0.001347
    12  F   -0.251441   0.000706
    13  C    0.488721  -0.002089
    14  F   -0.272560   0.000238
    15  F   -0.253731   0.000009
    16  C    1.121409  -0.000252
    17  F   -0.288827  -0.000024
    18  F   -0.269491  -0.000019
    19  F   -0.283966   0.000022
 Electronic spatial extent (au):  <R**2>=           4861.9820
 Charge=              0.0000 electrons
 Dipole moment (field-independent basis, Debye):
    X=              0.0992    Y=             -0.3619    Z=             -0.2274  Tot=              0.4388
 Quadrupole moment (field-independent basis, Debye-Ang):
   XX=           -103.2842   YY=           -101.8580   ZZ=           -101.1198
   XY=              0.1405   XZ=              0.5530   YZ=             -0.0226
 Traceless Quadrupole moment (field-independent basis, Debye-Ang):
   XX=             -1.1969   YY=              0.2293   ZZ=              0.9675
   XY=              0.1405   XZ=              0.5530   YZ=             -0.0226
 Octapole moment (field-independent basis, Debye-Ang**2):
  XXX=             14.9497  YYY=             -0.2657  ZZZ=              0.5553  XYY=              1.6621
  XXY=             -0.2026  XXZ=              0.5064  XZZ=              0.8424  YZZ=             -0.2863
  YYZ=              1.3746  XYZ=              0.4114
 Hexadecapole moment (field-independent basis, Debye-Ang**3):
 XXXX=          -4003.9710 YYYY=           -588.1440 ZZZZ=           -421.7057 XXXY=            -19.3663
 XXXZ=             -0.9718 YYYX=             -1.3293 YYYZ=             -0.7430 ZZZX=             -0.5363
 ZZZY=             -1.2827 XXYY=           -759.0932 XXZZ=           -736.5604 YYZZ=           -169.4819
 XXYZ=             -0.2633 YYXZ=             -1.1344 ZZXY=             -0.3730
 N-N= 1.875557384785D+03 E-N=-7.377519686602D+03  KE= 1.522708811937D+03
                          Isotropic Fermi Contact Couplings
        Atom                 a.u.       MegaHertz       Gauss      10(-4) cm-1
     1  C(13)             -0.02742     -30.82263     -10.99828     -10.28132
     2  F(19)              0.00998      42.00322      14.98779      14.01077
     3  F(19)              0.02217      93.25920      33.27720      31.10792
     4  F(19)             -0.00178      -7.49042      -2.67277      -2.49854
     5  C(13)              0.13102     147.29347      52.55797      49.13181
     6  F(19)              0.03840     161.57201      57.65291      53.89462
     7  C(13)             -0.01951     -21.93370      -7.82649      -7.31629
     8  F(19)              0.03864     162.58955      58.01599      54.23404
     9  F(19)              0.01054      44.35671      15.82758      14.79580
    10  C(13)              0.00054       0.60718       0.21666       0.20253
    11  F(19)              0.00348      14.63289       5.22138       4.88101
    12  F(19)              0.00026       1.10111       0.39290       0.36729
    13  C(13)             -0.00047      -0.52597      -0.18768      -0.17545
    14  F(19)              0.00019       0.81171       0.28964       0.27076
    15  F(19)             -0.00004      -0.17638      -0.06294      -0.05883
    16  C(13)             -0.00016      -0.18494      -0.06599      -0.06169
    17  F(19)             -0.00003      -0.13052      -0.04657      -0.04354
    18  F(19)              0.00001       0.03419       0.01220       0.01140
    19  F(19)              0.00002       0.10362       0.03697       0.03456
 --------------------------------------------------------
       Center         ----  Spin Dipole Couplings  ----
                      3XX-RR        3YY-RR        3ZZ-RR
 --------------------------------------------------------
     1   Atom        0.016431     -0.015385     -0.001047
     2   Atom        0.104160     -0.048627     -0.055533
     3   Atom        0.186095     -0.118952     -0.067143
     4   Atom       -0.028341     -0.010828      0.039169
     5   Atom       -0.560585     -0.585787      1.146371
     6   Atom       -0.446203     -0.553102      0.999306
     7   Atom        0.006617     -0.002507     -0.004110
     8   Atom       -0.046053      0.039766      0.006287
     9   Atom       -0.050778      0.085190     -0.034412
    10   Atom        0.014070     -0.007854     -0.006216
    11   Atom        0.026152     -0.011422     -0.014730
    12   Atom        0.008832     -0.001988     -0.006845
    13   Atom        0.003481     -0.001845     -0.001636
    14   Atom        0.002396     -0.000679     -0.001717
    15   Atom        0.002275     -0.001034     -0.001241
    16   Atom        0.001931     -0.001037     -0.000893
    17   Atom        0.000776     -0.000364     -0.000412
    18   Atom        0.001572     -0.000915     -0.000657
    19   Atom        0.001929     -0.000954     -0.000975
 --------------------------------------------------------
                        XY            XZ            YZ
 --------------------------------------------------------
     1   Atom       -0.009407      0.015475     -0.003503
     2   Atom        0.044119     -0.012044     -0.002877
     3   Atom        0.005759     -0.126077      0.000842
     4   Atom        0.002430      0.003070      0.012891
     5   Atom       -0.003305     -0.138489      0.058207
     6   Atom        0.006096     -0.102265      0.049560
     7   Atom        0.018681     -0.011032     -0.008551
     8   Atom        0.149930      0.143862      0.178380
     9   Atom        0.041388      0.015722      0.048195
    10   Atom        0.001537      0.001994      0.000242
    11   Atom       -0.014594     -0.003351     -0.000042
    12   Atom       -0.008937      0.004191     -0.000744
    13   Atom        0.000853      0.000204      0.000140
    14   Atom        0.002473      0.000931      0.000363
    15   Atom        0.001544     -0.001134     -0.000422
    16   Atom        0.000304      0.000135      0.000051
    17   Atom        0.000324      0.000012      0.000008
    18   Atom       -0.000097      0.000666     -0.000005
    19   Atom       -0.000439     -0.000232      0.000066
 --------------------------------------------------------


 ---------------------------------------------------------------------------------
              Anisotropic Spin Dipole Couplings in Principal Axis System
 ---------------------------------------------------------------------------------

       Atom             a.u.   MegaHertz   Gauss  10(-4) cm-1        Axes

              Baa    -0.0180    -2.416    -0.862    -0.806  0.2916  0.9541 -0.0690
     1 C(13)  Bbb    -0.0097    -1.306    -0.466    -0.436 -0.4449  0.1991  0.8732
              Bcc     0.0277     3.722     1.328     1.242  0.8468 -0.2239  0.4825
 
              Baa    -0.0605   -30.374   -10.838   -10.132 -0.2636  0.9611 -0.0828
     2 F(19)  Bbb    -0.0564   -28.322   -10.106    -9.447  0.0475  0.0987  0.9940
              Bcc     0.1169    58.697    20.944    19.579  0.9635  0.2581 -0.0716
 
              Baa    -0.1221   -61.318   -21.880   -20.453 -0.2830  0.6959 -0.6600
     3 F(19)  Bbb    -0.1161   -58.327   -20.812   -19.456  0.2563  0.7180  0.6472
              Bcc     0.2382   119.645    42.692    39.909  0.9242  0.0140 -0.3815
 
              Baa    -0.0287   -14.414    -5.143    -4.808  0.9927 -0.1189 -0.0223
     4 F(19)  Bbb    -0.0138    -6.918    -2.469    -2.308  0.1100  0.9642 -0.2411
              Bcc     0.0425    21.332     7.612     7.116  0.0502  0.2369  0.9702
 
              Baa    -0.5879   -78.884   -28.148   -26.313 -0.0825  0.9958 -0.0400
     5 C(13)  Bbb    -0.5716   -76.707   -27.371   -25.587  0.9934  0.0854  0.0772
              Bcc     1.1595   155.591    55.519    51.900 -0.0803  0.0334  0.9962
 
              Baa    -0.5555  -279.004   -99.556   -93.066 -0.0907  0.9952 -0.0377
     6 F(19)  Bbb    -0.4525  -227.261   -81.092   -75.806  0.9934  0.0931  0.0668
              Bcc     1.0080   506.265   180.648   168.872 -0.0700  0.0314  0.9971
 
              Baa    -0.0172    -2.305    -0.822    -0.769 -0.6206  0.7840 -0.0109
     7 C(13)  Bbb    -0.0103    -1.380    -0.492    -0.460  0.3109  0.2589  0.9145
              Bcc     0.0275     3.684     1.315     1.229  0.7198  0.5642 -0.4044
 
              Baa    -0.1661   -83.439   -29.773   -27.832  0.7875 -0.0406 -0.6150
     8 F(19)  Bbb    -0.1539   -77.302   -27.583   -25.785 -0.3693  0.7679 -0.5234
              Bcc     0.3201   160.742    57.357    53.618  0.4935  0.6393  0.5897
 
              Baa    -0.0628   -31.516   -11.246   -10.513  0.9619 -0.2136 -0.1704
     9 F(19)  Bbb    -0.0513   -25.776    -9.198    -8.598  0.0861 -0.3548  0.9310
              Bcc     0.1141    57.292    20.443    19.111  0.2593  0.9102  0.3229
 
              Baa    -0.0080    -1.069    -0.382    -0.357 -0.0636  0.9959 -0.0650
    10 C(13)  Bbb    -0.0064    -0.859    -0.307    -0.287 -0.1011  0.0583  0.9932
              Bcc     0.0144     1.929     0.688     0.643  0.9928  0.0697  0.0970
 
              Baa    -0.0170    -8.553    -3.052    -2.853  0.3148  0.8227  0.4734
    11 F(19)  Bbb    -0.0143    -7.202    -2.570    -2.402 -0.0962 -0.4685  0.8782
              Bcc     0.0314    15.755     5.622     5.255  0.9443 -0.3220 -0.0683
 
              Baa    -0.0087    -4.383    -1.564    -1.462 -0.4285 -0.4841  0.7629
    12 F(19)  Bbb    -0.0059    -2.962    -1.057    -0.988  0.2707  0.7368  0.6195
              Bcc     0.0146     7.345     2.621     2.450  0.8620 -0.4720  0.1847
 
              Baa    -0.0020    -0.270    -0.096    -0.090 -0.1371  0.9498 -0.2812
    13 C(13)  Bbb    -0.0016    -0.217    -0.077    -0.072 -0.0839  0.2717  0.9587
              Bcc     0.0036     0.486     0.174     0.162  0.9870  0.1550  0.0425
 
              Baa    -0.0021    -1.069    -0.381    -0.357 -0.4946  0.7236  0.4814
    14 F(19)  Bbb    -0.0018    -0.912    -0.325    -0.304  0.1040 -0.5007  0.8594
              Bcc     0.0039     1.981     0.707     0.661  0.8629  0.4751  0.1724
 
              Baa    -0.0016    -0.828    -0.295    -0.276 -0.4180  0.8699 -0.2619
    15 F(19)  Bbb    -0.0016    -0.785    -0.280    -0.262  0.1357  0.3449  0.9288
              Bcc     0.0032     1.613     0.576     0.538  0.8983  0.3527 -0.2621
 
              Baa    -0.0011    -0.144    -0.052    -0.048 -0.0892  0.9743 -0.2068
    16 C(13)  Bbb    -0.0009    -0.120    -0.043    -0.040 -0.0685  0.2011  0.9772
              Bcc     0.0020     0.264     0.094     0.088  0.9937  0.1013  0.0488
 
              Baa    -0.0005    -0.226    -0.081    -0.075 -0.2525  0.9598 -0.1225
    17 F(19)  Bbb    -0.0004    -0.207    -0.074    -0.069 -0.0419  0.1156  0.9924
              Bcc     0.0009     0.433     0.154     0.144  0.9667  0.2557  0.0111
 
              Baa    -0.0009    -0.464    -0.165    -0.155  0.0984  0.9688 -0.2277
    18 F(19)  Bbb    -0.0008    -0.420    -0.150    -0.140 -0.2494  0.2455  0.9368
              Bcc     0.0018     0.883     0.315     0.295  0.9634 -0.0354  0.2658
 
              Baa    -0.0010    -0.523    -0.187    -0.174  0.0784  0.8254 -0.5591
    19 F(19)  Bbb    -0.0010    -0.489    -0.174    -0.163  0.1483  0.5449  0.8253
              Bcc     0.0020     1.011     0.361     0.337  0.9858 -0.1476 -0.0797
 

 ---------------------------------------------------------------------------------

 1\1\GINC-CCLEARCO\FOpt\UwB97XD\6-311+G(2d,2p)\C6F13(2)\RAPPE\15-Nov-20
 25\0\\# opt freq uwb97xd/6-311+g(2d,2p) geom=connectivity scf=xqc\\Tit
 le Card Required\\0,2\C,2.7297691887,-0.2044734425,-0.080362542\F,3.54
 47875095,0.3173063439,-0.9978025917\F,3.2813420782,0.0200950701,1.1186
 349932\F,2.6568482091,-1.5166621173,-0.2664083381\C,1.3708085439,0.430
 4988881,-0.1759821224\F,1.3868042755,1.7358127469,-0.0072051113\C,0.08
 97207407,-0.2845680518,0.1470199208\F,0.0941206927,-0.6960011147,1.436
 6836416\F,-0.0205454054,-1.3776964879,-0.6293966543\C,-1.1625292446,0.
 6158530729,-0.0799112273\F,-1.0280290289,1.2326070067,-1.2637168511\F,
 -1.2053672346,1.538475851,0.8912591644\C,-2.5098152589,-0.1717963614,-
 0.0976005379\F,-2.5235483483,-1.0739261905,0.891870417\F,-2.6210637244
 ,-0.8052771571,-1.2699368214\C,-3.7682884233,0.7305824562,0.0734754191
 \F,-4.8487329105,0.0037447399,-0.1784959728\F,-3.8498750624,1.19711833
 87,1.3104324676\F,-3.7294600571,1.7504272788,-0.7758173835\\Version=EM
 64M-G16RevA.03\State=2-A\HF=-1526.5907638\S2=0.754028\S2-1=0.\S2A=0.75
 0011\RMSD=7.665e-09\RMSF=5.832e-06\Dipole=-0.0249298,0.1442805,-0.0914
 914\Quadrupole=-0.8634083,0.1400234,0.7233849,0.2046109,-0.3987879,0.0
 660233\PG=C01 [X(C6F13)]\\@


 SCIENCE AND PEACE WILL TRIUMPH OVER IGNORANCE AND WAR

                          -- PASTEUR
 Job cpu time:       1 days  5 hours 20 minutes 53.9 seconds.
 Elapsed time:       0 days  1 hours 14 minutes 11.6 seconds.
 File lengths (MBytes):  RWF=    285 Int=      0 D2E=      0 Chk=     26 Scr=      1
 Normal termination of Gaussian 16 at Sat Nov 15 04:52:39 2025.
 Link1:  Proceeding to internal job step number  2.
 ----------------------------------------------------------------------
 #N Geom=AllCheck Guess=TCheck SCRF=Check GenChk UwB97XD/6-311+G(2d,2p)
  Freq
 ----------------------------------------------------------------------
 1/10=4,29=7,30=1,38=1,40=1/1,3;
 2/12=2,40=1/2;
 3/5=4,6=6,7=212,11=2,14=-4,25=1,30=1,70=2,71=2,74=-58,116=2,140=1/1,2,3;
 4/5=101/1;
 5/5=2,8=3,13=1,38=6,98=1/2,8;
 8/6=4,10=90,11=11/1;
 11/6=1,8=1,9=11,15=111,16=1/1,2,10;
 10/6=1/2;
 6/7=2,8=2,9=2,10=2,28=1/1;
 7/8=1,10=1,25=1/1,2,3,16;
 1/10=4,30=1/3;
 99//99;
 Structure from the checkpoint file:  "2_hexyl.chk"
 -------------------
 Title Card Required
 -------------------
 Charge =  0 Multiplicity = 2
 Redundant internal coordinates found in file.  (old form).
 C,0,2.7297691887,-0.2044734425,-0.080362542
 F,0,3.5447875095,0.3173063439,-0.9978025917
 F,0,3.2813420782,0.0200950701,1.1186349932
 F,0,2.6568482091,-1.5166621173,-0.2664083381
 C,0,1.3708085439,0.4304988881,-0.1759821224
 F,0,1.3868042755,1.7358127469,-0.0072051113
 C,0,0.0897207407,-0.2845680518,0.1470199208
 F,0,0.0941206927,-0.6960011147,1.4366836416
 F,0,-0.0205454054,-1.3776964879,-0.6293966543
 C,0,-1.1625292446,0.6158530729,-0.0799112273
 F,0,-1.0280290289,1.2326070067,-1.2637168511
 F,0,-1.2053672346,1.538475851,0.8912591644
 C,0,-2.5098152589,-0.1717963614,-0.0976005379
 F,0,-2.5235483483,-1.0739261905,0.891870417
 F,0,-2.6210637244,-0.8052771571,-1.2699368214
 C,0,-3.7682884233,0.7305824562,0.0734754191
 F,0,-4.8487329105,0.0037447399,-0.1784959728
 F,0,-3.8498750624,1.1971183387,1.3104324676
 F,0,-3.7294600571,1.7504272788,-0.7758173835
 Recover connectivity data from disk.

 GradGradGradGradGradGradGradGradGradGradGradGradGradGradGradGradGradGrad
 Berny optimization.
 Initialization pass.
                           ----------------------------
                           !    Initial Parameters    !
                           ! (Angstroms and Degrees)  !
 --------------------------                            --------------------------
 ! Name  Definition              Value          Derivative Info.                !
 --------------------------------------------------------------------------------
 ! R1    R(1,2)                  1.3335         calculate D2E/DX2 analytically  !
 ! R2    R(1,3)                  1.3388         calculate D2E/DX2 analytically  !
 ! R3    R(1,4)                  1.3273         calculate D2E/DX2 analytically  !
 ! R4    R(1,5)                  1.503          calculate D2E/DX2 analytically  !
 ! R5    R(5,6)                  1.3163         calculate D2E/DX2 analytically  !
 ! R6    R(5,7)                  1.5023         calculate D2E/DX2 analytically  !
 ! R7    R(7,8)                  1.3537         calculate D2E/DX2 analytically  !
 ! R8    R(7,9)                  1.3453         calculate D2E/DX2 analytically  !
 ! R9    R(7,10)                 1.559          calculate D2E/DX2 analytically  !
 ! R10   R(10,11)                1.3416         calculate D2E/DX2 analytically  !
 ! R11   R(10,12)                1.3402         calculate D2E/DX2 analytically  !
 ! R12   R(10,13)                1.5607         calculate D2E/DX2 analytically  !
 ! R13   R(13,14)                1.3391         calculate D2E/DX2 analytically  !
 ! R14   R(13,15)                1.3372         calculate D2E/DX2 analytically  !
 ! R15   R(13,16)                1.558          calculate D2E/DX2 analytically  !
 ! R16   R(16,17)                1.3263         calculate D2E/DX2 analytically  !
 ! R17   R(16,18)                1.3245         calculate D2E/DX2 analytically  !
 ! R18   R(16,19)                1.3277         calculate D2E/DX2 analytically  !
 ! A1    A(2,1,3)              107.3811         calculate D2E/DX2 analytically  !
 ! A2    A(2,1,4)              108.9033         calculate D2E/DX2 analytically  !
 ! A3    A(2,1,5)              110.0922         calculate D2E/DX2 analytically  !
 ! A4    A(3,1,4)              108.3006         calculate D2E/DX2 analytically  !
 ! A5    A(3,1,5)              111.0157         calculate D2E/DX2 analytically  !
 ! A6    A(4,1,5)              111.0422         calculate D2E/DX2 analytically  !
 ! A7    A(1,5,6)              113.5655         calculate D2E/DX2 analytically  !
 ! A8    A(1,5,7)              123.7974         calculate D2E/DX2 analytically  !
 ! A9    A(6,5,7)              117.0532         calculate D2E/DX2 analytically  !
 ! A10   A(5,7,8)              110.2875         calculate D2E/DX2 analytically  !
 ! A11   A(5,7,9)              109.4246         calculate D2E/DX2 analytically  !
 ! A12   A(5,7,10)             112.2575         calculate D2E/DX2 analytically  !
 ! A13   A(8,7,9)              107.6456         calculate D2E/DX2 analytically  !
 ! A14   A(8,7,10)             108.4714         calculate D2E/DX2 analytically  !
 ! A15   A(9,7,10)             108.63           calculate D2E/DX2 analytically  !
 ! A16   A(7,10,11)            108.2664         calculate D2E/DX2 analytically  !
 ! A17   A(7,10,12)            108.5298         calculate D2E/DX2 analytically  !
 ! A18   A(7,10,13)            113.8015         calculate D2E/DX2 analytically  !
 ! A19   A(11,10,12)           109.0343         calculate D2E/DX2 analytically  !
 ! A20   A(11,10,13)           107.9717         calculate D2E/DX2 analytically  !
 ! A21   A(12,10,13)           109.1495         calculate D2E/DX2 analytically  !
 ! A22   A(10,13,14)           109.9058         calculate D2E/DX2 analytically  !
 ! A23   A(10,13,15)           108.7136         calculate D2E/DX2 analytically  !
 ! A24   A(10,13,16)           113.8124         calculate D2E/DX2 analytically  !
 ! A25   A(14,13,15)           109.1366         calculate D2E/DX2 analytically  !
 ! A26   A(14,13,16)           107.5047         calculate D2E/DX2 analytically  !
 ! A27   A(15,13,16)           107.6654         calculate D2E/DX2 analytically  !
 ! A28   A(13,16,17)           108.6476         calculate D2E/DX2 analytically  !
 ! A29   A(13,16,18)           110.8738         calculate D2E/DX2 analytically  !
 ! A30   A(13,16,19)           110.55           calculate D2E/DX2 analytically  !
 ! A31   A(17,16,18)           108.6788         calculate D2E/DX2 analytically  !
 ! A32   A(17,16,19)           108.8585         calculate D2E/DX2 analytically  !
 ! A33   A(18,16,19)           109.1848         calculate D2E/DX2 analytically  !
 ! D1    D(2,1,5,6)            -58.9046         calculate D2E/DX2 analytically  !
 ! D2    D(2,1,5,7)            148.339          calculate D2E/DX2 analytically  !
 ! D3    D(3,1,5,6)             59.8644         calculate D2E/DX2 analytically  !
 ! D4    D(3,1,5,7)            -92.8919         calculate D2E/DX2 analytically  !
 ! D5    D(4,1,5,6)           -179.591          calculate D2E/DX2 analytically  !
 ! D6    D(4,1,5,7)             27.6527         calculate D2E/DX2 analytically  !
 ! D7    D(1,5,7,8)             60.416          calculate D2E/DX2 analytically  !
 ! D8    D(1,5,7,9)            -57.8158         calculate D2E/DX2 analytically  !
 ! D9    D(1,5,7,10)          -178.5016         calculate D2E/DX2 analytically  !
 ! D10   D(6,5,7,8)            -91.475          calculate D2E/DX2 analytically  !
 ! D11   D(6,5,7,9)            150.2932         calculate D2E/DX2 analytically  !
 ! D12   D(6,5,7,10)            29.6074         calculate D2E/DX2 analytically  !
 ! D13   D(5,7,10,11)           45.7956         calculate D2E/DX2 analytically  !
 ! D14   D(5,7,10,12)          -72.4237         calculate D2E/DX2 analytically  !
 ! D15   D(5,7,10,13)          165.8427         calculate D2E/DX2 analytically  !
 ! D16   D(8,7,10,11)          167.9165         calculate D2E/DX2 analytically  !
 ! D17   D(8,7,10,12)           49.6971         calculate D2E/DX2 analytically  !
 ! D18   D(8,7,10,13)          -72.0365         calculate D2E/DX2 analytically  !
 ! D19   D(9,7,10,11)          -75.3478         calculate D2E/DX2 analytically  !
 ! D20   D(9,7,10,12)          166.4328         calculate D2E/DX2 analytically  !
 ! D21   D(9,7,10,13)           44.6993         calculate D2E/DX2 analytically  !
 ! D22   D(7,10,13,14)          43.3241         calculate D2E/DX2 analytically  !
 ! D23   D(7,10,13,15)         -76.0674         calculate D2E/DX2 analytically  !
 ! D24   D(7,10,13,16)         163.9523         calculate D2E/DX2 analytically  !
 ! D25   D(11,10,13,14)        163.5373         calculate D2E/DX2 analytically  !
 ! D26   D(11,10,13,15)         44.1458         calculate D2E/DX2 analytically  !
 ! D27   D(11,10,13,16)        -75.8344         calculate D2E/DX2 analytically  !
 ! D28   D(12,10,13,14)        -78.0652         calculate D2E/DX2 analytically  !
 ! D29   D(12,10,13,15)        162.5432         calculate D2E/DX2 analytically  !
 ! D30   D(12,10,13,16)         42.563          calculate D2E/DX2 analytically  !
 ! D31   D(10,13,16,17)        169.682          calculate D2E/DX2 analytically  !
 ! D32   D(10,13,16,18)        -70.9487         calculate D2E/DX2 analytically  !
 ! D33   D(10,13,16,19)         50.2867         calculate D2E/DX2 analytically  !
 ! D34   D(14,13,16,17)        -68.3524         calculate D2E/DX2 analytically  !
 ! D35   D(14,13,16,18)         51.0169         calculate D2E/DX2 analytically  !
 ! D36   D(14,13,16,19)        172.2523         calculate D2E/DX2 analytically  !
 ! D37   D(15,13,16,17)         49.1117         calculate D2E/DX2 analytically  !
 ! D38   D(15,13,16,18)        168.481          calculate D2E/DX2 analytically  !
 ! D39   D(15,13,16,19)        -70.2835         calculate D2E/DX2 analytically  !
 --------------------------------------------------------------------------------
 Trust Radius=3.00D-01 FncErr=1.00D-07 GrdErr=1.00D-07 EigMax=2.50D+02 EigMin=1.00D-04
 Number of steps in this run=      2 maximum allowed number of steps=      2.
 GradGradGradGradGradGradGradGradGradGradGradGradGradGradGradGradGradGrad

                          Input orientation:                          
 ---------------------------------------------------------------------
 Center     Atomic      Atomic             Coordinates (Angstroms)
 Number     Number       Type             X           Y           Z
 ---------------------------------------------------------------------
      1          6           0        2.729769   -0.204473   -0.080363
      2          9           0        3.544788    0.317306   -0.997803
      3          9           0        3.281342    0.020095    1.118635
      4          9           0        2.656848   -1.516662   -0.266408
      5          6           0        1.370809    0.430499   -0.175982
      6          9           0        1.386804    1.735813   -0.007205
      7          6           0        0.089721   -0.284568    0.147020
      8          9           0        0.094121   -0.696001    1.436684
      9          9           0       -0.020545   -1.377696   -0.629397
     10          6           0       -1.162529    0.615853   -0.079911
     11          9           0       -1.028029    1.232607   -1.263717
     12          9           0       -1.205367    1.538476    0.891259
     13          6           0       -2.509815   -0.171796   -0.097601
     14          9           0       -2.523548   -1.073926    0.891870
     15          9           0       -2.621064   -0.805277   -1.269937
     16          6           0       -3.768288    0.730582    0.073475
     17          9           0       -4.848733    0.003745   -0.178496
     18          9           0       -3.849875    1.197118    1.310432
     19          9           0       -3.729460    1.750427   -0.775817
 ---------------------------------------------------------------------
                    Distance matrix (angstroms):
                    1          2          3          4          5
     1  C    0.000000
     2  F    1.333494   0.000000
     3  F    1.338753   2.153380   0.000000
     4  F    1.327317   2.164905   2.161009   0.000000
     5  C    1.503033   2.326883   2.344057   2.335275   0.000000
     6  F    2.360851   2.765924   2.792933   3.501256   1.316277
     7  C    2.651033   3.689222   3.350120   2.877346   1.502277
     8  F    3.080531   4.342881   3.282123   3.184585   2.345128
     9  F    3.040086   3.964890   3.988972   2.705459   2.326160
    10  C    3.977804   4.805256   4.641059   4.378361   2.541926
    11  F    4.193635   4.671096   5.071140   4.704405   2.753355
    12  F    4.412167   5.255833   4.742124   5.058732   3.000550
    13  C    5.239715   6.140668   5.920604   5.341495   3.927868
    14  F    5.412812   6.506235   5.911434   5.326738   4.309248
    15  F    5.514296   6.273115   6.420663   5.419363   4.319598
    16  C    6.566791   7.402669   7.162014   6.815278   5.153891
    17  F    7.581997   8.439240   8.232918   7.658532   6.234166
    18  F    6.869533   7.796349   7.230244   7.224159   5.482032
    19  F    6.784315   7.417398   7.465544   7.191544   5.302335
                    6          7          8          9         10
     6  F    0.000000
     7  C    2.405857   0.000000
     8  F    3.109592   1.353709   0.000000
     9  F    3.472995   1.345329   2.178657   0.000000
    10  C    2.785444   1.558970   2.366472   2.362266   0.000000
    11  F    2.768295   2.354010   3.502986   2.868984   1.341593
    12  F    2.750551   2.356827   2.641788   3.495749   1.340239
    13  C    4.339446   2.613454   3.067458   2.816641   1.560732
    14  F    4.898349   2.829676   2.700341   2.944750   2.377412
    15  F    4.910665   3.102782   3.835357   2.738732   2.358621
    16  C    5.252807   3.990009   4.337244   4.357115   2.612790
    17  F    6.473896   4.957561   5.246928   5.042131   3.737980
    18  F    5.426709   4.366845   4.376636   5.005634   3.081031
    19  F    5.173697   4.424814   5.049747   4.854137   2.891484
                   11         12         13         14         15
    11  F    0.000000
    12  F    2.183787   0.000000
    13  C    2.351142   2.367374   0.000000
    14  F    3.493312   2.926132   1.339059   0.000000
    15  F    2.586652   3.488287   1.337179   2.180617   0.000000
    16  C    3.090167   2.808919   1.557982   2.339957   2.340886
    17  F    4.157594   4.095594   2.346890   2.777326   2.609266
    18  F    3.819728   2.699195   2.377445   2.663077   3.489681
    19  F    2.793549   3.032344   2.375385   3.494621   2.829191
                   16         17         18         19
    16  C    0.000000
    17  F    1.326327   0.000000
    18  F    1.324528   2.153779   0.000000
    19  F    1.327738   2.158811   2.161733   0.000000
 Stoichiometry    C6F13(2)
 Framework group  C1[X(C6F13)]
 Deg. of freedom    51
 Full point group                 C1      NOp   1
 Largest Abelian subgroup         C1      NOp   1
 Largest concise Abelian subgroup C1      NOp   1
                         Standard orientation:                         
 ---------------------------------------------------------------------
 Center     Atomic      Atomic             Coordinates (Angstroms)
 Number     Number       Type             X           Y           Z
 ---------------------------------------------------------------------
      1          6           0       -3.400687    0.036094   -0.068222
      2          9           0       -4.163295   -0.580698   -0.971661
      3          9           0       -3.919434   -0.224781    1.138055
      4          9           0       -3.463558    1.345764   -0.274576
      5          6           0       -1.984438   -0.457995   -0.164252
      6          9           0       -1.865745   -1.755277    0.024313
      7          6           0       -0.781439    0.389343    0.138486
      8          9           0       -0.820483    0.818444    1.421793
      9          9           0       -0.788147    1.475643   -0.655125
     10          6           0        0.555078   -0.381752   -0.084047
     11          9           0        0.477584   -1.027609   -1.257390
     12          9           0        0.697754   -1.279734    0.900591
     13          6           0        1.814527    0.539179   -0.123535
     14          9           0        1.741552    1.453465    0.852085
     15          9           0        1.853563    1.162159   -1.306082
     16          6           0        3.159735   -0.226954    0.051867
     17          9           0        4.158620    0.602509   -0.218988
     18          9           0        3.295800   -0.663145    1.295088
     19          9           0        3.220607   -1.258681   -0.781633
 ---------------------------------------------------------------------
 Rotational constants (GHZ):           0.9115475           0.2112692           0.2028369
 Standard basis: 6-311+G(2d,2p) (5D, 7F)
 There are   551 symmetry adapted cartesian basis functions of A   symmetry.
 There are   513 symmetry adapted basis functions of A   symmetry.
   513 basis functions,   798 primitive gaussians,   551 cartesian basis functions
    77 alpha electrons       76 beta electrons
       nuclear repulsion energy      1875.5700560833 Hartrees.
 NAtoms=   19 NActive=   19 NUniq=   19 SFac= 1.00D+00 NAtFMM=   60 NAOKFM=F Big=F
 Integral buffers will be    131072 words long.
 Raffenetti 2 integral format.
 Two-electron integral symmetry is turned on.
 Nuclear repulsion after empirical dispersion term =     1875.5573847854 Hartrees.
 One-electron integrals computed using PRISM.
 NBasis=   513 RedAO= T EigKep=  4.12D-06  NBF=   513
 NBsUse=   513 1.00D-06 EigRej= -1.00D+00 NBFU=   513
 Initial guess from the checkpoint file:  "2_hexyl.chk"
 B after Tr=    -0.000000   -0.000000    0.000000
         Rot=    1.000000    0.000000   -0.000000   -0.000000 Ang=   0.00 deg.
 Initial guess <Sx>= 0.0000 <Sy>= 0.0000 <Sz>= 0.5000 <S**2>= 0.7540 S= 0.5020
 Requested convergence on RMS density matrix=1.00D-08 within  32 cycles.
 Requested convergence on MAX density matrix=1.00D-06.
 Requested convergence on             energy=1.00D-06.
 No special actions if energy rises.
 SCF Done:  E(UwB97XD) =  -1526.59076381     A.U. after    1 cycles
            NFock=  1  Conv=0.44D-08     -V/T= 2.0025
 <Sx>= 0.0000 <Sy>= 0.0000 <Sz>= 0.5000 <S**2>= 0.7540 S= 0.5020
 <L.S>= 0.000000000000E+00
 Annihilation of the first spin contaminant:
 S**2 before annihilation     0.7540,   after     0.7500
 QCSCF skips out because SCF is already converged.
 DoSCS=F DFT=T ScalE2(SS,OS)=  1.000000  1.000000
 Range of M.O.s used for correlation:     1   513
 NBasis=   513 NAE=    77 NBE=    76 NFC=     0 NFV=     0
 NROrb=    513 NOA=    77 NOB=    76 NVA=   436 NVB=   437

 **** Warning!!: The largest alpha MO coefficient is  0.86362598D+02


 **** Warning!!: The largest beta MO coefficient is  0.94512790D+02

 Symmetrizing basis deriv contribution to polar:
 IMax=3 JMax=2 DiffMx= 0.00D+00
 G2DrvN: will do    20 centers at a time, making    1 passes.
 Calling FoFCou, ICntrl=  3107 FMM=F I1Cent=   0 AccDes= 0.00D+00.
 End of G2Drv F.D. properties file   721 does not exist.
 End of G2Drv F.D. properties file   722 does not exist.
 End of G2Drv F.D. properties file   788 does not exist.
          IDoAtm=1111111111111111111
          Differentiating once with respect to electric field.
                with respect to dipole field.
          Differentiating once with respect to nuclear coordinates.
 CalDSu exits because no D1Ps are significant.
          There are    60 degrees of freedom in the 1st order CPHF.  IDoFFX=6 NUNeed=     3.
     57 vectors produced by pass  0 Test12= 1.11D-13 1.67D-09 XBig12= 4.90D+01 1.21D+00.
 AX will form    57 AO Fock derivatives at one time.
     57 vectors produced by pass  1 Test12= 1.11D-13 1.67D-09 XBig12= 9.47D+00 1.90D-01.
     57 vectors produced by pass  2 Test12= 1.11D-13 1.67D-09 XBig12= 4.61D-01 6.52D-02.
     57 vectors produced by pass  3 Test12= 1.11D-13 1.67D-09 XBig12= 1.20D-02 2.40D-02.
     57 vectors produced by pass  4 Test12= 1.11D-13 1.67D-09 XBig12= 2.51D-04 2.25D-03.
     57 vectors produced by pass  5 Test12= 1.11D-13 1.67D-09 XBig12= 3.14D-06 1.83D-04.
     57 vectors produced by pass  6 Test12= 1.11D-13 1.67D-09 XBig12= 3.37D-08 1.73D-05.
     51 vectors produced by pass  7 Test12= 1.11D-13 1.67D-09 XBig12= 3.84D-10 1.40D-06.
     16 vectors produced by pass  8 Test12= 1.11D-13 1.67D-09 XBig12= 3.85D-12 1.63D-07.
      3 vectors produced by pass  9 Test12= 1.11D-13 1.67D-09 XBig12= 4.59D-14 1.55D-08.
      2 vectors produced by pass 10 Test12= 1.11D-13 1.67D-09 XBig12= 2.27D-15 4.37D-09.
 InvSVY:  IOpt=1 It=  1 EMax= 9.77D-15
 Solved reduced A of dimension   471 with    60 vectors.
 Isotropic polarizability for W=    0.000000       79.09 Bohr**3.
 End of Minotr F.D. properties file   721 does not exist.
 End of Minotr F.D. properties file   722 does not exist.
 End of Minotr F.D. properties file   788 does not exist.

 **********************************************************************

            Population analysis using the SCF density.

 **********************************************************************

 Orbital symmetries:
 Alpha Orbitals:
       Occupied  (A) (A) (A) (A) (A) (A) (A) (A) (A) (A) (A) (A)
                 (A) (A) (A) (A) (A) (A) (A) (A) (A) (A) (A) (A)
                 (A) (A) (A) (A) (A) (A) (A) (A) (A) (A) (A) (A)
                 (A) (A) (A) (A) (A) (A) (A) (A) (A) (A) (A) (A)
                 (A) (A) (A) (A) (A) (A) (A) (A) (A) (A) (A) (A)
                 (A) (A) (A) (A) (A) (A) (A) (A) (A) (A) (A) (A)
                 (A) (A) (A) (A) (A)
       Virtual   (A) (A) (A) (A) (A) (A) (A) (A) (A) (A) (A) (A)
                 (A) (A) (A) (A) (A) (A) (A) (A) (A) (A) (A) (A)
                 (A) (A) (A) (A) (A) (A) (A) (A) (A) (A) (A) (A)
                 (A) (A) (A) (A) (A) (A) (A) (A) (A) (A) (A) (A)
                 (A) (A) (A) (A) (A) (A) (A) (A) (A) (A) (A) (A)
                 (A) (A) (A) (A) (A) (A) (A) (A) (A) (A) (A) (A)
                 (A) (A) (A) (A) (A) (A) (A) (A) (A) (A) (A) (A)
                 (A) (A) (A) (A) (A) (A) (A) (A) (A) (A) (A) (A)
                 (A) (A) (A) (A) (A) (A) (A) (A) (A) (A) (A) (A)
                 (A) (A) (A) (A) (A) (A) (A) (A) (A) (A) (A) (A)
                 (A) (A) (A) (A) (A) (A) (A) (A) (A) (A) (A) (A)
                 (A) (A) (A) (A) (A) (A) (A) (A) (A) (A) (A) (A)
                 (A) (A) (A) (A) (A) (A) (A) (A) (A) (A) (A) (A)
                 (A) (A) (A) (A) (A) (A) (A) (A) (A) (A) (A) (A)
                 (A) (A) (A) (A) (A) (A) (A) (A) (A) (A) (A) (A)
                 (A) (A) (A) (A) (A) (A) (A) (A) (A) (A) (A) (A)
                 (A) (A) (A) (A) (A) (A) (A) (A) (A) (A) (A) (A)
                 (A) (A) (A) (A) (A) (A) (A) (A) (A) (A) (A) (A)
                 (A) (A) (A) (A) (A) (A) (A) (A) (A) (A) (A) (A)
                 (A) (A) (A) (A) (A) (A) (A) (A) (A) (A) (A) (A)
                 (A) (A) (A) (A) (A) (A) (A) (A) (A) (A) (A) (A)
                 (A) (A) (A) (A) (A) (A) (A) (A) (A) (A) (A) (A)
                 (A) (A) (A) (A) (A) (A) (A) (A) (A) (A) (A) (A)
                 (A) (A) (A) (A) (A) (A) (A) (A) (A) (A) (A) (A)
                 (A) (A) (A) (A) (A) (A) (A) (A) (A) (A) (A) (A)
                 (A) (A) (A) (A) (A) (A) (A) (A) (A) (A) (A) (A)
                 (A) (A) (A) (A) (A) (A) (A) (A) (A) (A) (A) (A)
                 (A) (A) (A) (A) (A) (A) (A) (A) (A) (A) (A) (A)
                 (A) (A) (A) (A) (A) (A) (A) (A) (A) (A) (A) (A)
                 (A) (A) (A) (A) (A) (A) (A) (A) (A) (A) (A) (A)
                 (A) (A) (A) (A) (A) (A) (A) (A) (A) (A) (A) (A)
                 (A) (A) (A) (A) (A) (A) (A) (A) (A) (A) (A) (A)
                 (A) (A) (A) (A) (A) (A) (A) (A) (A) (A) (A) (A)
                 (A) (A) (A) (A) (A) (A) (A) (A) (A) (A) (A) (A)
                 (A) (A) (A) (A) (A) (A) (A) (A) (A) (A) (A) (A)
                 (A) (A) (A) (A) (A) (A) (A) (A) (A) (A) (A) (A)
                 (A) (A) (A) (A)
 Beta  Orbitals:
       Occupied  (A) (A) (A) (A) (A) (A) (A) (A) (A) (A) (A) (A)
                 (A) (A) (A) (A) (A) (A) (A) (A) (A) (A) (A) (A)
                 (A) (A) (A) (A) (A) (A) (A) (A) (A) (A) (A) (A)
                 (A) (A) (A) (A) (A) (A) (A) (A) (A) (A) (A) (A)
                 (A) (A) (A) (A) (A) (A) (A) (A) (A) (A) (A) (A)
                 (A) (A) (A) (A) (A) (A) (A) (A) (A) (A) (A) (A)
                 (A) (A) (A) (A)
       Virtual   (A) (A) (A) (A) (A) (A) (A) (A) (A) (A) (A) (A)
                 (A) (A) (A) (A) (A) (A) (A) (A) (A) (A) (A) (A)
                 (A) (A) (A) (A) (A) (A) (A) (A) (A) (A) (A) (A)
                 (A) (A) (A) (A) (A) (A) (A) (A) (A) (A) (A) (A)
                 (A) (A) (A) (A) (A) (A) (A) (A) (A) (A) (A) (A)
                 (A) (A) (A) (A) (A) (A) (A) (A) (A) (A) (A) (A)
                 (A) (A) (A) (A) (A) (A) (A) (A) (A) (A) (A) (A)
                 (A) (A) (A) (A) (A) (A) (A) (A) (A) (A) (A) (A)
                 (A) (A) (A) (A) (A) (A) (A) (A) (A) (A) (A) (A)
                 (A) (A) (A) (A) (A) (A) (A) (A) (A) (A) (A) (A)
                 (A) (A) (A) (A) (A) (A) (A) (A) (A) (A) (A) (A)
                 (A) (A) (A) (A) (A) (A) (A) (A) (A) (A) (A) (A)
                 (A) (A) (A) (A) (A) (A) (A) (A) (A) (A) (A) (A)
                 (A) (A) (A) (A) (A) (A) (A) (A) (A) (A) (A) (A)
                 (A) (A) (A) (A) (A) (A) (A) (A) (A) (A) (A) (A)
                 (A) (A) (A) (A) (A) (A) (A) (A) (A) (A) (A) (A)
                 (A) (A) (A) (A) (A) (A) (A) (A) (A) (A) (A) (A)
                 (A) (A) (A) (A) (A) (A) (A) (A) (A) (A) (A) (A)
                 (A) (A) (A) (A) (A) (A) (A) (A) (A) (A) (A) (A)
                 (A) (A) (A) (A) (A) (A) (A) (A) (A) (A) (A) (A)
                 (A) (A) (A) (A) (A) (A) (A) (A) (A) (A) (A) (A)
                 (A) (A) (A) (A) (A) (A) (A) (A) (A) (A) (A) (A)
                 (A) (A) (A) (A) (A) (A) (A) (A) (A) (A) (A) (A)
                 (A) (A) (A) (A) (A) (A) (A) (A) (A) (A) (A) (A)
                 (A) (A) (A) (A) (A) (A) (A) (A) (A) (A) (A) (A)
                 (A) (A) (A) (A) (A) (A) (A) (A) (A) (A) (A) (A)
                 (A) (A) (A) (A) (A) (A) (A) (A) (A) (A) (A) (A)
                 (A) (A) (A) (A) (A) (A) (A) (A) (A) (A) (A) (A)
                 (A) (A) (A) (A) (A) (A) (A) (A) (A) (A) (A) (A)
                 (A) (A) (A) (A) (A) (A) (A) (A) (A) (A) (A) (A)
                 (A) (A) (A) (A) (A) (A) (A) (A) (A) (A) (A) (A)
                 (A) (A) (A) (A) (A) (A) (A) (A) (A) (A) (A) (A)
                 (A) (A) (A) (A) (A) (A) (A) (A) (A) (A) (A) (A)
                 (A) (A) (A) (A) (A) (A) (A) (A) (A) (A) (A) (A)
                 (A) (A) (A) (A) (A) (A) (A) (A) (A) (A) (A) (A)
                 (A) (A) (A) (A) (A) (A) (A) (A) (A) (A) (A) (A)
                 (A) (A) (A) (A) (A)
 The electronic state is 2-A.
 Alpha  occ. eigenvalues --  -24.90136 -24.88531 -24.88491 -24.88370 -24.88262
 Alpha  occ. eigenvalues --  -24.88234 -24.88151 -24.88104 -24.88008 -24.87904
 Alpha  occ. eigenvalues --  -24.87562 -24.87562 -24.87428 -10.58705 -10.58633
 Alpha  occ. eigenvalues --  -10.53508 -10.53484 -10.53284 -10.45804  -1.47756
 Alpha  occ. eigenvalues --   -1.46767  -1.45056  -1.43180  -1.42709  -1.42140
 Alpha  occ. eigenvalues --   -1.38725  -1.37977  -1.37857  -1.37547  -1.37018
 Alpha  occ. eigenvalues --   -1.36991  -1.36583  -0.97238  -0.94746  -0.90458
 Alpha  occ. eigenvalues --   -0.85266  -0.81070  -0.79256  -0.76315  -0.75750
 Alpha  occ. eigenvalues --   -0.74634  -0.74042  -0.73878  -0.73471  -0.72781
 Alpha  occ. eigenvalues --   -0.72116  -0.71310  -0.70434  -0.69909  -0.68957
 Alpha  occ. eigenvalues --   -0.64757  -0.62338  -0.61959  -0.61026  -0.60516
 Alpha  occ. eigenvalues --   -0.60405  -0.60080  -0.59747  -0.59428  -0.59234
 Alpha  occ. eigenvalues --   -0.58594  -0.57784  -0.56812  -0.56750  -0.56365
 Alpha  occ. eigenvalues --   -0.55874  -0.55599  -0.55363  -0.55057  -0.54533
 Alpha  occ. eigenvalues --   -0.54227  -0.54048  -0.53710  -0.52889  -0.50226
 Alpha  occ. eigenvalues --   -0.45351  -0.37906
 Alpha virt. eigenvalues --    0.05224   0.07194   0.07348   0.08278   0.09752
 Alpha virt. eigenvalues --    0.09973   0.10282   0.10538   0.11772   0.12275
 Alpha virt. eigenvalues --    0.12733   0.13104   0.13445   0.14025   0.14632
 Alpha virt. eigenvalues --    0.15299   0.16107   0.16699   0.17515   0.17910
 Alpha virt. eigenvalues --    0.18574   0.19007   0.19517   0.21335   0.21414
 Alpha virt. eigenvalues --    0.22868   0.22925   0.23744   0.24290   0.24991
 Alpha virt. eigenvalues --    0.25882   0.25974   0.26551   0.27193   0.28934
 Alpha virt. eigenvalues --    0.29187   0.29848   0.30570   0.30922   0.31374
 Alpha virt. eigenvalues --    0.31896   0.31988   0.32401   0.32819   0.33531
 Alpha virt. eigenvalues --    0.33858   0.34343   0.35297   0.35746   0.36540
 Alpha virt. eigenvalues --    0.36750   0.37522   0.37778   0.38211   0.38871
 Alpha virt. eigenvalues --    0.38933   0.39404   0.40252   0.40813   0.41325
 Alpha virt. eigenvalues --    0.41634   0.41983   0.42524   0.43012   0.43585
 Alpha virt. eigenvalues --    0.43705   0.43970   0.44335   0.44939   0.45292
 Alpha virt. eigenvalues --    0.45799   0.46422   0.46771   0.47080   0.48240
 Alpha virt. eigenvalues --    0.48711   0.49298   0.49381   0.50577   0.51228
 Alpha virt. eigenvalues --    0.51474   0.52230   0.53307   0.53735   0.54595
 Alpha virt. eigenvalues --    0.55252   0.56458   0.57368   0.57734   0.59446
 Alpha virt. eigenvalues --    0.61397   0.61849   0.64125   0.64938   0.65155
 Alpha virt. eigenvalues --    0.67572   0.69166   0.69472   0.70194   0.71905
 Alpha virt. eigenvalues --    0.72413   0.74002   0.74802   0.74936   0.76285
 Alpha virt. eigenvalues --    0.78045   0.79727   0.80602   0.81109   0.82710
 Alpha virt. eigenvalues --    0.83985   0.84395   0.85997   0.86893   0.92919
 Alpha virt. eigenvalues --    0.95291   0.98159   1.00845   1.03169   1.04449
 Alpha virt. eigenvalues --    1.06891   1.07816   1.09098   1.10231   1.11623
 Alpha virt. eigenvalues --    1.12473   1.15163   1.15945   1.17289   1.18700
 Alpha virt. eigenvalues --    1.21255   1.25307   1.26469   1.29736   1.30386
 Alpha virt. eigenvalues --    1.31739   1.32424   1.34710   1.35545   1.37345
 Alpha virt. eigenvalues --    1.37811   1.39445   1.40059   1.40321   1.41373
 Alpha virt. eigenvalues --    1.41678   1.42262   1.42454   1.43769   1.44284
 Alpha virt. eigenvalues --    1.44857   1.45124   1.45601   1.46319   1.46511
 Alpha virt. eigenvalues --    1.46895   1.47430   1.47644   1.48818   1.49172
 Alpha virt. eigenvalues --    1.49531   1.50317   1.50423   1.51733   1.51948
 Alpha virt. eigenvalues --    1.52757   1.53004   1.53953   1.54235   1.55079
 Alpha virt. eigenvalues --    1.55452   1.56195   1.57268   1.57394   1.58660
 Alpha virt. eigenvalues --    1.59065   1.59919   1.61561   1.63526   1.64061
 Alpha virt. eigenvalues --    1.68101   1.68862   1.69917   1.71543   1.73207
 Alpha virt. eigenvalues --    1.78565   1.79767   1.90076   1.92342   1.97179
 Alpha virt. eigenvalues --    1.98686   1.99001   2.01095   2.02412   2.03461
 Alpha virt. eigenvalues --    2.04264   2.04874   2.05789   2.06751   2.07897
 Alpha virt. eigenvalues --    2.08234   2.08780   2.10950   2.11294   2.12466
 Alpha virt. eigenvalues --    2.13210   2.13567   2.14270   2.15126   2.16004
 Alpha virt. eigenvalues --    2.17469   2.18910   2.19403   2.20749   2.21167
 Alpha virt. eigenvalues --    2.21632   2.22470   2.24448   2.24665   2.26925
 Alpha virt. eigenvalues --    2.28203   2.28554   2.31345   2.32257   2.33777
 Alpha virt. eigenvalues --    2.34633   2.37218   2.38782   2.39279   2.41310
 Alpha virt. eigenvalues --    2.43787   2.44642   2.47208   2.48099   2.51476
 Alpha virt. eigenvalues --    2.53343   2.55349   2.56365   2.58265   2.60260
 Alpha virt. eigenvalues --    2.63181   2.65092   2.67464   2.68195   2.69318
 Alpha virt. eigenvalues --    2.70421   2.73095   2.74249   2.75018   2.77042
 Alpha virt. eigenvalues --    2.79842   2.82032   2.82954   2.84324   2.86216
 Alpha virt. eigenvalues --    2.87059   2.90032   2.95225   2.99461   3.02713
 Alpha virt. eigenvalues --    3.05119   3.12970   3.15071   3.18454   3.23499
 Alpha virt. eigenvalues --    3.24543   3.26970   3.27383   3.33112   3.36974
 Alpha virt. eigenvalues --    3.41903   3.44676   3.46540   3.48111   3.50051
 Alpha virt. eigenvalues --    3.50939   3.51817   3.53308   3.54406   3.55764
 Alpha virt. eigenvalues --    3.57177   3.58421   3.59986   3.61026   3.62811
 Alpha virt. eigenvalues --    3.64230   3.65026   3.66895   3.69571   3.72141
 Alpha virt. eigenvalues --    3.75451   3.76901   3.77776   3.78422   3.81150
 Alpha virt. eigenvalues --    3.83830   3.86376   3.88578   4.00602   4.02813
 Alpha virt. eigenvalues --    4.06989   4.30194   4.30856   4.31421   4.32186
 Alpha virt. eigenvalues --    4.35976   4.36845   4.39473   4.40065   4.40872
 Alpha virt. eigenvalues --    4.44545   4.51234   4.62681   6.37558   6.41213
 Alpha virt. eigenvalues --    6.41827   6.42569   6.43171   6.43568   6.44314
 Alpha virt. eigenvalues --    6.44456   6.45351   6.46803   6.47077   6.47816
 Alpha virt. eigenvalues --    6.48366   6.49183   6.50183   6.51340   6.51845
 Alpha virt. eigenvalues --    6.52216   6.53791   6.53848   6.54739   6.55489
 Alpha virt. eigenvalues --    6.56193   6.57244   6.60338   6.63145   6.64041
 Alpha virt. eigenvalues --    6.66141   6.70040   6.72633   6.74103   6.79523
 Alpha virt. eigenvalues --    6.85209   6.85370   6.88151   6.88593   6.91897
 Alpha virt. eigenvalues --    6.95527   7.00203   9.07940   9.08213   9.08843
 Alpha virt. eigenvalues --    9.09081   9.09781   9.10550   9.10840   9.11283
 Alpha virt. eigenvalues --    9.12269   9.12535   9.14640   9.16704   9.17504
 Alpha virt. eigenvalues --    9.18388   9.19315   9.19924   9.21018   9.21196
 Alpha virt. eigenvalues --    9.21248   9.22225   9.22675   9.23199   9.23950
 Alpha virt. eigenvalues --    9.24317   9.25466   9.25663   9.26180   9.27715
 Alpha virt. eigenvalues --    9.28454   9.28718   9.28793   9.29418   9.34235
 Alpha virt. eigenvalues --    9.34781   9.35183   9.36872   9.39633   9.42189
 Alpha virt. eigenvalues --    9.43533   9.44998   9.46099   9.49968   9.50947
 Alpha virt. eigenvalues --    9.56582   9.63795   9.65210   9.66960   9.67459
 Alpha virt. eigenvalues --    9.68587   9.69434   9.72487   9.73486   9.75655
 Alpha virt. eigenvalues --    9.76107   9.77381   9.78041   9.78866   9.80867
 Alpha virt. eigenvalues --    9.81468   9.83813   9.87496   9.88417   9.90057
 Alpha virt. eigenvalues --    9.91834   9.92018  23.89776  23.94635  23.98456
 Alpha virt. eigenvalues --   24.00618  24.06915  24.08471  66.90591  66.93113
 Alpha virt. eigenvalues --   66.93726  66.94627  66.94835  66.95075  66.96551
 Alpha virt. eigenvalues --   66.98858  66.99046  67.00398  67.02248  67.04914
 Alpha virt. eigenvalues --   67.05963
  Beta  occ. eigenvalues --  -24.89751 -24.88527 -24.88481 -24.88370 -24.88261
  Beta  occ. eigenvalues --  -24.88234 -24.88151 -24.88104 -24.88000 -24.87860
  Beta  occ. eigenvalues --  -24.87515 -24.87416 -24.87323 -10.58705 -10.58689
  Beta  occ. eigenvalues --  -10.53559 -10.53486 -10.53286 -10.44574  -1.47754
  Beta  occ. eigenvalues --   -1.46612  -1.44990  -1.43118  -1.42550  -1.41194
  Beta  occ. eigenvalues --   -1.38713  -1.37972  -1.37832  -1.37471  -1.37006
  Beta  occ. eigenvalues --   -1.36783  -1.36353  -0.96305  -0.93741  -0.89968
  Beta  occ. eigenvalues --   -0.85048  -0.80842  -0.78830  -0.76232  -0.75592
  Beta  occ. eigenvalues --   -0.74600  -0.73884  -0.73611  -0.72859  -0.72680
  Beta  occ. eigenvalues --   -0.72043  -0.71062  -0.70235  -0.69491  -0.68756
  Beta  occ. eigenvalues --   -0.62234  -0.62053  -0.61705  -0.60863  -0.60455
  Beta  occ. eigenvalues --   -0.60355  -0.59882  -0.59435  -0.59307  -0.59140
  Beta  occ. eigenvalues --   -0.58394  -0.57696  -0.56526  -0.56378  -0.55833
  Beta  occ. eigenvalues --   -0.55757  -0.55373  -0.55295  -0.55011  -0.54424
  Beta  occ. eigenvalues --   -0.54156  -0.54004  -0.53579  -0.52586  -0.49900
  Beta  occ. eigenvalues --   -0.45137
  Beta virt. eigenvalues --   -0.07029   0.05480   0.07222   0.07601   0.08285
  Beta virt. eigenvalues --    0.09870   0.10045   0.10309   0.10724   0.11939
  Beta virt. eigenvalues --    0.12320   0.12759   0.13130   0.13481   0.14095
  Beta virt. eigenvalues --    0.15128   0.15497   0.16165   0.16710   0.17691
  Beta virt. eigenvalues --    0.17972   0.18702   0.19378   0.19579   0.21345
  Beta virt. eigenvalues --    0.22089   0.22983   0.23184   0.23815   0.24317
  Beta virt. eigenvalues --    0.25691   0.26034   0.26514   0.26585   0.27672
  Beta virt. eigenvalues --    0.28976   0.29361   0.29904   0.30562   0.30936
  Beta virt. eigenvalues --    0.31764   0.31997   0.32180   0.32510   0.32951
  Beta virt. eigenvalues --    0.33604   0.34073   0.34687   0.35380   0.35862
  Beta virt. eigenvalues --    0.36689   0.37101   0.37622   0.37930   0.38514
  Beta virt. eigenvalues --    0.38938   0.39342   0.39487   0.40327   0.40918
  Beta virt. eigenvalues --    0.41375   0.41646   0.42022   0.42547   0.43107
  Beta virt. eigenvalues --    0.43597   0.43779   0.44036   0.44415   0.45116
  Beta virt. eigenvalues --    0.45350   0.45823   0.46434   0.46939   0.47104
  Beta virt. eigenvalues --    0.48297   0.48785   0.49291   0.49427   0.50625
  Beta virt. eigenvalues --    0.51265   0.51532   0.52302   0.53318   0.53750
  Beta virt. eigenvalues --    0.54671   0.55411   0.56616   0.57369   0.57949
  Beta virt. eigenvalues --    0.59479   0.61534   0.61904   0.64332   0.65020
  Beta virt. eigenvalues --    0.65242   0.67633   0.69403   0.69668   0.70424
  Beta virt. eigenvalues --    0.71963   0.72704   0.74138   0.75067   0.75348
  Beta virt. eigenvalues --    0.76831   0.78450   0.80212   0.80813   0.81387
  Beta virt. eigenvalues --    0.83093   0.84175   0.84502   0.86451   0.87300
  Beta virt. eigenvalues --    0.93525   0.95358   0.98740   1.00848   1.03550
  Beta virt. eigenvalues --    1.04527   1.07159   1.08149   1.09204   1.10432
  Beta virt. eigenvalues --    1.11681   1.12557   1.15333   1.16162   1.17505
  Beta virt. eigenvalues --    1.18847   1.21401   1.25431   1.26888   1.29915
  Beta virt. eigenvalues --    1.30620   1.31847   1.32726   1.34894   1.35633
  Beta virt. eigenvalues --    1.37513   1.37947   1.39535   1.40119   1.40454
  Beta virt. eigenvalues --    1.41625   1.41792   1.42350   1.42607   1.43988
  Beta virt. eigenvalues --    1.44339   1.45022   1.45278   1.45651   1.46424
  Beta virt. eigenvalues --    1.46598   1.47096   1.47516   1.47875   1.48915
  Beta virt. eigenvalues --    1.49318   1.49585   1.50391   1.50534   1.51852
  Beta virt. eigenvalues --    1.52082   1.52808   1.53065   1.54032   1.54326
  Beta virt. eigenvalues --    1.55125   1.55525   1.56257   1.57405   1.57525
  Beta virt. eigenvalues --    1.58801   1.59105   1.59966   1.61616   1.63702
  Beta virt. eigenvalues --    1.64137   1.68222   1.68970   1.70021   1.71610
  Beta virt. eigenvalues --    1.73842   1.78643   1.79921   1.90150   1.92413
  Beta virt. eigenvalues --    1.97279   1.98774   1.99135   2.01185   2.02479
  Beta virt. eigenvalues --    2.03513   2.04309   2.04956   2.05848   2.06832
  Beta virt. eigenvalues --    2.07980   2.08276   2.08834   2.11031   2.11318
  Beta virt. eigenvalues --    2.12536   2.13259   2.13619   2.14555   2.15191
  Beta virt. eigenvalues --    2.16076   2.17565   2.19036   2.19679   2.20896
  Beta virt. eigenvalues --    2.21206   2.21688   2.22649   2.24562   2.25080
  Beta virt. eigenvalues --    2.27048   2.28909   2.29021   2.31621   2.32392
  Beta virt. eigenvalues --    2.33926   2.34794   2.37305   2.38818   2.39384
  Beta virt. eigenvalues --    2.41500   2.43874   2.44705   2.47356   2.48225
  Beta virt. eigenvalues --    2.51772   2.53437   2.55632   2.56528   2.58368
  Beta virt. eigenvalues --    2.60423   2.63244   2.65388   2.67719   2.68248
  Beta virt. eigenvalues --    2.69399   2.70444   2.73312   2.74455   2.76053
  Beta virt. eigenvalues --    2.77089   2.79988   2.82697   2.83302   2.84712
  Beta virt. eigenvalues --    2.86656   2.87274   2.90290   2.95290   2.99850
  Beta virt. eigenvalues --    3.03169   3.05470   3.13264   3.15360   3.18676
  Beta virt. eigenvalues --    3.24234   3.24629   3.27354   3.29541   3.34042
  Beta virt. eigenvalues --    3.38348   3.43152   3.45521   3.47962   3.48158
  Beta virt. eigenvalues --    3.51080   3.51789   3.52094   3.53660   3.54560
  Beta virt. eigenvalues --    3.56175   3.57392   3.58556   3.61103   3.61346
  Beta virt. eigenvalues --    3.63057   3.65285   3.66499   3.68211   3.70045
  Beta virt. eigenvalues --    3.72351   3.75703   3.77147   3.78263   3.78578
  Beta virt. eigenvalues --    3.81546   3.84335   3.86890   3.89385   4.01676
  Beta virt. eigenvalues --    4.03812   4.07440   4.30338   4.30866   4.31492
  Beta virt. eigenvalues --    4.32199   4.36077   4.37009   4.39553   4.40681
  Beta virt. eigenvalues --    4.40985   4.45015   4.51336   4.63675   6.38606
  Beta virt. eigenvalues --    6.41289   6.41953   6.42725   6.43233   6.43639
  Beta virt. eigenvalues --    6.44339   6.44492   6.45422   6.46903   6.47173
  Beta virt. eigenvalues --    6.47877   6.48440   6.49261   6.50240   6.51498
  Beta virt. eigenvalues --    6.51918   6.52279   6.53813   6.53939   6.54831
  Beta virt. eigenvalues --    6.55582   6.56241   6.57316   6.60409   6.63288
  Beta virt. eigenvalues --    6.64155   6.66252   6.70103   6.72682   6.74173
  Beta virt. eigenvalues --    6.79934   6.85340   6.85548   6.88179   6.88600
  Beta virt. eigenvalues --    6.91899   6.95616   7.00276   9.08112   9.08276
  Beta virt. eigenvalues --    9.08876   9.09239   9.09925   9.10606   9.10926
  Beta virt. eigenvalues --    9.11333   9.12366   9.13146   9.15231   9.17022
  Beta virt. eigenvalues --    9.17970   9.18714   9.19402   9.20004   9.21126
  Beta virt. eigenvalues --    9.21236   9.21415   9.22477   9.22911   9.23369
  Beta virt. eigenvalues --    9.24026   9.24447   9.25491   9.25718   9.26247
  Beta virt. eigenvalues --    9.27863   9.28584   9.28803   9.29014   9.29928
  Beta virt. eigenvalues --    9.34391   9.34855   9.35229   9.37457   9.39761
  Beta virt. eigenvalues --    9.42280   9.43597   9.45138   9.46385   9.50123
  Beta virt. eigenvalues --    9.50954   9.56824   9.63915   9.65316   9.67008
  Beta virt. eigenvalues --    9.67617   9.68597   9.69585   9.72657   9.73569
  Beta virt. eigenvalues --    9.75909   9.76135   9.77647   9.78085   9.78975
  Beta virt. eigenvalues --    9.81040   9.81512   9.83958   9.87609   9.88585
  Beta virt. eigenvalues --    9.90062   9.91838   9.92118  23.91594  23.94659
  Beta virt. eigenvalues --   23.98434  24.00744  24.07096  24.08515  66.90799
  Beta virt. eigenvalues --   66.93127  66.93742  66.94679  66.94840  66.95089
  Beta virt. eigenvalues --   66.96593  66.98871  66.99088  67.00416  67.02312
  Beta virt. eigenvalues --   67.04932  67.06015
          Condensed to atoms (all electrons):
               1          2          3          4          5          6
     1  C    9.048275   0.127819   0.316078   0.166521  -3.387153  -0.109383
     2  F    0.127819   9.097349  -0.011695   0.012685  -0.053653   0.024493
     3  F    0.316078  -0.011695   9.064391   0.001264  -0.062438   0.009275
     4  F    0.166521   0.012685   0.001264   9.081191  -0.037918   0.006723
     5  C   -3.387153  -0.053653  -0.062438  -0.037918  11.753092   0.183997
     6  F   -0.109383   0.024493   0.009275   0.006723   0.183997   9.166189
     7  C    1.305293   0.053739  -0.076333   0.022087  -4.341661   0.027362
     8  F    0.047432   0.000033   0.007765   0.003736  -0.155034   0.000280
     9  F   -0.012172  -0.001063  -0.002500   0.010785  -0.126582   0.002063
    10  C   -2.187241   0.016692   0.007753   0.022140   2.830424  -0.139878
    11  F    0.035984  -0.000024   0.000047  -0.000181   0.059020   0.017380
    12  F   -0.007232  -0.000016  -0.000215  -0.000043  -0.060726   0.015599
    13  C   -0.261564   0.001871  -0.000687   0.006022  -0.967050   0.031847
    14  F    0.000639  -0.000001   0.000005   0.000018   0.031303  -0.000075
    15  F    0.001967   0.000006  -0.000001   0.000011  -0.015115   0.000044
    16  C   -0.049760   0.000034   0.000111  -0.000276  -0.047415  -0.005916
    17  F    0.000114   0.000000   0.000000  -0.000000   0.000341  -0.000007
    18  F    0.000564  -0.000000   0.000000  -0.000001   0.004610   0.000025
    19  F    0.000938  -0.000000  -0.000000   0.000000   0.008003   0.000006
               7          8          9         10         11         12
     1  C    1.305293   0.047432  -0.012172  -2.187241   0.035984  -0.007232
     2  F    0.053739   0.000033  -0.001063   0.016692  -0.000024  -0.000016
     3  F   -0.076333   0.007765  -0.002500   0.007753   0.000047  -0.000215
     4  F    0.022087   0.003736   0.010785   0.022140  -0.000181  -0.000043
     5  C   -4.341661  -0.155034  -0.126582   2.830424   0.059020  -0.060726
     6  F    0.027362   0.000280   0.002063  -0.139878   0.017380   0.015599
     7  C   15.099366   0.420416   0.374861  -7.802003  -0.218347  -0.106884
     8  F    0.420416   9.082739  -0.004175  -0.170376  -0.000386   0.028156
     9  F    0.374861  -0.004175   9.094936  -0.140842   0.013989   0.000702
    10  C   -7.802003  -0.170376  -0.140842  16.222494   0.389129   0.387649
    11  F   -0.218347  -0.000386   0.013989   0.389129   9.085612   0.007269
    12  F   -0.106884   0.028156   0.000702   0.387649   0.007269   9.097255
    13  C    1.957528  -0.007619  -0.025330  -4.656362  -0.154683  -0.171188
    14  F   -0.013615   0.006766   0.013267  -0.109557  -0.000769   0.010610
    15  F    0.012573  -0.002019   0.010543  -0.093214   0.021096   0.000228
    16  C   -0.953868  -0.017591   0.027078   1.109635  -0.012225   0.037327
    17  F    0.015343   0.000014  -0.000018   0.055580  -0.000915   0.000200
    18  F   -0.010382  -0.000723   0.000115   0.010322  -0.002431   0.005291
    19  F    0.062669  -0.000061  -0.000129  -0.010515   0.006655   0.007459
              13         14         15         16         17         18
     1  C   -0.261564   0.000639   0.001967  -0.049760   0.000114   0.000564
     2  F    0.001871  -0.000001   0.000006   0.000034   0.000000  -0.000000
     3  F   -0.000687   0.000005  -0.000001   0.000111   0.000000   0.000000
     4  F    0.006022   0.000018   0.000011  -0.000276  -0.000000  -0.000001
     5  C   -0.967050   0.031303  -0.015115  -0.047415   0.000341   0.004610
     6  F    0.031847  -0.000075   0.000044  -0.005916  -0.000007   0.000025
     7  C    1.957528  -0.013615   0.012573  -0.953868   0.015343  -0.010382
     8  F   -0.007619   0.006766  -0.002019  -0.017591   0.000014  -0.000723
     9  F   -0.025330   0.013267   0.010543   0.027078  -0.000018   0.000115
    10  C   -4.656362  -0.109557  -0.093214   1.109635   0.055580   0.010322
    11  F   -0.154683  -0.000769   0.021096  -0.012225  -0.000915  -0.002431
    12  F   -0.171188   0.010610   0.000228   0.037327   0.000200   0.005291
    13  C   10.831261   0.321188   0.370689  -1.465421  -0.130839  -0.075927
    14  F    0.321188   9.113320   0.002679  -0.146964   0.020326   0.022180
    15  F    0.370689   0.002679   9.072883  -0.165078   0.021666  -0.000958
    16  C   -1.465421  -0.146964  -0.165078   5.885359   0.195177   0.282278
    17  F   -0.130839   0.020326   0.021666   0.195177   9.116292  -0.007976
    18  F   -0.075927   0.022180  -0.000958   0.282278  -0.007976   9.037341
    19  F   -0.092460   0.001240   0.015730   0.206107   0.003529   0.005164
              19
     1  C    0.000938
     2  F   -0.000000
     3  F   -0.000000
     4  F    0.000000
     5  C    0.008003
     6  F    0.000006
     7  C    0.062669
     8  F   -0.000061
     9  F   -0.000129
    10  C   -0.010515
    11  F    0.006655
    12  F    0.007459
    13  C   -0.092460
    14  F    0.001240
    15  F    0.015730
    16  C    0.206107
    17  F    0.003529
    18  F    0.005164
    19  F    9.069630
          Atomic-Atomic Spin Densities.
               1          2          3          4          5          6
     1  C   -0.070492  -0.000347  -0.013325   0.002707   0.060751   0.002256
     2  F   -0.000347   0.025075  -0.003833   0.000803  -0.018917   0.002574
     3  F   -0.013325  -0.003833   0.056593   0.001023  -0.026365   0.002836
     4  F    0.002707   0.000803   0.001023   0.001446  -0.000567  -0.000186
     5  C    0.060751  -0.018917  -0.026365  -0.000567   0.989889  -0.110116
     6  F    0.002256   0.002574   0.002836  -0.000186  -0.110116   0.168731
     7  C    0.036142  -0.000153  -0.006318  -0.003642   0.010549  -0.004886
     8  F   -0.003278  -0.000677   0.003222   0.000464  -0.027384   0.002071
     9  F    0.000152   0.000499  -0.000482   0.000256  -0.017422   0.000844
    10  C   -0.016269  -0.000571   0.002343   0.001172   0.028175   0.002130
    11  F   -0.000672   0.000060  -0.000075  -0.000008  -0.008216   0.001880
    12  F    0.000134   0.000002   0.000011   0.000007  -0.000377   0.000026
    13  C    0.002733  -0.000107   0.000166   0.000014  -0.002721  -0.000663
    14  F   -0.000046   0.000001  -0.000005  -0.000002   0.000204   0.000003
    15  F    0.000040   0.000001  -0.000000   0.000001  -0.000305   0.000004
    16  C   -0.000382  -0.000031   0.000065   0.000021  -0.001187  -0.000005
    17  F    0.000000   0.000000  -0.000000  -0.000000  -0.000002   0.000000
    18  F    0.000005  -0.000000   0.000000   0.000000  -0.000040   0.000001
    19  F   -0.000009  -0.000000   0.000000  -0.000000  -0.000000  -0.000005
               7          8          9         10         11         12
     1  C    0.036142  -0.003278   0.000152  -0.016269  -0.000672   0.000134
     2  F   -0.000153  -0.000677   0.000499  -0.000571   0.000060   0.000002
     3  F   -0.006318   0.003222  -0.000482   0.002343  -0.000075   0.000011
     4  F   -0.003642   0.000464   0.000256   0.001172  -0.000008   0.000007
     5  C    0.010549  -0.027384  -0.017422   0.028175  -0.008216  -0.000377
     6  F   -0.004886   0.002071   0.000844   0.002130   0.001880   0.000026
     7  C    0.033854  -0.026045   0.004531  -0.067846   0.001442  -0.000133
     8  F   -0.026045   0.078419  -0.004228  -0.004496  -0.000882   0.000647
     9  F    0.004531  -0.004228   0.020232   0.003338   0.001118  -0.000222
    10  C   -0.067846  -0.004496   0.003338   0.090196   0.001230  -0.001119
    11  F    0.001442  -0.000882   0.001118   0.001230   0.002650  -0.000227
    12  F   -0.000133   0.000647  -0.000222  -0.001119  -0.000227   0.001408
    13  C    0.018256   0.002732  -0.002446  -0.023551   0.001174   0.000545
    14  F    0.000203  -0.000287   0.000195   0.000393   0.000058  -0.000034
    15  F    0.000283   0.000019  -0.000004   0.000260   0.000066  -0.000016
    16  C   -0.007190   0.000774  -0.000507   0.004126  -0.000954   0.000047
    17  F    0.000075  -0.000004   0.000005   0.000201  -0.000002  -0.000001
    18  F   -0.000176   0.000021  -0.000012   0.000047  -0.000009  -0.000003
    19  F   -0.000081   0.000005  -0.000005  -0.000085   0.000020   0.000011
              13         14         15         16         17         18
     1  C    0.002733  -0.000046   0.000040  -0.000382   0.000000   0.000005
     2  F   -0.000107   0.000001   0.000001  -0.000031   0.000000  -0.000000
     3  F    0.000166  -0.000005  -0.000000   0.000065  -0.000000   0.000000
     4  F    0.000014  -0.000002   0.000001   0.000021  -0.000000   0.000000
     5  C   -0.002721   0.000204  -0.000305  -0.001187  -0.000002  -0.000040
     6  F   -0.000663   0.000003   0.000004  -0.000005   0.000000   0.000001
     7  C    0.018256   0.000203   0.000283  -0.007190   0.000075  -0.000176
     8  F    0.002732  -0.000287   0.000019   0.000774  -0.000004   0.000021
     9  F   -0.002446   0.000195  -0.000004  -0.000507   0.000005  -0.000012
    10  C   -0.023551   0.000393   0.000260   0.004126   0.000201   0.000047
    11  F    0.001174   0.000058   0.000066  -0.000954  -0.000002  -0.000009
    12  F    0.000545  -0.000034  -0.000016   0.000047  -0.000001  -0.000003
    13  C    0.012180  -0.000217  -0.000728  -0.009180   0.000134  -0.000342
    14  F   -0.000217   0.000125  -0.000001  -0.000314  -0.000009  -0.000014
    15  F   -0.000728  -0.000001   0.000034   0.000339   0.000002   0.000006
    16  C   -0.009180  -0.000314   0.000339   0.013782  -0.000343   0.000453
    17  F    0.000134  -0.000009   0.000002  -0.000343  -0.000064  -0.000004
    18  F   -0.000342  -0.000014   0.000006   0.000453  -0.000004   0.000026
    19  F   -0.000068  -0.000013   0.000007   0.000233  -0.000013   0.000020
              19
     1  C   -0.000009
     2  F   -0.000000
     3  F    0.000000
     4  F   -0.000000
     5  C   -0.000000
     6  F   -0.000005
     7  C   -0.000081
     8  F    0.000005
     9  F   -0.000005
    10  C   -0.000085
    11  F    0.000020
    12  F    0.000011
    13  C   -0.000068
    14  F   -0.000013
    15  F    0.000007
    16  C    0.000233
    17  F   -0.000013
    18  F    0.000020
    19  F    0.000006
 Mulliken charges and spin densities:
               1          2
     1  C    0.962881   0.000099
     2  F   -0.268268   0.004376
     3  F   -0.252819   0.015856
     4  F   -0.294763   0.003510
     5  C    0.383955   0.875947
     6  F   -0.230023   0.067493
     7  C    0.171855  -0.011135
     8  F   -0.239351   0.021095
     9  F   -0.235528   0.005841
    10  C    0.258167   0.019674
    11  F   -0.246220  -0.001347
    12  F   -0.251441   0.000706
    13  C    0.488721  -0.002089
    14  F   -0.272560   0.000238
    15  F   -0.253731   0.000009
    16  C    1.121409  -0.000252
    17  F   -0.288827  -0.000024
    18  F   -0.269491  -0.000019
    19  F   -0.283966   0.000022
 Sum of Mulliken charges =  -0.00000   1.00000
 Mulliken charges and spin densities with hydrogens summed into heavy atoms:
               1          2
     1  C    0.962881   0.000099
     2  F   -0.268268   0.004376
     3  F   -0.252819   0.015856
     4  F   -0.294763   0.003510
     5  C    0.383955   0.875947
     6  F   -0.230023   0.067493
     7  C    0.171855  -0.011135
     8  F   -0.239351   0.021095
     9  F   -0.235528   0.005841
    10  C    0.258167   0.019674
    11  F   -0.246220  -0.001347
    12  F   -0.251441   0.000706
    13  C    0.488721  -0.002089
    14  F   -0.272560   0.000238
    15  F   -0.253731   0.000009
    16  C    1.121409  -0.000252
    17  F   -0.288827  -0.000024
    18  F   -0.269491  -0.000019
    19  F   -0.283966   0.000022
 APT charges:
               1
     1  C    1.675785
     2  F   -0.556227
     3  F   -0.554973
     4  F   -0.499897
     5  C    0.261830
     6  F   -0.395099
     7  C    1.025925
     8  F   -0.493121
     9  F   -0.452841
    10  C    0.910280
    11  F   -0.462770
    12  F   -0.458001
    13  C    0.917491
    14  F   -0.462201
    15  F   -0.464838
    16  C    1.556474
    17  F   -0.545231
    18  F   -0.500349
    19  F   -0.502239
 Sum of APT charges =   0.00000
 APT charges with hydrogens summed into heavy atoms:
               1
     1  C    1.675785
     2  F   -0.556227
     3  F   -0.554973
     4  F   -0.499897
     5  C    0.261830
     6  F   -0.395099
     7  C    1.025925
     8  F   -0.493121
     9  F   -0.452841
    10  C    0.910280
    11  F   -0.462770
    12  F   -0.458001
    13  C    0.917491
    14  F   -0.462201
    15  F   -0.464838
    16  C    1.556474
    17  F   -0.545231
    18  F   -0.500349
    19  F   -0.502239
 Electronic spatial extent (au):  <R**2>=           4861.9820
 Charge=             -0.0000 electrons
 Dipole moment (field-independent basis, Debye):
    X=              0.0992    Y=             -0.3619    Z=             -0.2275  Tot=              0.4388
 Quadrupole moment (field-independent basis, Debye-Ang):
   XX=           -103.2842   YY=           -101.8580   ZZ=           -101.1198
   XY=              0.1405   XZ=              0.5531   YZ=             -0.0226
 Traceless Quadrupole moment (field-independent basis, Debye-Ang):
   XX=             -1.1969   YY=              0.2294   ZZ=              0.9675
   XY=              0.1405   XZ=              0.5531   YZ=             -0.0226
 Octapole moment (field-independent basis, Debye-Ang**2):
  XXX=             14.9498  YYY=             -0.2657  ZZZ=              0.5553  XYY=              1.6621
  XXY=             -0.2026  XXZ=              0.5064  XZZ=              0.8424  YZZ=             -0.2863
  YYZ=              1.3746  XYZ=              0.4114
 Hexadecapole moment (field-independent basis, Debye-Ang**3):
 XXXX=          -4003.9711 YYYY=           -588.1440 ZZZZ=           -421.7057 XXXY=            -19.3664
 XXXZ=             -0.9719 YYYX=             -1.3293 YYYZ=             -0.7430 ZZZX=             -0.5363
 ZZZY=             -1.2827 XXYY=           -759.0932 XXZZ=           -736.5604 YYZZ=           -169.4819
 XXYZ=             -0.2633 YYXZ=             -1.1344 ZZXY=             -0.3730
 N-N= 1.875557384785D+03 E-N=-7.377519695856D+03  KE= 1.522708817790D+03
  Exact polarizability:  90.339   1.293  74.819   0.382  -0.051  72.110
 Approx polarizability:  80.387   1.769  87.349   0.296  -0.460  88.798
                          Isotropic Fermi Contact Couplings
        Atom                 a.u.       MegaHertz       Gauss      10(-4) cm-1
     1  C(13)             -0.02742     -30.82252     -10.99824     -10.28129
     2  F(19)              0.00998      42.00286      14.98767      14.01065
     3  F(19)              0.02217      93.25985      33.27743      31.10814
     4  F(19)             -0.00178      -7.49041      -2.67276      -2.49853
     5  C(13)              0.13102     147.29345      52.55796      49.13181
     6  F(19)              0.03840     161.57198      57.65290      53.89461
     7  C(13)             -0.01951     -21.93378      -7.82652      -7.31632
     8  F(19)              0.03864     162.58949      58.01597      54.23402
     9  F(19)              0.01054      44.35641      15.82747      14.79570
    10  C(13)              0.00054       0.60725       0.21668       0.20256
    11  F(19)              0.00348      14.63284       5.22136       4.88099
    12  F(19)              0.00026       1.10119       0.39293       0.36732
    13  C(13)             -0.00047      -0.52598      -0.18768      -0.17545
    14  F(19)              0.00019       0.81171       0.28964       0.27076
    15  F(19)             -0.00004      -0.17638      -0.06294      -0.05883
    16  C(13)             -0.00016      -0.18494      -0.06599      -0.06169
    17  F(19)             -0.00003      -0.13051      -0.04657      -0.04353
    18  F(19)              0.00001       0.03419       0.01220       0.01140
    19  F(19)              0.00002       0.10362       0.03697       0.03456
 --------------------------------------------------------
       Center         ----  Spin Dipole Couplings  ----
                      3XX-RR        3YY-RR        3ZZ-RR
 --------------------------------------------------------
     1   Atom        0.016431     -0.015385     -0.001047
     2   Atom        0.104159     -0.048626     -0.055533
     3   Atom        0.186096     -0.118953     -0.067143
     4   Atom       -0.028341     -0.010828      0.039169
     5   Atom       -0.560585     -0.585786      1.146371
     6   Atom       -0.446203     -0.553102      0.999306
     7   Atom        0.006617     -0.002507     -0.004110
     8   Atom       -0.046054      0.039766      0.006288
     9   Atom       -0.050777      0.085189     -0.034412
    10   Atom        0.014070     -0.007854     -0.006216
    11   Atom        0.026152     -0.011422     -0.014730
    12   Atom        0.008833     -0.001988     -0.006845
    13   Atom        0.003481     -0.001845     -0.001636
    14   Atom        0.002396     -0.000679     -0.001717
    15   Atom        0.002275     -0.001034     -0.001241
    16   Atom        0.001931     -0.001037     -0.000893
    17   Atom        0.000776     -0.000364     -0.000412
    18   Atom        0.001572     -0.000915     -0.000657
    19   Atom        0.001929     -0.000954     -0.000975
 --------------------------------------------------------
                        XY            XZ            YZ
 --------------------------------------------------------
     1   Atom       -0.009407      0.015475     -0.003503
     2   Atom        0.044118     -0.012044     -0.002877
     3   Atom        0.005759     -0.126078      0.000842
     4   Atom        0.002430      0.003070      0.012891
     5   Atom       -0.003305     -0.138491      0.058207
     6   Atom        0.006096     -0.102268      0.049559
     7   Atom        0.018681     -0.011031     -0.008551
     8   Atom        0.149929      0.143862      0.178380
     9   Atom        0.041388      0.015722      0.048195
    10   Atom        0.001537      0.001994      0.000242
    11   Atom       -0.014594     -0.003351     -0.000042
    12   Atom       -0.008938      0.004191     -0.000744
    13   Atom        0.000853      0.000204      0.000140
    14   Atom        0.002473      0.000931      0.000363
    15   Atom        0.001544     -0.001134     -0.000422
    16   Atom        0.000304      0.000135      0.000051
    17   Atom        0.000324      0.000012      0.000008
    18   Atom       -0.000097      0.000666     -0.000005
    19   Atom       -0.000439     -0.000232      0.000066
 --------------------------------------------------------


 ---------------------------------------------------------------------------------
              Anisotropic Spin Dipole Couplings in Principal Axis System
 ---------------------------------------------------------------------------------

       Atom             a.u.   MegaHertz   Gauss  10(-4) cm-1        Axes

              Baa    -0.0180    -2.416    -0.862    -0.806  0.2916  0.9540 -0.0690
     1 C(13)  Bbb    -0.0097    -1.306    -0.466    -0.436 -0.4449  0.1991  0.8732
              Bcc     0.0277     3.722     1.328     1.242  0.8468 -0.2239  0.4825
 
              Baa    -0.0605   -30.374   -10.838   -10.132 -0.2636  0.9611 -0.0828
     2 F(19)  Bbb    -0.0564   -28.322   -10.106    -9.447  0.0475  0.0987  0.9940
              Bcc     0.1169    58.696    20.944    19.579  0.9635  0.2581 -0.0716
 
              Baa    -0.1221   -61.318   -21.880   -20.454 -0.2830  0.6960 -0.6600
     3 F(19)  Bbb    -0.1161   -58.327   -20.813   -19.456  0.2563  0.7180  0.6472
              Bcc     0.2382   119.645    42.692    39.909  0.9242  0.0140 -0.3815
 
              Baa    -0.0287   -14.414    -5.143    -4.808  0.9927 -0.1189 -0.0223
     4 F(19)  Bbb    -0.0138    -6.918    -2.469    -2.308  0.1100  0.9642 -0.2412
              Bcc     0.0425    21.332     7.612     7.116  0.0502  0.2369  0.9702
 
              Baa    -0.5879   -78.884   -28.148   -26.313 -0.0825  0.9958 -0.0400
     5 C(13)  Bbb    -0.5716   -76.707   -27.371   -25.587  0.9934  0.0854  0.0772
              Bcc     1.1595   155.591    55.519    51.900 -0.0803  0.0334  0.9962
 
              Baa    -0.5555  -279.004   -99.556   -93.066 -0.0907  0.9952 -0.0377
     6 F(19)  Bbb    -0.4525  -227.261   -81.093   -75.806  0.9934  0.0931  0.0668
              Bcc     1.0080   506.265   180.648   168.872 -0.0700  0.0314  0.9971
 
              Baa    -0.0172    -2.305    -0.822    -0.769 -0.6206  0.7840 -0.0109
     7 C(13)  Bbb    -0.0103    -1.380    -0.492    -0.460  0.3109  0.2588  0.9145
              Bcc     0.0275     3.684     1.315     1.229  0.7198  0.5642 -0.4044
 
              Baa    -0.1661   -83.439   -29.773   -27.832  0.7875 -0.0406 -0.6150
     8 F(19)  Bbb    -0.1539   -77.302   -27.583   -25.785 -0.3693  0.7679 -0.5234
              Bcc     0.3201   160.741    57.356    53.618  0.4935  0.6393  0.5897
 
              Baa    -0.0628   -31.516   -11.246   -10.513  0.9619 -0.2136 -0.1704
     9 F(19)  Bbb    -0.0513   -25.776    -9.198    -8.598  0.0861 -0.3548  0.9310
              Bcc     0.1141    57.292    20.443    19.111  0.2593  0.9102  0.3229
 
              Baa    -0.0080    -1.069    -0.382    -0.357 -0.0636  0.9959 -0.0650
    10 C(13)  Bbb    -0.0064    -0.859    -0.307    -0.287 -0.1011  0.0584  0.9932
              Bcc     0.0144     1.929     0.688     0.643  0.9928  0.0697  0.0970
 
              Baa    -0.0170    -8.553    -3.052    -2.853  0.3148  0.8227  0.4734
    11 F(19)  Bbb    -0.0143    -7.202    -2.570    -2.402 -0.0962 -0.4685  0.8782
              Bcc     0.0314    15.755     5.622     5.255  0.9443 -0.3220 -0.0683
 
              Baa    -0.0087    -4.383    -1.564    -1.462 -0.4285 -0.4841  0.7629
    12 F(19)  Bbb    -0.0059    -2.962    -1.057    -0.988  0.2707  0.7368  0.6195
              Bcc     0.0146     7.345     2.621     2.450  0.8620 -0.4720  0.1847
 
              Baa    -0.0020    -0.270    -0.096    -0.090 -0.1371  0.9498 -0.2812
    13 C(13)  Bbb    -0.0016    -0.217    -0.077    -0.072 -0.0839  0.2717  0.9587
              Bcc     0.0036     0.486     0.174     0.162  0.9870  0.1550  0.0425
 
              Baa    -0.0021    -1.069    -0.381    -0.357 -0.4946  0.7236  0.4814
    14 F(19)  Bbb    -0.0018    -0.912    -0.325    -0.304  0.1040 -0.5007  0.8594
              Bcc     0.0039     1.981     0.707     0.661  0.8629  0.4751  0.1724
 
              Baa    -0.0016    -0.828    -0.295    -0.276 -0.4180  0.8699 -0.2619
    15 F(19)  Bbb    -0.0016    -0.785    -0.280    -0.262  0.1357  0.3448  0.9288
              Bcc     0.0032     1.613     0.576     0.538  0.8983  0.3527 -0.2621
 
              Baa    -0.0011    -0.144    -0.052    -0.048 -0.0892  0.9743 -0.2068
    16 C(13)  Bbb    -0.0009    -0.120    -0.043    -0.040 -0.0685  0.2011  0.9772
              Bcc     0.0020     0.264     0.094     0.088  0.9937  0.1013  0.0488
 
              Baa    -0.0005    -0.226    -0.081    -0.075 -0.2524  0.9598 -0.1225
    17 F(19)  Bbb    -0.0004    -0.207    -0.074    -0.069 -0.0419  0.1156  0.9924
              Bcc     0.0009     0.433     0.154     0.144  0.9667  0.2557  0.0111
 
              Baa    -0.0009    -0.464    -0.165    -0.155  0.0984  0.9688 -0.2277
    18 F(19)  Bbb    -0.0008    -0.420    -0.150    -0.140 -0.2494  0.2455  0.9368
              Bcc     0.0018     0.883     0.315     0.295  0.9634 -0.0354  0.2658
 
              Baa    -0.0010    -0.523    -0.187    -0.174  0.0784  0.8254 -0.5590
    19 F(19)  Bbb    -0.0010    -0.489    -0.174    -0.163  0.1483  0.5449  0.8253
              Bcc     0.0020     1.011     0.361     0.337  0.9858 -0.1476 -0.0797
 

 ---------------------------------------------------------------------------------

 Calling FoFJK, ICntrl=    100127 FMM=F ISym2X=0 I1Cent= 0 IOpClX= 1 NMat=1 NMatS=1 NMatT=0.
 Full mass-weighted force constant matrix:
 Low frequencies ---   -4.4297   -3.2776    0.0004    0.0006    0.0007    4.2783
 Low frequencies ---   17.4219   25.7592   38.7555
 Diagonal vibrational polarizability:
       28.0433380      20.3406404      25.7545657
 Harmonic frequencies (cm**-1), IR intensities (KM/Mole), Raman scattering
 activities (A**4/AMU), depolarization ratios for plane and unpolarized
 incident light, reduced masses (AMU), force constants (mDyne/A),
 and normal coordinates:
                      1                      2                      3
                      A                      A                      A
 Frequencies --     17.1760                25.7296                38.7364
 Red. masses --     18.6193                18.3262                18.6197
 Frc consts  --      0.0032                 0.0071                 0.0165
 IR Inten    --      0.0090                 0.0679                 0.0292
  Atom  AN      X      Y      Z        X      Y      Z        X      Y      Z
     1   6    -0.00  -0.02   0.13     0.00  -0.01   0.11     0.01   0.05  -0.01
     2   9    -0.04   0.30  -0.05    -0.22  -0.21   0.44    -0.03   0.04   0.03
     3   9     0.03  -0.42   0.06     0.33   0.23   0.31     0.05   0.09   0.02
     4   9     0.02   0.05   0.57    -0.08  -0.05  -0.13     0.03   0.04  -0.04
     5   6    -0.01   0.01  -0.06    -0.01   0.01  -0.19    -0.00   0.01  -0.05
     6   9     0.04  -0.02  -0.25     0.03  -0.01  -0.32    -0.05  -0.01  -0.15
     7   6    -0.00   0.03  -0.14    -0.01   0.01  -0.16     0.02  -0.08   0.10
     8   9    -0.02   0.17  -0.19    -0.06   0.03  -0.17     0.07  -0.36   0.19
     9   9     0.01  -0.05  -0.26     0.01   0.00  -0.18     0.03   0.09   0.32
    10   6    -0.00   0.01  -0.04    -0.00   0.02  -0.11     0.01  -0.05  -0.10
    11   9     0.05  -0.06  -0.01     0.08   0.07  -0.14    -0.06   0.09  -0.17
    12   9    -0.05   0.07   0.02    -0.08  -0.03  -0.13     0.11  -0.16  -0.22
    13   6     0.01  -0.00  -0.05     0.01   0.01   0.03    -0.02   0.01  -0.10
    14   9    -0.03   0.08  -0.13    -0.05  -0.03   0.06    -0.12   0.11  -0.20
    15   9     0.07  -0.10  -0.10     0.10   0.06   0.06     0.03  -0.11  -0.16
    16   6    -0.01  -0.00   0.09    -0.01  -0.01   0.10    -0.02   0.05   0.09
    17   9     0.01  -0.04   0.06     0.02  -0.01   0.22    -0.01  -0.03  -0.15
    18   9    -0.08   0.11   0.13    -0.12  -0.08   0.09    -0.01   0.40   0.21
    19   9     0.01  -0.08   0.19     0.05   0.03   0.05    -0.04  -0.18   0.37
                      4                      5                      6
                      A                      A                      A
 Frequencies --     58.8564                69.6671                87.5210
 Red. masses --     18.3138                18.2707                18.2616
 Frc consts  --      0.0374                 0.0522                 0.0824
 IR Inten    --      0.1050                 0.0878                 0.1350
  Atom  AN      X      Y      Z        X      Y      Z        X      Y      Z
     1   6     0.01   0.11   0.01    -0.01  -0.04   0.06     0.01   0.06   0.01
     2   9    -0.09   0.22   0.02     0.09  -0.06  -0.02    -0.10   0.21   0.00
     3   9     0.02   0.16   0.02    -0.13  -0.06   0.00    -0.02   0.13   0.01
     4   9     0.16   0.13   0.03    -0.03  -0.04   0.05     0.23   0.07   0.04
     5   6    -0.04  -0.05  -0.04     0.01  -0.01   0.20    -0.05  -0.15   0.02
     6   9    -0.16  -0.05  -0.02     0.03   0.03   0.47    -0.16  -0.11   0.32
     7   6     0.01  -0.14   0.01     0.02   0.04  -0.01    -0.01  -0.16  -0.13
     8   9    -0.00  -0.20   0.03     0.19   0.08  -0.01     0.00  -0.02  -0.17
     9   9     0.07  -0.11   0.05    -0.09  -0.00  -0.05    -0.04  -0.26  -0.27
    10   6     0.01  -0.17   0.03    -0.01   0.05  -0.18     0.02  -0.10  -0.09
    11   9     0.01  -0.27   0.08    -0.09   0.23  -0.28     0.11   0.01  -0.16
    12   9     0.04  -0.09   0.09     0.01  -0.11  -0.33     0.04  -0.19  -0.18
    13   6    -0.05  -0.08  -0.08     0.03   0.02  -0.10    -0.03  -0.01   0.10
    14   9    -0.14   0.03  -0.18    -0.02   0.08  -0.16    -0.12  -0.19   0.26
    15   9    -0.10  -0.23  -0.16     0.17  -0.03  -0.12    -0.04   0.22   0.22
    16   6     0.04   0.11   0.01    -0.03  -0.03   0.09     0.03   0.07   0.01
    17   9    -0.07   0.35   0.30     0.05  -0.03   0.36    -0.05   0.10  -0.18
    18   9    -0.06  -0.08  -0.05    -0.27  -0.15   0.07     0.18   0.21   0.05
    19   9     0.34   0.28  -0.17     0.09   0.05  -0.00     0.00  -0.01   0.12
                      7                      8                      9
                      A                      A                      A
 Frequencies --    141.9977               155.1541               176.0125
 Red. masses --     17.6290                17.4946                17.6847
 Frc consts  --      0.2094                 0.2481                 0.3228
 IR Inten    --      0.5234                 1.5142                 0.0281
  Atom  AN      X      Y      Z        X      Y      Z        X      Y      Z
     1   6     0.16  -0.04  -0.10    -0.11   0.03  -0.12     0.19  -0.00  -0.03
     2   9    -0.07   0.15  -0.02    -0.21   0.01  -0.02     0.23  -0.04  -0.02
     3   9     0.36  -0.06  -0.02     0.23  -0.22  -0.03     0.28  -0.07  -0.00
     4   9     0.32  -0.01  -0.01    -0.39   0.03   0.02     0.13  -0.00  -0.00
     5   6     0.10  -0.16  -0.26    -0.05   0.13  -0.33     0.17   0.11  -0.04
     6   9     0.10  -0.08   0.28    -0.10   0.22   0.39     0.32   0.14   0.07
     7   6    -0.02  -0.05  -0.06    -0.03   0.08  -0.13     0.08   0.14   0.01
     8   9    -0.22  -0.24  -0.01    -0.16  -0.18  -0.05     0.04   0.18  -0.01
     9   9    -0.04   0.03   0.06     0.08   0.22   0.08     0.24   0.13  -0.00
    10   6     0.02   0.08   0.01    -0.00   0.00  -0.06    -0.10  -0.10   0.00
    11   9     0.09  -0.02   0.05     0.03  -0.08  -0.02    -0.25  -0.03  -0.03
    12   9     0.07   0.18   0.09    -0.08   0.06   0.00    -0.22  -0.18  -0.06
    13   6    -0.04   0.15  -0.03     0.06  -0.09  -0.02    -0.15  -0.15   0.02
    14   9    -0.07   0.17  -0.06     0.04  -0.14   0.03    -0.24  -0.20   0.07
    15   9    -0.02   0.13  -0.04     0.11  -0.04   0.00    -0.24  -0.12   0.03
    16   6    -0.14   0.00  -0.02     0.12  -0.04  -0.00    -0.12   0.00  -0.00
    17   9     0.02  -0.18   0.05     0.04   0.06  -0.03    -0.25   0.15  -0.04
    18   9    -0.27  -0.08  -0.03     0.17   0.02   0.01    -0.07   0.05   0.01
    19   9    -0.32   0.03  -0.07     0.24  -0.06   0.04    -0.02  -0.01   0.02
                     10                     11                     12
                      A                      A                      A
 Frequencies --    199.9465               217.4699               246.7396
 Red. masses --     18.0972                18.2893                18.7095
 Frc consts  --      0.4263                 0.5096                 0.6711
 IR Inten    --      0.9924                 2.4697                 0.0544
  Atom  AN      X      Y      Z        X      Y      Z        X      Y      Z
     1   6    -0.05   0.08   0.03     0.03  -0.03   0.03     0.03   0.02  -0.06
     2   9     0.10  -0.07  -0.00     0.01   0.02   0.01     0.01   0.02  -0.03
     3   9    -0.04  -0.02   0.01    -0.06   0.06   0.01     0.17  -0.05  -0.02
     4   9    -0.30   0.06   0.03     0.19  -0.03  -0.00    -0.05   0.02  -0.03
     5   6    -0.00   0.16   0.03     0.01  -0.06   0.06     0.02  -0.01  -0.04
     6   9    -0.08   0.14   0.00     0.13  -0.06  -0.04    -0.12  -0.01   0.04
     7   6     0.14  -0.05  -0.09    -0.06   0.06  -0.06     0.02  -0.03  -0.02
     8   9     0.44  -0.13  -0.05     0.12  -0.08  -0.00     0.23  -0.03  -0.00
     9   9     0.22  -0.01  -0.03    -0.37   0.15   0.09    -0.15  -0.03  -0.00
    10   6     0.09  -0.12  -0.10    -0.05   0.07  -0.14     0.01  -0.00   0.11
    11   9     0.26  -0.35   0.03    -0.04  -0.16  -0.01     0.41   0.18  -0.02
    12   9     0.15   0.03   0.04    -0.15   0.28   0.07    -0.39  -0.19  -0.01
    13   6    -0.06   0.07  -0.06     0.01  -0.06  -0.18    -0.01   0.02   0.14
    14   9    -0.16  -0.06   0.06     0.16  -0.30   0.07     0.42   0.21  -0.02
    15   9    -0.10   0.25   0.04    -0.10   0.24  -0.02    -0.42  -0.17   0.02
    16   6    -0.12   0.05  -0.03     0.02  -0.07  -0.12    -0.03   0.01  -0.01
    17   9     0.00  -0.08   0.03     0.00   0.00   0.01    -0.06   0.03  -0.02
    18   9    -0.31   0.07  -0.01    -0.29   0.13  -0.01    -0.07   0.02   0.01
    19   9    -0.19   0.03  -0.02     0.41  -0.20   0.08    -0.00  -0.00   0.02
                     13                     14                     15
                      A                      A                      A
 Frequencies --    248.5503               267.8423               290.1950
 Red. masses --     18.4746                18.5047                18.3777
 Frc consts  --      0.6724                 0.7822                 0.9118
 IR Inten    --      0.1189                 1.9294                 5.5180
  Atom  AN      X      Y      Z        X      Y      Z        X      Y      Z
     1   6    -0.00  -0.02   0.04     0.19   0.11  -0.08     0.07   0.04   0.11
     2   9     0.01   0.00   0.02     0.33  -0.03  -0.10     0.32  -0.12   0.01
     3   9    -0.11   0.06   0.01     0.46  -0.06   0.01    -0.09   0.10   0.05
     4   9     0.10  -0.02   0.02    -0.14   0.09  -0.02     0.00   0.04   0.11
     5   6     0.00  -0.01   0.05     0.07  -0.01   0.01     0.02   0.02   0.03
     6   9     0.17   0.01   0.01    -0.46  -0.06  -0.07    -0.07   0.01   0.02
     7   6    -0.02   0.05  -0.14     0.01  -0.04   0.09    -0.01   0.01  -0.05
     8   9     0.28  -0.17  -0.05     0.18   0.08   0.05    -0.31  -0.06  -0.03
     9   9    -0.29   0.18   0.05    -0.41  -0.12  -0.03     0.01   0.06   0.02
    10   6    -0.04   0.03  -0.15    -0.02   0.03  -0.01     0.01  -0.06  -0.01
    11   9     0.23  -0.13  -0.06    -0.28  -0.02   0.04     0.08  -0.07  -0.01
    12   9    -0.34   0.16   0.04     0.05   0.07   0.03    -0.36  -0.12  -0.02
    13   6    -0.02  -0.03   0.09     0.01  -0.01  -0.01     0.06   0.02  -0.01
    14   9    -0.31   0.05  -0.03    -0.11  -0.03   0.01    -0.25   0.01  -0.03
    15   9     0.28  -0.16   0.02     0.09   0.02   0.01    -0.13   0.03  -0.02
    16   6    -0.01  -0.01   0.11     0.03   0.01   0.04     0.20   0.11  -0.06
    17   9    -0.12   0.08  -0.04     0.03  -0.00   0.03     0.54  -0.26   0.01
    18   9     0.35  -0.15   0.02     0.10  -0.02   0.02    -0.00   0.15  -0.02
    19   9    -0.21   0.08  -0.01    -0.04   0.02   0.01     0.06   0.13  -0.09
                     16                     17                     18
                      A                      A                      A
 Frequencies --    297.0611               313.8586               348.7267
 Red. masses --     18.3729                18.6925                18.4497
 Frc consts  --      0.9553                 1.0849                 1.3219
 IR Inten    --      0.0452                 0.0975                 0.0882
  Atom  AN      X      Y      Z        X      Y      Z        X      Y      Z
     1   6     0.10   0.09   0.15    -0.01   0.10  -0.01     0.01   0.07   0.05
     2   9     0.48  -0.16  -0.00     0.04   0.10  -0.04     0.17  -0.01  -0.03
     3   9    -0.08   0.14   0.08     0.04   0.10   0.01    -0.07   0.16   0.03
     4   9    -0.05   0.08   0.16    -0.20   0.10   0.01    -0.15   0.09   0.11
     5   6     0.02   0.02   0.01     0.04   0.06  -0.01     0.02   0.02  -0.12
     6   9    -0.17   0.01   0.02     0.33   0.10  -0.00     0.30   0.07   0.01
     7   6    -0.02  -0.04  -0.07    -0.06   0.03   0.02    -0.03  -0.06  -0.17
     8   9    -0.37  -0.15  -0.04    -0.15   0.10  -0.00    -0.05  -0.34  -0.09
     9   9     0.08  -0.00  -0.02    -0.40   0.01  -0.01    -0.12  -0.07  -0.18
    10   6     0.03   0.07  -0.03     0.09  -0.02   0.01    -0.05  -0.05  -0.06
    11   9     0.28   0.09  -0.07     0.26   0.02  -0.02    -0.37  -0.18   0.02
    12   9     0.04   0.12   0.00     0.45  -0.06  -0.08     0.03  -0.02  -0.06
    13   6    -0.03  -0.02  -0.03    -0.07  -0.04   0.02     0.05   0.00   0.02
    14   9     0.08  -0.02  -0.01    -0.24  -0.03  -0.01     0.46   0.01   0.05
    15   9     0.16  -0.02  -0.03    -0.38  -0.11  -0.03    -0.07  -0.02   0.01
    16   6    -0.14  -0.10  -0.03     0.03  -0.08   0.04    -0.00   0.07   0.08
    17   9    -0.40   0.17  -0.09     0.04  -0.09   0.06     0.03   0.07   0.16
    18   9    -0.10  -0.10  -0.04     0.13  -0.16   0.01     0.12   0.08   0.08
    19   9     0.06  -0.15   0.04     0.08  -0.10   0.06    -0.26   0.14   0.01
                     19                     20                     21
                      A                      A                      A
 Frequencies --    355.8250               372.3242               382.8480
 Red. masses --     18.4277                18.5150                18.7193
 Frc consts  --      1.3747                 1.5122                 1.6166
 IR Inten    --      0.3879                 0.4280                 0.3145
  Atom  AN      X      Y      Z        X      Y      Z        X      Y      Z
     1   6    -0.01   0.05  -0.04     0.02  -0.07   0.02     0.01  -0.01  -0.00
     2   9    -0.04   0.13  -0.06    -0.00  -0.13   0.07     0.02  -0.01  -0.00
     3   9     0.10   0.04   0.01    -0.07  -0.09  -0.02     0.03  -0.02   0.00
     4   9    -0.18   0.05  -0.04     0.27  -0.07   0.01     0.05  -0.01  -0.01
     5   6     0.03  -0.01   0.08    -0.03   0.03  -0.05    -0.01   0.02   0.02
     6   9     0.23   0.00  -0.00    -0.31   0.02  -0.00     0.00   0.03  -0.00
     7   6    -0.04  -0.03   0.15    -0.01   0.14  -0.09    -0.05   0.03   0.02
     8   9    -0.13   0.16   0.11    -0.10   0.26  -0.14    -0.11   0.17  -0.01
     9   9    -0.24  -0.10   0.07    -0.08   0.37   0.20    -0.06   0.10   0.11
    10   6     0.04  -0.10   0.08     0.07  -0.03  -0.11    -0.05  -0.11  -0.03
    11   9     0.18  -0.13   0.10     0.12  -0.23  -0.02    -0.03  -0.42   0.13
    12   9    -0.06  -0.29  -0.05     0.23  -0.05  -0.16    -0.08  -0.33  -0.21
    13   6     0.08  -0.06   0.02     0.04  -0.07  -0.02    -0.01   0.12  -0.02
    14   9     0.07  -0.13   0.08     0.21  -0.22   0.11     0.09   0.36  -0.23
    15   9     0.48  -0.12  -0.01    -0.08  -0.19  -0.09     0.06   0.44   0.13
    16   6    -0.05   0.08  -0.09    -0.02   0.06   0.05    -0.00  -0.06   0.02
    17   9    -0.03   0.04  -0.14     0.02   0.05   0.14    -0.11   0.05  -0.01
    18   9    -0.32   0.24  -0.02     0.04   0.12   0.07     0.12  -0.20  -0.03
    19   9    -0.07   0.14  -0.17    -0.28   0.13  -0.03     0.09  -0.15   0.13
                     22                     23                     24
                      A                      A                      A
 Frequencies --    441.6643               476.6415               507.4308
 Red. masses --     17.5890                17.7150                16.8492
 Frc consts  --      2.0215                 2.3712                 2.5561
 IR Inten    --      1.2622                 1.5912                 2.3557
  Atom  AN      X      Y      Z        X      Y      Z        X      Y      Z
     1   6    -0.01  -0.01   0.01     0.02   0.09   0.00    -0.02  -0.03  -0.20
     2   9    -0.00   0.22  -0.13    -0.04  -0.10   0.21    -0.13  -0.31  -0.02
     3   9     0.12   0.06   0.10    -0.03  -0.30  -0.10    -0.02   0.29  -0.24
     4   9    -0.24  -0.04  -0.10     0.24   0.10  -0.15     0.01   0.07   0.43
     5   6     0.02  -0.17   0.27    -0.03   0.33   0.10     0.07  -0.08  -0.44
     6   9     0.07  -0.26   0.00    -0.02   0.42  -0.04     0.02  -0.03   0.04
     7   6     0.02  -0.07   0.13    -0.03   0.03   0.17     0.04  -0.04   0.08
     8   9    -0.13   0.17   0.08    -0.10  -0.11   0.28     0.11   0.13   0.01
     9   9     0.19  -0.09   0.16    -0.11  -0.27  -0.21    -0.06  -0.07   0.08
    10   6     0.00   0.00  -0.14    -0.01  -0.01   0.02     0.06  -0.04   0.13
    11   9     0.14  -0.05  -0.16     0.13   0.02   0.00     0.03   0.15   0.07
    12   9    -0.19   0.16   0.00    -0.07  -0.02   0.02    -0.05  -0.13   0.13
    13   6     0.01  -0.02  -0.23     0.01  -0.02  -0.16     0.04  -0.03  -0.12
    14   9     0.08  -0.23  -0.10     0.02  -0.16  -0.08    -0.05  -0.13  -0.10
    15   9    -0.08   0.18  -0.19     0.02   0.13  -0.12     0.05   0.13  -0.08
    16   6     0.01   0.01  -0.01     0.00  -0.00  -0.05     0.02   0.01  -0.08
    17   9     0.01   0.10   0.26     0.01   0.07   0.18     0.02   0.11   0.15
    18   9     0.23   0.02  -0.03     0.11   0.05  -0.05     0.04   0.03  -0.11
    19   9    -0.23  -0.07   0.08    -0.13  -0.08   0.03    -0.12  -0.13   0.05
                     25                     26                     27
                      A                      A                      A
 Frequencies --    535.1793               551.6709               566.8220
 Red. masses --     17.6525                17.6410                17.4239
 Frc consts  --      2.9789                 3.1632                 3.2983
 IR Inten    --     21.4550                 4.8293                13.7233
  Atom  AN      X      Y      Z        X      Y      Z        X      Y      Z
     1   6     0.04   0.02   0.07    -0.03  -0.01  -0.17     0.15   0.25  -0.01
     2   9     0.02   0.10   0.08    -0.11  -0.20  -0.05     0.02  -0.02   0.43
     3   9    -0.08  -0.07   0.02     0.12   0.12  -0.15    -0.14  -0.22  -0.31
     4   9    -0.05  -0.01  -0.11     0.05   0.07   0.21    -0.09   0.35  -0.10
     5   6     0.08  -0.03   0.01    -0.04   0.03   0.07     0.17  -0.10  -0.05
     6   9    -0.02  -0.06  -0.00     0.03   0.05  -0.01     0.07  -0.16   0.02
     7   6     0.12   0.04  -0.06    -0.08  -0.02   0.18     0.15  -0.16  -0.02
     8   9    -0.01  -0.07  -0.06    -0.05   0.10   0.25    -0.06   0.11  -0.16
     9   9    -0.04   0.08  -0.05     0.08  -0.22   0.01    -0.04  -0.07   0.22
    10   6     0.15   0.03   0.07    -0.08   0.08  -0.23     0.10  -0.13  -0.08
    11   9    -0.07   0.04   0.13     0.03  -0.26  -0.15    -0.07  -0.00  -0.22
    12   9    -0.04  -0.10  -0.01    -0.06   0.26  -0.24    -0.03   0.07   0.15
    13   6     0.16   0.12  -0.02    -0.04   0.12   0.04     0.06  -0.08   0.02
    14   9    -0.05  -0.05   0.17     0.07   0.05   0.21     0.04   0.02  -0.11
    15   9     0.01  -0.07  -0.17    -0.06  -0.12  -0.10    -0.03   0.03   0.11
    16   6     0.16   0.25  -0.07     0.01   0.11   0.14     0.03   0.00   0.09
    17   9     0.23   0.35  -0.13     0.07  -0.04  -0.25    -0.03  -0.01  -0.11
    18   9    -0.20  -0.32  -0.30    -0.06  -0.23   0.08    -0.05  -0.06   0.12
    19   9    -0.15  -0.09   0.43     0.08   0.21   0.16     0.00   0.11  -0.01
                     28                     29                     30
                      A                      A                      A
 Frequencies --    593.0950               609.2235               630.4733
 Red. masses --     17.3404                17.4521                15.3813
 Frc consts  --      3.5938                 3.8164                 3.6023
 IR Inten    --      5.0501                12.0388                14.9337
  Atom  AN      X      Y      Z        X      Y      Z        X      Y      Z
     1   6    -0.11  -0.10   0.05     0.05  -0.05   0.04     0.02  -0.01  -0.17
     2   9     0.03   0.01  -0.22    -0.00   0.08   0.02    -0.18  -0.12  -0.04
     3   9     0.03   0.05   0.23    -0.07   0.03   0.02     0.16   0.08  -0.18
     4   9     0.11  -0.18  -0.01    -0.05  -0.10  -0.01    -0.01   0.05   0.14
     5   6    -0.15   0.15  -0.09     0.12  -0.03  -0.12     0.03   0.02   0.60
     6   9    -0.00   0.27  -0.01    -0.05  -0.06   0.01    -0.04  -0.11  -0.03
     7   6    -0.07  -0.12  -0.00     0.12   0.13   0.02     0.07   0.19  -0.07
     8   9    -0.02   0.08  -0.10     0.01  -0.06   0.09    -0.10  -0.15   0.10
     9   9    -0.07  -0.10   0.16    -0.02   0.09  -0.16     0.01   0.24  -0.24
    10   6    -0.01  -0.30  -0.03     0.12   0.10   0.11     0.10  -0.05  -0.01
    11   9    -0.02   0.06  -0.36     0.04   0.11   0.25    -0.00   0.01  -0.06
    12   9     0.05  -0.02   0.36    -0.04  -0.13  -0.03     0.05  -0.02   0.07
    13   6     0.04  -0.16  -0.02     0.08  -0.03  -0.21     0.12  -0.20   0.05
    14   9     0.08  -0.06  -0.22     0.01  -0.27  -0.17    -0.00  -0.03  -0.23
    15   9     0.01   0.08   0.14    -0.06   0.22  -0.23    -0.04  -0.00   0.26
    16   6     0.08   0.10   0.09    -0.01  -0.01   0.26     0.11  -0.01  -0.00
    17   9     0.09   0.09  -0.17    -0.13  -0.12  -0.24     0.05   0.12  -0.04
    18   9    -0.10  -0.16   0.06     0.03  -0.20   0.39    -0.09  -0.00   0.03
    19   9    -0.06   0.16   0.13     0.03   0.34   0.02    -0.09  -0.02  -0.02
                     31                     32                     33
                      A                      A                      A
 Frequencies --    646.7631               707.2804               719.2926
 Red. masses --     15.5107                16.0106                16.8186
 Frc consts  --      3.8227                 4.7189                 5.1269
 IR Inten    --     56.1106                80.6120                40.3776
  Atom  AN      X      Y      Z        X      Y      Z        X      Y      Z
     1   6    -0.11   0.10  -0.09    -0.19   0.12   0.04     0.01   0.02   0.03
     2   9    -0.03  -0.17  -0.06     0.10  -0.11  -0.05     0.08   0.04   0.08
     3   9     0.17  -0.06  -0.04     0.01  -0.13   0.16    -0.04  -0.02  -0.02
     4   9     0.07   0.23   0.03     0.07   0.30  -0.09    -0.03   0.05  -0.03
     5   6    -0.26   0.02   0.44    -0.27  -0.13  -0.22    -0.01  -0.12  -0.22
     6   9     0.08  -0.01  -0.02     0.09  -0.16   0.03    -0.01  -0.21   0.03
     7   6    -0.21  -0.13  -0.15    -0.31   0.02   0.02    -0.16   0.22   0.06
     8   9     0.03  -0.08  -0.31     0.11   0.03   0.06     0.04   0.03   0.35
     9   9     0.03   0.07   0.11     0.09   0.00  -0.01     0.01   0.26  -0.30
    10   6    -0.17  -0.06   0.11    -0.25   0.14   0.04    -0.19  -0.22   0.00
    11   9     0.01   0.13   0.08     0.09   0.05   0.21     0.04  -0.07  -0.30
    12   9     0.04  -0.17   0.15     0.05   0.10  -0.21     0.09  -0.15   0.27
    13   6    -0.15   0.16  -0.10    -0.10  -0.21   0.01    -0.21   0.04  -0.02
    14   9     0.03  -0.05   0.13     0.02  -0.16  -0.29     0.07   0.05   0.08
    15   9     0.07   0.09  -0.30     0.01  -0.03   0.26     0.07   0.02  -0.07
    16   6    -0.11   0.06   0.03     0.04   0.05  -0.00    -0.18   0.11  -0.03
    17   9    -0.02  -0.12  -0.01     0.15   0.09  -0.05    -0.02  -0.16   0.05
    18   9     0.08  -0.05  -0.01    -0.05  -0.03  -0.04     0.07   0.01  -0.19
    19   9     0.08   0.10   0.08    -0.06   0.06   0.08     0.08   0.11   0.15
                     34                     35                     36
                      A                      A                      A
 Frequencies --    756.9182               806.4334               976.4066
 Red. masses --     17.0925                15.9726                13.4953
 Frc consts  --      5.7697                 6.1201                 7.5804
 IR Inten    --      8.3787                48.1836                 2.6713
  Atom  AN      X      Y      Z        X      Y      Z        X      Y      Z
     1   6    -0.21   0.09   0.02    -0.15   0.06   0.00    -0.17   0.00   0.04
     2   9    -0.02  -0.16  -0.17    -0.14  -0.18  -0.25     0.15   0.08   0.13
     3   9    -0.01  -0.10   0.24    -0.05  -0.08   0.29     0.11   0.03  -0.18
     4   9     0.08   0.29  -0.06     0.07   0.25  -0.04     0.01  -0.11   0.01
     5   6    -0.11  -0.06  -0.12     0.16   0.02  -0.01    -0.50  -0.05  -0.03
     6   9     0.04  -0.13   0.02    -0.00  -0.04   0.00     0.05   0.00   0.00
     7   6     0.02   0.06   0.02     0.40   0.01   0.02    -0.27  -0.05  -0.09
     8   9     0.01   0.03   0.14    -0.07   0.00   0.00     0.04   0.04   0.09
     9   9    -0.00   0.07  -0.09    -0.06  -0.03   0.01     0.04   0.01   0.00
    10   6     0.16  -0.06  -0.02     0.39   0.02  -0.04     0.32   0.06  -0.02
    11   9    -0.04  -0.05  -0.14    -0.07  -0.01   0.00    -0.05  -0.01  -0.01
    12   9    -0.02  -0.07   0.12    -0.07   0.03  -0.03    -0.03  -0.01   0.01
    13   6     0.23   0.12  -0.00     0.17  -0.01   0.01     0.54   0.01   0.03
    14   9    -0.07   0.13   0.19    -0.01  -0.01  -0.04    -0.07  -0.00  -0.00
    15   9    -0.05   0.05  -0.20    -0.03  -0.04   0.08    -0.07  -0.00  -0.00
    16   6     0.24  -0.16   0.04    -0.16   0.09  -0.02     0.14  -0.03   0.01
    17   9     0.02   0.22  -0.06    -0.21  -0.25   0.08    -0.20  -0.12   0.04
    18   9    -0.06  -0.04   0.33     0.05   0.07  -0.27    -0.02   0.05  -0.11
    19   9    -0.07  -0.24  -0.28     0.07   0.17   0.18    -0.01   0.08   0.06
                     37                     38                     39
                      A                      A                      A
 Frequencies --   1102.8933              1132.6594              1153.2903
 Red. masses --     13.3415                13.1623                13.2739
 Frc consts  --      9.5614                 9.9490                10.4022
 IR Inten    --     46.0685                98.0991               204.6603
  Atom  AN      X      Y      Z        X      Y      Z        X      Y      Z
     1   6     0.18  -0.08  -0.26    -0.30   0.04  -0.01    -0.15  -0.07   0.74
     2   9    -0.01   0.01   0.02     0.10   0.04   0.07    -0.07  -0.05  -0.13
     3   9    -0.08  -0.02   0.13     0.07   0.01  -0.08     0.13   0.04  -0.27
     4   9    -0.02   0.06   0.01     0.04  -0.08   0.01     0.01   0.04  -0.05
     5   6     0.16   0.00   0.01    -0.23   0.11  -0.06     0.01   0.15  -0.05
     6   9    -0.02  -0.01  -0.00     0.04  -0.07   0.01    -0.00  -0.10   0.01
     7   6    -0.26   0.28   0.52     0.19  -0.09   0.65     0.13   0.30   0.09
     8   9     0.03  -0.12  -0.28    -0.02  -0.07  -0.21    -0.01  -0.05  -0.09
     9   9     0.03  -0.04  -0.01    -0.02   0.14  -0.13    -0.02  -0.10   0.05
    10   6    -0.22   0.20   0.05     0.23  -0.05  -0.10    -0.15  -0.02   0.00
    11   9     0.04  -0.08  -0.10    -0.00   0.00   0.02     0.03   0.00  -0.00
    12   9     0.03  -0.05   0.04    -0.05   0.02  -0.01     0.02   0.00  -0.00
    13   6     0.31  -0.12  -0.03    -0.18   0.12  -0.18     0.01  -0.25  -0.03
    14   9    -0.04   0.05   0.04     0.03  -0.01   0.00    -0.01   0.09   0.07
    15   9    -0.04   0.02  -0.03     0.01  -0.06   0.10     0.00   0.05  -0.06
    16   6     0.21  -0.13   0.01    -0.20   0.12  -0.01     0.11  -0.10   0.00
    17   9    -0.10  -0.04   0.02     0.07   0.03  -0.01    -0.02  -0.00   0.00
    18   9    -0.03   0.04  -0.07     0.03  -0.04   0.07    -0.02   0.02  -0.04
    19   9    -0.03   0.09   0.06     0.02  -0.07  -0.04    -0.02   0.05   0.03
                     40                     41                     42
                      A                      A                      A
 Frequencies --   1165.8627              1183.6605              1200.0320
 Red. masses --     13.6520                13.2205                13.1838
 Frc consts  --     10.9331                10.9132                11.1861
 IR Inten    --    124.7177               143.9189                47.5528
  Atom  AN      X      Y      Z        X      Y      Z        X      Y      Z
     1   6     0.07  -0.11   0.24    -0.34  -0.26  -0.37     0.01   0.04   0.06
     2   9    -0.05  -0.02  -0.06     0.16   0.10   0.16    -0.01  -0.01  -0.02
     3   9     0.02   0.02  -0.06     0.02   0.01   0.04     0.01  -0.00  -0.02
     4   9    -0.02   0.07  -0.02     0.03   0.03   0.02     0.00  -0.01  -0.00
     5   6     0.05  -0.08   0.01    -0.12   0.19   0.00    -0.00   0.00   0.01
     6   9    -0.02   0.05  -0.01     0.00  -0.14   0.01     0.00   0.00  -0.00
     7   6    -0.15   0.16  -0.05     0.20   0.54  -0.23    -0.01  -0.05   0.02
     8   9     0.02  -0.02  -0.03    -0.02  -0.04  -0.01     0.02  -0.02  -0.04
     9   9     0.03  -0.09   0.05    -0.02  -0.23   0.14    -0.01   0.05  -0.02
    10   6     0.12   0.53   0.05     0.07   0.05   0.11     0.05  -0.11   0.80
    11   9    -0.03  -0.13  -0.16    -0.01  -0.03  -0.05    -0.01  -0.11  -0.22
    12   9     0.00  -0.18   0.14     0.01  -0.02   0.00    -0.02   0.16  -0.20
    13   6     0.02   0.50  -0.03    -0.14  -0.10   0.03     0.00   0.05   0.02
    14   9    -0.00  -0.18  -0.13     0.01   0.02   0.01    -0.02  -0.03  -0.02
    15   9    -0.01  -0.12   0.15     0.02   0.03  -0.04     0.03   0.01  -0.01
    16   6    -0.28  -0.01  -0.02    -0.11  -0.02  -0.03     0.05   0.13  -0.38
    17   9     0.08   0.05  -0.01     0.06   0.03  -0.01    -0.05  -0.04   0.03
    18   9     0.03  -0.02   0.06     0.01  -0.01   0.02     0.02  -0.05   0.14
    19   9     0.03  -0.04  -0.03     0.01  -0.00   0.00    -0.01   0.02   0.04
                     43                     44                     45
                      A                      A                      A
 Frequencies --   1219.9281              1225.7999              1242.4564
 Red. masses --     13.0867                13.0245                13.2866
 Frc consts  --     11.4749                11.5305                12.0844
 IR Inten    --     40.6080               130.1454               681.5006
  Atom  AN      X      Y      Z        X      Y      Z        X      Y      Z
     1   6     0.13  -0.36   0.06    -0.04  -0.21   0.05     0.10   0.71  -0.03
     2   9    -0.01   0.02  -0.01     0.01   0.02   0.01    -0.06  -0.08  -0.05
     3   9    -0.01   0.02  -0.00     0.01   0.02  -0.02    -0.02  -0.05   0.04
     4   9    -0.03   0.17  -0.02    -0.01   0.08  -0.01     0.03  -0.28   0.04
     5   6     0.04  -0.06   0.01     0.04   0.04  -0.01    -0.07   0.16  -0.03
     6   9    -0.02   0.05  -0.01    -0.01  -0.00   0.00     0.03  -0.17   0.02
     7   6    -0.20   0.16  -0.05    -0.03   0.04   0.15     0.01   0.29  -0.06
     8   9     0.02  -0.01  -0.00    -0.01  -0.02  -0.05     0.00  -0.03  -0.03
     9   9     0.01  -0.05   0.03     0.00   0.01  -0.02     0.00  -0.12   0.06
    10   6     0.06  -0.24  -0.04    -0.01  -0.11  -0.17    -0.08   0.05  -0.00
    11   9     0.01   0.06   0.07    -0.01   0.01   0.03     0.01  -0.02  -0.02
    12   9    -0.01   0.04  -0.03     0.01   0.03  -0.01     0.02  -0.03   0.02
    13   6     0.06   0.01  -0.40    -0.01   0.15   0.77     0.03   0.06   0.02
    14   9     0.01   0.04   0.07     0.02  -0.17  -0.19     0.01  -0.04  -0.03
    15   9    -0.00  -0.07   0.14     0.01   0.08  -0.19    -0.00  -0.01   0.01
    16   6     0.09   0.61   0.11     0.10   0.31  -0.09     0.07   0.38   0.14
    17   9    -0.11  -0.11   0.02    -0.07  -0.07   0.02    -0.07  -0.07   0.01
    18   9     0.02  -0.06   0.05    -0.01  -0.02   0.03    -0.00  -0.02  -0.00
    19   9     0.01  -0.17  -0.11     0.02  -0.10  -0.05     0.01  -0.12  -0.08
                     46                     47                     48
                      A                      A                      A
 Frequencies --   1256.2961              1271.4056              1298.4311
 Red. masses --     13.1780                12.5653                12.5395
 Frc consts  --     12.2541                11.9672                12.4557
 IR Inten    --    504.2490                44.4166                20.9723
  Atom  AN      X      Y      Z        X      Y      Z        X      Y      Z
     1   6    -0.06  -0.08   0.02     0.41   0.07   0.06     0.00   0.01  -0.00
     2   9     0.01   0.01   0.01    -0.08  -0.04  -0.06     0.01   0.00   0.00
     3   9     0.01   0.01  -0.02    -0.04  -0.01   0.03     0.01  -0.00  -0.01
     4   9     0.00   0.03  -0.01    -0.04   0.01  -0.01    -0.01   0.01  -0.00
     5   6     0.02  -0.01   0.01    -0.20  -0.14  -0.01    -0.11  -0.27   0.02
     6   9    -0.00   0.02  -0.00     0.00   0.04  -0.01     0.00   0.14  -0.02
     7   6     0.02  -0.09   0.04    -0.28   0.28   0.09     0.05  -0.07   0.02
     8   9     0.01  -0.00  -0.02     0.03  -0.03  -0.05     0.00   0.01   0.01
     9   9    -0.01   0.05  -0.03     0.02  -0.06   0.02     0.01   0.02  -0.01
    10   6     0.01  -0.00   0.38     0.48  -0.22  -0.01     0.26   0.48   0.01
    11   9    -0.00  -0.06  -0.11    -0.03   0.03   0.03    -0.02  -0.08  -0.08
    12   9    -0.01   0.07  -0.09    -0.04   0.07  -0.05    -0.01  -0.10   0.07
    13   6     0.01  -0.00   0.08    -0.11  -0.23   0.14    -0.47  -0.37   0.03
    14   9     0.01  -0.05  -0.04     0.01   0.05   0.03     0.03   0.07   0.04
    15   9    -0.01   0.06  -0.08     0.01   0.06  -0.09     0.04   0.05  -0.06
    16   6    -0.08  -0.02   0.81    -0.37  -0.13  -0.01     0.37   0.20   0.01
    17   9     0.06   0.04  -0.06     0.14   0.08  -0.03    -0.07  -0.07   0.02
    18   9    -0.04   0.09  -0.27     0.02   0.00   0.01    -0.03  -0.01  -0.01
    19   9     0.02  -0.11  -0.14     0.02   0.01   0.00    -0.03  -0.02  -0.01
                     49                     50                     51
                      A                      A                      A
 Frequencies --   1361.1831              1368.8477              1433.9454
 Red. masses --     12.4643                12.2442                12.7154
 Frc consts  --     13.6066                13.5173                15.4045
 IR Inten    --    226.9290                19.4368                30.8033
  Atom  AN      X      Y      Z        X      Y      Z        X      Y      Z
     1   6     0.34  -0.10  -0.00     0.27  -0.06  -0.02     0.35  -0.22  -0.01
     2   9    -0.04  -0.01  -0.02    -0.01  -0.00  -0.01    -0.05  -0.00  -0.03
     3   9    -0.03   0.00   0.02    -0.01  -0.00   0.01    -0.04   0.01   0.04
     4   9    -0.03   0.04  -0.01    -0.03   0.04  -0.00    -0.02   0.06  -0.01
     5   6    -0.34   0.12  -0.04    -0.48  -0.34  -0.01    -0.20   0.66  -0.06
     6   9     0.02  -0.07   0.01     0.02   0.14  -0.02     0.03  -0.27   0.05
     7   6     0.16   0.14   0.03     0.53   0.07   0.04    -0.01  -0.32  -0.04
     8   9    -0.01  -0.01  -0.01    -0.03   0.00   0.01    -0.00   0.03   0.04
     9   9    -0.02  -0.03   0.01    -0.03   0.01  -0.01    -0.01   0.04  -0.02
    10   6     0.06  -0.19   0.01    -0.36   0.07   0.02     0.01   0.27   0.02
    11   9    -0.00   0.02   0.02     0.03  -0.02  -0.02    -0.01  -0.03  -0.03
    12   9    -0.01   0.03  -0.02     0.03  -0.01   0.01     0.00  -0.04   0.03
    13   6    -0.31   0.43  -0.06     0.24  -0.07   0.03     0.05  -0.22   0.02
    14   9     0.03  -0.08  -0.06    -0.02   0.01   0.01    -0.01   0.04   0.02
    15   9     0.02  -0.06   0.07    -0.02   0.01  -0.02    -0.00   0.03  -0.03
    16   6     0.48  -0.28   0.08    -0.20   0.12  -0.03    -0.11   0.12  -0.02
    17   9    -0.09  -0.03   0.01     0.03   0.01  -0.00     0.03   0.00  -0.00
    18   9    -0.05   0.05  -0.08     0.02  -0.02   0.03     0.01  -0.02   0.02
    19   9    -0.04   0.08   0.04     0.02  -0.04  -0.02     0.01  -0.03  -0.01

 -------------------
 - Thermochemistry -
 -------------------
 Temperature   298.150 Kelvin.  Pressure   1.00000 Atm.
 Atom     1 has atomic number  6 and mass  12.00000
 Atom     2 has atomic number  9 and mass  18.99840
 Atom     3 has atomic number  9 and mass  18.99840
 Atom     4 has atomic number  9 and mass  18.99840
 Atom     5 has atomic number  6 and mass  12.00000
 Atom     6 has atomic number  9 and mass  18.99840
 Atom     7 has atomic number  6 and mass  12.00000
 Atom     8 has atomic number  9 and mass  18.99840
 Atom     9 has atomic number  9 and mass  18.99840
 Atom    10 has atomic number  6 and mass  12.00000
 Atom    11 has atomic number  9 and mass  18.99840
 Atom    12 has atomic number  9 and mass  18.99840
 Atom    13 has atomic number  6 and mass  12.00000
 Atom    14 has atomic number  9 and mass  18.99840
 Atom    15 has atomic number  9 and mass  18.99840
 Atom    16 has atomic number  6 and mass  12.00000
 Atom    17 has atomic number  9 and mass  18.99840
 Atom    18 has atomic number  9 and mass  18.99840
 Atom    19 has atomic number  9 and mass  18.99840
 Molecular mass:   318.97924 amu.
 Principal axes and moments of inertia in atomic units:
                           1         2         3
     Eigenvalues --  1979.865218542.377348897.50141
           X            1.00000   0.00019   0.00012
           Y           -0.00019   1.00000   0.00054
           Z           -0.00012  -0.00054   1.00000
 This molecule is an asymmetric top.
 Rotational symmetry number  1.
 Warning -- assumption of classical behavior for rotation
           may cause significant error
 Rotational temperatures (Kelvin)      0.04375     0.01014     0.00973
 Rotational constants (GHZ):           0.91155     0.21127     0.20284
 Zero-point vibrational energy     194119.4 (Joules/Mol)
                                   46.39564 (Kcal/Mol)
 Warning -- explicit consideration of  29 degrees of freedom as
           vibrations may cause significant error
 Vibrational temperatures:     24.71    37.02    55.73    84.68   100.24
          (Kelvin)            125.92   204.30   223.23   253.24   287.68
                              312.89   355.00   357.61   385.37   417.53
                              427.40   451.57   501.74   511.95   535.69
                              550.83   635.46   685.78   730.08   770.00
                              793.73   815.53   853.33   876.54   907.11
                              930.55  1017.62  1034.90  1089.04  1160.28
                             1404.83  1586.82  1629.64  1659.33  1677.42
                             1703.02  1726.58  1755.20  1763.65  1787.62
                             1807.53  1829.27  1868.15  1958.44  1969.47
                             2063.13
 
 Zero-point correction=                           0.073936 (Hartree/Particle)
 Thermal correction to Energy=                    0.091405
 Thermal correction to Enthalpy=                  0.092349
 Thermal correction to Gibbs Free Energy=         0.025120
 Sum of electronic and zero-point Energies=          -1526.516828
 Sum of electronic and thermal Energies=             -1526.499359
 Sum of electronic and thermal Enthalpies=           -1526.498415
 Sum of electronic and thermal Free Energies=        -1526.565644
 
                     E (Thermal)             CV                S
                      KCal/Mol        Cal/Mol-Kelvin    Cal/Mol-Kelvin
 Total                   57.357             61.064            141.495
 Electronic               0.000              0.000              1.377
 Translational            0.889              2.981             43.176
 Rotational               0.889              2.981             33.375
 Vibrational             55.580             55.103             63.566
 Vibration     1          0.593              1.986              6.936
 Vibration     2          0.593              1.985              6.134
 Vibration     3          0.594              1.981              5.323
 Vibration     4          0.596              1.974              4.495
 Vibration     5          0.598              1.969              4.163
 Vibration     6          0.601              1.958              3.715
 Vibration     7          0.615              1.911              2.777
 Vibration     8          0.620              1.897              2.608
 Vibration     9          0.628              1.872              2.370
 Vibration    10          0.638              1.840              2.134
 Vibration    11          0.646              1.814              1.980
 Vibration    12          0.661              1.768              1.754
 Vibration    13          0.662              1.765              1.741
 Vibration    14          0.673              1.732              1.610
 Vibration    15          0.686              1.692              1.473
 Vibration    16          0.691              1.679              1.433
 Vibration    17          0.702              1.647              1.342
 Vibration    18          0.726              1.578              1.172
 Vibration    19          0.731              1.563              1.140
 Vibration    20          0.744              1.529              1.070
 Vibration    21          0.752              1.507              1.028
 Vibration    22          0.801              1.379              0.821
 Vibration    23          0.833              1.302              0.719
 Vibration    24          0.863              1.234              0.640
 Vibration    25          0.890              1.172              0.576
 Vibration    26          0.907              1.136              0.541
 Vibration    27          0.923              1.103              0.510
 Vibration    28          0.951              1.046              0.462
 Vibration    29          0.968              1.012              0.434
                       Q            Log10(Q)             Ln(Q)
 Total Bot       0.278988D-11        -11.554415        -26.605024
 Total V=0       0.284334D+23         22.453829         51.701852
 Vib (Bot)       0.141863D-26        -26.848130        -61.820103
 Vib (Bot)    1  0.120613D+02          1.081394          2.490001
 Vib (Bot)    2  0.804878D+01          0.905730          2.085520
 Vib (Bot)    3  0.534183D+01          0.727690          1.675569
 Vib (Bot)    4  0.350905D+01          0.545189          1.255344
 Vib (Bot)    5  0.296054D+01          0.471370          1.085370
 Vib (Bot)    6  0.235021D+01          0.371106          0.854503
 Vib (Bot)    7  0.143119D+01          0.155696          0.358504
 Vib (Bot)    8  0.130491D+01          0.115581          0.266135
 Vib (Bot)    9  0.114267D+01          0.057920          0.133366
 Vib (Bot)   10  0.997262D+00         -0.001191         -0.002741
 Vib (Bot)   11  0.910527D+00         -0.040707         -0.093732
 Vib (Bot)   12  0.792217D+00         -0.101156         -0.232920
 Vib (Bot)   13  0.785778D+00         -0.104700         -0.241082
 Vib (Bot)   14  0.722340D+00         -0.141258         -0.325260
 Vib (Bot)   15  0.658911D+00         -0.181173         -0.417166
 Vib (Bot)   16  0.641248D+00         -0.192974         -0.444339
 Vib (Bot)   17  0.601122D+00         -0.221037         -0.508958
 Vib (Bot)   18  0.529502D+00         -0.276132         -0.635818
 Vib (Bot)   19  0.516540D+00         -0.286896         -0.660602
 Vib (Bot)   20  0.488202D+00         -0.311401         -0.717026
 Vib (Bot)   21  0.471321D+00         -0.326683         -0.752215
 Vib (Bot)   22  0.390889D+00         -0.407947         -0.939332
 Vib (Bot)   23  0.351894D+00         -0.453588         -1.044425
 Vib (Bot)   24  0.321750D+00         -0.492482         -1.133981
 Vib (Bot)   25  0.297388D+00         -0.526676         -1.212717
 Vib (Bot)   26  0.284011D+00         -0.546665         -1.258743
 Vib (Bot)   27  0.272375D+00         -0.564833         -1.300577
 Vib (Bot)   28  0.253549D+00         -0.595937         -1.372197
 Vib (Bot)   29  0.242770D+00         -0.614805         -1.415640
 Vib (V=0)       0.144582D+08          7.160115         16.486773
 Vib (V=0)    1  0.125716D+02          1.099392          2.531444
 Vib (V=0)    2  0.856429D+01          0.932692          2.147602
 Vib (V=0)    3  0.586518D+01          0.768281          1.769033
 Vib (V=0)    4  0.404449D+01          0.606864          1.397355
 Vib (V=0)    5  0.350246D+01          0.544373          1.253466
 Vib (V=0)    6  0.290281D+01          0.462818          1.065678
 Vib (V=0)    7  0.201601D+01          0.304493          0.701122
 Vib (V=0)    8  0.189742D+01          0.278164          0.640497
 Vib (V=0)    9  0.174727D+01          0.242361          0.558057
 Vib (V=0)   10  0.161559D+01          0.208330          0.479698
 Vib (V=0)   11  0.153878D+01          0.187176          0.430988
 Vib (V=0)   12  0.143681D+01          0.157399          0.362424
 Vib (V=0)   13  0.143137D+01          0.155751          0.358631
 Vib (V=0)   14  0.137851D+01          0.139409          0.321001
 Vib (V=0)   15  0.132714D+01          0.122917          0.283028
 Vib (V=0)   16  0.131314D+01          0.118312          0.272422
 Vib (V=0)   17  0.128189D+01          0.107850          0.248333
 Vib (V=0)   18  0.122827D+01          0.089293          0.205604
 Vib (V=0)   19  0.121890D+01          0.085967          0.197947
 Vib (V=0)   20  0.119881D+01          0.078752          0.181333
 Vib (V=0)   21  0.118713D+01          0.074497          0.171536
 Vib (V=0)   22  0.113466D+01          0.054866          0.126334
 Vib (V=0)   23  0.111142D+01          0.045877          0.105635
 Vib (V=0)   24  0.109458D+01          0.039247          0.090369
 Vib (V=0)   25  0.108176D+01          0.034129          0.078585
 Vib (V=0)   26  0.107503D+01          0.031421          0.072351
 Vib (V=0)   27  0.106938D+01          0.029130          0.067074
 Vib (V=0)   28  0.106061D+01          0.025557          0.058847
 Vib (V=0)   29  0.105582D+01          0.023590          0.054319
 Electronic      0.200000D+01          0.301030          0.693147
 Translational   0.223922D+09          8.350098         19.226810
 Rotational      0.439124D+07          6.642587         15.295121
 ***** Axes restored to original set *****
 -------------------------------------------------------------------
 Center     Atomic                   Forces (Hartrees/Bohr)
 Number     Number              X              Y              Z
 -------------------------------------------------------------------
      1        6          -0.000010253   -0.000006561   -0.000008102
      2        9          -0.000000051   -0.000000246    0.000008901
      3        9           0.000007221   -0.000003483    0.000002713
      4        9           0.000003870    0.000001465   -0.000001892
      5        6           0.000006739    0.000008940   -0.000004635
      6        9          -0.000004538   -0.000004777   -0.000002315
      7        6          -0.000000533    0.000005128   -0.000008179
      8        9          -0.000001975   -0.000002703    0.000008369
      9        9          -0.000001988   -0.000000801   -0.000002899
     10        6           0.000007802    0.000006683    0.000010013
     11        9           0.000002276    0.000002912    0.000000881
     12        9           0.000005793   -0.000001326   -0.000002044
     13        6          -0.000006497   -0.000014655   -0.000006966
     14        9          -0.000004851    0.000004622   -0.000007318
     15        9          -0.000003600    0.000005069    0.000011252
     16        6           0.000003893    0.000003871   -0.000004885
     17        9          -0.000008451   -0.000008712   -0.000001786
     18        9           0.000001355   -0.000000002    0.000010187
     19        9           0.000003789    0.000004576   -0.000001298
 -------------------------------------------------------------------
 Cartesian Forces:  Max     0.000014655 RMS     0.000005841
 FormGI is forming the generalized inverse of G from B-inverse, IUseBI=4.

 GradGradGradGradGradGradGradGradGradGradGradGradGradGradGradGradGradGrad
 Berny optimization.
 Internal  Forces:  Max     0.000017948 RMS     0.000004297
 Search for a local minimum.
 Step number   1 out of a maximum of    2
 All quantities printed in internal units (Hartrees-Bohrs-Radians)
 Second derivative matrix not updated -- analytic derivatives used.
 ITU=  0
     Eigenvalues ---    0.00079   0.00148   0.00306   0.00491   0.00711
     Eigenvalues ---    0.01003   0.05055   0.05427   0.06415   0.08622
     Eigenvalues ---    0.08702   0.09985   0.10415   0.10670   0.11841
     Eigenvalues ---    0.12254   0.13622   0.13957   0.15682   0.16640
     Eigenvalues ---    0.17652   0.18351   0.19799   0.20632   0.21500
     Eigenvalues ---    0.21754   0.22175   0.23360   0.24110   0.24250
     Eigenvalues ---    0.24843   0.25532   0.27742   0.30897   0.32832
     Eigenvalues ---    0.34485   0.36202   0.36620   0.36744   0.37155
     Eigenvalues ---    0.38519   0.39140   0.39281   0.40549   0.40959
     Eigenvalues ---    0.45390   0.46907   0.49230   0.50528   0.54747
     Eigenvalues ---    0.56168
 Angle between quadratic step and forces=  79.87 degrees.
 Linear search not attempted -- first point.
 Iteration  1 RMS(Cart)=  0.00108065 RMS(Int)=  0.00000111
 Iteration  2 RMS(Cart)=  0.00000120 RMS(Int)=  0.00000002
 Iteration  3 RMS(Cart)=  0.00000000 RMS(Int)=  0.00000002
 Variable       Old X    -DE/DX   Delta X   Delta X   Delta X     New X
                                 (Linear)    (Quad)   (Total)
    R1        2.51994  -0.00001   0.00000  -0.00006  -0.00006   2.51988
    R2        2.52988   0.00001   0.00000   0.00005   0.00005   2.52993
    R3        2.50827  -0.00000   0.00000  -0.00001  -0.00001   2.50826
    R4        2.84032   0.00000   0.00000   0.00004   0.00004   2.84036
    R5        2.48740  -0.00000   0.00000  -0.00000  -0.00000   2.48740
    R6        2.83889   0.00000   0.00000   0.00006   0.00006   2.83896
    R7        2.55814   0.00001   0.00000   0.00002   0.00002   2.55816
    R8        2.54230   0.00000   0.00000  -0.00001  -0.00001   2.54229
    R9        2.94603  -0.00000   0.00000  -0.00002  -0.00002   2.94601
   R10        2.53524   0.00000   0.00000   0.00001   0.00001   2.53525
   R11        2.53268  -0.00000   0.00000  -0.00002  -0.00002   2.53267
   R12        2.94936   0.00002   0.00000   0.00007   0.00007   2.94942
   R13        2.53046  -0.00001   0.00000  -0.00002  -0.00002   2.53044
   R14        2.52690  -0.00001   0.00000  -0.00003  -0.00003   2.52687
   R15        2.94416  -0.00000   0.00000  -0.00000  -0.00000   2.94416
   R16        2.50639   0.00001   0.00000   0.00003   0.00003   2.50642
   R17        2.50300   0.00001   0.00000   0.00002   0.00002   2.50301
   R18        2.50906   0.00000   0.00000   0.00000   0.00000   2.50906
    A1        1.87415  -0.00001   0.00000  -0.00001  -0.00001   1.87414
    A2        1.90072  -0.00000   0.00000   0.00005   0.00005   1.90077
    A3        1.92147   0.00000   0.00000  -0.00009  -0.00009   1.92138
    A4        1.89020  -0.00001   0.00000  -0.00006  -0.00006   1.89014
    A5        1.93759   0.00001   0.00000   0.00010   0.00010   1.93769
    A6        1.93805   0.00001   0.00000   0.00002   0.00002   1.93807
    A7        1.98209   0.00001   0.00000  -0.00002  -0.00002   1.98207
    A8        2.16067  -0.00000   0.00000  -0.00017  -0.00017   2.16050
    A9        2.04296  -0.00001   0.00000  -0.00013  -0.00013   2.04284
   A10        1.92488   0.00000   0.00000  -0.00002  -0.00002   1.92486
   A11        1.90982   0.00000   0.00000   0.00001   0.00001   1.90983
   A12        1.95926   0.00000   0.00000   0.00002   0.00002   1.95928
   A13        1.87877   0.00000   0.00000  -0.00000  -0.00000   1.87877
   A14        1.89318  -0.00000   0.00000  -0.00002  -0.00002   1.89316
   A15        1.89595  -0.00000   0.00000   0.00002   0.00002   1.89597
   A16        1.88961  -0.00000   0.00000  -0.00001  -0.00001   1.88959
   A17        1.89420  -0.00000   0.00000   0.00000   0.00000   1.89421
   A18        1.98621   0.00000   0.00000  -0.00001  -0.00001   1.98620
   A19        1.90301  -0.00000   0.00000  -0.00001  -0.00001   1.90300
   A20        1.88446   0.00000   0.00000  -0.00000  -0.00000   1.88446
   A21        1.90502   0.00000   0.00000   0.00002   0.00002   1.90504
   A22        1.91822   0.00000   0.00000   0.00001   0.00001   1.91822
   A23        1.89741   0.00000   0.00000   0.00002   0.00002   1.89743
   A24        1.98640   0.00000   0.00000  -0.00000  -0.00000   1.98640
   A25        1.90479  -0.00000   0.00000  -0.00000  -0.00000   1.90479
   A26        1.87631  -0.00000   0.00000  -0.00002  -0.00002   1.87630
   A27        1.87912  -0.00000   0.00000  -0.00000  -0.00000   1.87911
   A28        1.89626  -0.00000   0.00000  -0.00001  -0.00001   1.89625
   A29        1.93511  -0.00000   0.00000  -0.00002  -0.00002   1.93510
   A30        1.92946  -0.00000   0.00000   0.00001   0.00001   1.92947
   A31        1.89680   0.00000   0.00000  -0.00000  -0.00000   1.89680
   A32        1.89994   0.00000   0.00000   0.00001   0.00001   1.89995
   A33        1.90563   0.00000   0.00000   0.00001   0.00001   1.90564
    D1       -1.02808   0.00000   0.00000   0.00226   0.00226  -1.02582
    D2        2.58900   0.00001   0.00000   0.00300   0.00300   2.59201
    D3        1.04483  -0.00000   0.00000   0.00225   0.00225   1.04708
    D4       -1.62127   0.00000   0.00000   0.00299   0.00299  -1.61828
    D5       -3.13445   0.00000   0.00000   0.00225   0.00225  -3.13221
    D6        0.48263   0.00000   0.00000   0.00299   0.00299   0.48562
    D7        1.05446   0.00000   0.00000  -0.00048  -0.00048   1.05397
    D8       -1.00908  -0.00000   0.00000  -0.00047  -0.00047  -1.00955
    D9       -3.11544  -0.00000   0.00000  -0.00052  -0.00052  -3.11596
   D10       -1.59654   0.00000   0.00000   0.00026   0.00026  -1.59628
   D11        2.62311  -0.00000   0.00000   0.00027   0.00027   2.62338
   D12        0.51675  -0.00000   0.00000   0.00023   0.00023   0.51698
   D13        0.79928  -0.00000   0.00000  -0.00003  -0.00003   0.79926
   D14       -1.26403   0.00000   0.00000  -0.00002  -0.00002  -1.26405
   D15        2.89450  -0.00000   0.00000  -0.00004  -0.00004   2.89446
   D16        2.93070  -0.00000   0.00000  -0.00006  -0.00006   2.93064
   D17        0.86738   0.00000   0.00000  -0.00004  -0.00004   0.86733
   D18       -1.25727  -0.00000   0.00000  -0.00007  -0.00007  -1.25735
   D19       -1.31507  -0.00000   0.00000  -0.00007  -0.00007  -1.31513
   D20        2.90480   0.00000   0.00000  -0.00005  -0.00005   2.90475
   D21        0.78015  -0.00000   0.00000  -0.00008  -0.00008   0.78007
   D22        0.75615   0.00000   0.00000   0.00007   0.00007   0.75621
   D23       -1.32763  -0.00000   0.00000   0.00005   0.00005  -1.32757
   D24        2.86151   0.00000   0.00000   0.00005   0.00005   2.86155
   D25        2.85426   0.00000   0.00000   0.00004   0.00004   2.85431
   D26        0.77049  -0.00000   0.00000   0.00003   0.00003   0.77052
   D27       -1.32356  -0.00000   0.00000   0.00002   0.00002  -1.32354
   D28       -1.36250   0.00000   0.00000   0.00005   0.00005  -1.36245
   D29        2.83691   0.00000   0.00000   0.00004   0.00004   2.83695
   D30        0.74286   0.00000   0.00000   0.00003   0.00003   0.74289
   D31        2.96151   0.00000   0.00000  -0.00004  -0.00004   2.96146
   D32       -1.23829  -0.00000   0.00000  -0.00006  -0.00006  -1.23835
   D33        0.87767  -0.00000   0.00000  -0.00006  -0.00006   0.87761
   D34       -1.19297   0.00000   0.00000  -0.00005  -0.00005  -1.19303
   D35        0.89041   0.00000   0.00000  -0.00007  -0.00007   0.89034
   D36        3.00637   0.00000   0.00000  -0.00006  -0.00006   3.00631
   D37        0.85716  -0.00000   0.00000  -0.00007  -0.00007   0.85710
   D38        2.94055  -0.00000   0.00000  -0.00008  -0.00008   2.94047
   D39       -1.22668  -0.00000   0.00000  -0.00008  -0.00008  -1.22676
         Item               Value     Threshold  Converged?
 Maximum Force            0.000018     0.000450     YES
 RMS     Force            0.000004     0.000300     YES
 Maximum Displacement     0.004796     0.001800     NO 
 RMS     Displacement     0.001081     0.001200     YES
 Predicted change in Energy=-2.357633D-08
                           ----------------------------
                           ! Non-Optimized Parameters !
                           ! (Angstroms and Degrees)  !
 --------------------------                            --------------------------
 ! Name  Definition              Value          Derivative Info.                !
 --------------------------------------------------------------------------------
 ! R1    R(1,2)                  1.3335         -DE/DX =    0.0                 !
 ! R2    R(1,3)                  1.3388         -DE/DX =    0.0                 !
 ! R3    R(1,4)                  1.3273         -DE/DX =    0.0                 !
 ! R4    R(1,5)                  1.5031         -DE/DX =    0.0                 !
 ! R5    R(5,6)                  1.3163         -DE/DX =    0.0                 !
 ! R6    R(5,7)                  1.5023         -DE/DX =    0.0                 !
 ! R7    R(7,8)                  1.3537         -DE/DX =    0.0                 !
 ! R8    R(7,9)                  1.3453         -DE/DX =    0.0                 !
 ! R9    R(7,10)                 1.559          -DE/DX =    0.0                 !
 ! R10   R(10,11)                1.3416         -DE/DX =    0.0                 !
 ! R11   R(10,12)                1.3402         -DE/DX =    0.0                 !
 ! R12   R(10,13)                1.5608         -DE/DX =    0.0                 !
 ! R13   R(13,14)                1.3391         -DE/DX =    0.0                 !
 ! R14   R(13,15)                1.3372         -DE/DX =    0.0                 !
 ! R15   R(13,16)                1.558          -DE/DX =    0.0                 !
 ! R16   R(16,17)                1.3263         -DE/DX =    0.0                 !
 ! R17   R(16,18)                1.3245         -DE/DX =    0.0                 !
 ! R18   R(16,19)                1.3277         -DE/DX =    0.0                 !
 ! A1    A(2,1,3)              107.3805         -DE/DX =    0.0                 !
 ! A2    A(2,1,4)              108.906          -DE/DX =    0.0                 !
 ! A3    A(2,1,5)              110.0869         -DE/DX =    0.0                 !
 ! A4    A(3,1,4)              108.2971         -DE/DX =    0.0                 !
 ! A5    A(3,1,5)              111.0212         -DE/DX =    0.0                 !
 ! A6    A(4,1,5)              111.0434         -DE/DX =    0.0                 !
 ! A7    A(1,5,6)              113.5644         -DE/DX =    0.0                 !
 ! A8    A(1,5,7)              123.7877         -DE/DX =    0.0                 !
 ! A9    A(6,5,7)              117.046          -DE/DX =    0.0                 !
 ! A10   A(5,7,8)              110.2865         -DE/DX =    0.0                 !
 ! A11   A(5,7,9)              109.4253         -DE/DX =    0.0                 !
 ! A12   A(5,7,10)             112.2586         -DE/DX =    0.0                 !
 ! A13   A(8,7,9)              107.6454         -DE/DX =    0.0                 !
 ! A14   A(8,7,10)             108.47           -DE/DX =    0.0                 !
 ! A15   A(9,7,10)             108.6309         -DE/DX =    0.0                 !
 ! A16   A(7,10,11)            108.2657         -DE/DX =    0.0                 !
 ! A17   A(7,10,12)            108.5301         -DE/DX =    0.0                 !
 ! A18   A(7,10,13)            113.801          -DE/DX =    0.0                 !
 ! A19   A(11,10,12)           109.0339         -DE/DX =    0.0                 !
 ! A20   A(11,10,13)           107.9716         -DE/DX =    0.0                 !
 ! A21   A(12,10,13)           109.1509         -DE/DX =    0.0                 !
 ! A22   A(10,13,14)           109.9061         -DE/DX =    0.0                 !
 ! A23   A(10,13,15)           108.7148         -DE/DX =    0.0                 !
 ! A24   A(10,13,16)           113.8122         -DE/DX =    0.0                 !
 ! A25   A(14,13,15)           109.1363         -DE/DX =    0.0                 !
 ! A26   A(14,13,16)           107.5038         -DE/DX =    0.0                 !
 ! A27   A(15,13,16)           107.6652         -DE/DX =    0.0                 !
 ! A28   A(13,16,17)           108.6469         -DE/DX =    0.0                 !
 ! A29   A(13,16,18)           110.8728         -DE/DX =    0.0                 !
 ! A30   A(13,16,19)           110.5504         -DE/DX =    0.0                 !
 ! A31   A(17,16,18)           108.6788         -DE/DX =    0.0                 !
 ! A32   A(17,16,19)           108.8593         -DE/DX =    0.0                 !
 ! A33   A(18,16,19)           109.1853         -DE/DX =    0.0                 !
 ! D1    D(2,1,5,6)            -58.7753         -DE/DX =    0.0                 !
 ! D2    D(2,1,5,7)            148.5111         -DE/DX =    0.0                 !
 ! D3    D(3,1,5,6)             59.9931         -DE/DX =    0.0                 !
 ! D4    D(3,1,5,7)            -92.7204         -DE/DX =    0.0                 !
 ! D5    D(4,1,5,6)           -179.4623         -DE/DX =    0.0                 !
 ! D6    D(4,1,5,7)             27.8242         -DE/DX =    0.0                 !
 ! D7    D(1,5,7,8)             60.3883         -DE/DX =    0.0                 !
 ! D8    D(1,5,7,9)            -57.843          -DE/DX =    0.0                 !
 ! D9    D(1,5,7,10)          -178.5311         -DE/DX =    0.0                 !
 ! D10   D(6,5,7,8)            -91.4601         -DE/DX =    0.0                 !
 ! D11   D(6,5,7,9)            150.3086         -DE/DX =    0.0                 !
 ! D12   D(6,5,7,10)            29.6205         -DE/DX =    0.0                 !
 ! D13   D(5,7,10,11)           45.794          -DE/DX =    0.0                 !
 ! D14   D(5,7,10,12)          -72.4247         -DE/DX =    0.0                 !
 ! D15   D(5,7,10,13)          165.8401         -DE/DX =    0.0                 !
 ! D16   D(8,7,10,11)          167.9132         -DE/DX =    0.0                 !
 ! D17   D(8,7,10,12)           49.6946         -DE/DX =    0.0                 !
 ! D18   D(8,7,10,13)          -72.0407         -DE/DX =    0.0                 !
 ! D19   D(9,7,10,11)          -75.3516         -DE/DX =    0.0                 !
 ! D20   D(9,7,10,12)          166.4298         -DE/DX =    0.0                 !
 ! D21   D(9,7,10,13)           44.6946         -DE/DX =    0.0                 !
 ! D22   D(7,10,13,14)          43.3278         -DE/DX =    0.0                 !
 ! D23   D(7,10,13,15)         -76.0643         -DE/DX =    0.0                 !
 ! D24   D(7,10,13,16)         163.955          -DE/DX =    0.0                 !
 ! D25   D(11,10,13,14)        163.5398         -DE/DX =    0.0                 !
 ! D26   D(11,10,13,15)         44.1476         -DE/DX =    0.0                 !
 ! D27   D(11,10,13,16)        -75.833          -DE/DX =    0.0                 !
 ! D28   D(12,10,13,14)        -78.0625         -DE/DX =    0.0                 !
 ! D29   D(12,10,13,15)        162.5453         -DE/DX =    0.0                 !
 ! D30   D(12,10,13,16)         42.5647         -DE/DX =    0.0                 !
 ! D31   D(10,13,16,17)        169.6794         -DE/DX =    0.0                 !
 ! D32   D(10,13,16,18)        -70.9523         -DE/DX =    0.0                 !
 ! D33   D(10,13,16,19)         50.2833         -DE/DX =    0.0                 !
 ! D34   D(14,13,16,17)        -68.3553         -DE/DX =    0.0                 !
 ! D35   D(14,13,16,18)         51.013          -DE/DX =    0.0                 !
 ! D36   D(14,13,16,19)        172.2486         -DE/DX =    0.0                 !
 ! D37   D(15,13,16,17)         49.108          -DE/DX =    0.0                 !
 ! D38   D(15,13,16,18)        168.4763         -DE/DX =    0.0                 !
 ! D39   D(15,13,16,19)        -70.2881         -DE/DX =    0.0                 !
 --------------------------------------------------------------------------------
 GradGradGradGradGradGradGradGradGradGradGradGradGradGradGradGradGradGrad


 ----------------------------------------------------------------------

 Electric dipole moment (input orientation):
 (Debye = 10**-18 statcoulomb cm , SI units = C m)
                  (au)            (Debye)         (10**-30 SI)
   Tot        0.172653D+00      0.438841D+00      0.146382D+01
   x         -0.249302D-01     -0.633663D-01     -0.211367D+00
   y          0.144280D+00      0.366723D+00      0.122326D+01
   z         -0.914933D-01     -0.232553D+00     -0.775713D+00

 Dipole polarizability, Alpha (input orientation).
 (esu units = cm**3 , SI units = C**2 m**2 J**-1)
 Alpha(0;0):
               (au)            (10**-24 esu)      (10**-40 SI)
   iso        0.790891D+02      0.117198D+02      0.130400D+02
   aniso      0.171960D+02      0.254818D+01      0.283524D+01
   xx         0.904328D+02      0.134008D+02      0.149103D+02
   yx        -0.320258D+00     -0.474573D-01     -0.528034D-01
   yy         0.747207D+02      0.110725D+02      0.123198D+02
   zx        -0.504927D+00     -0.748224D-01     -0.832512D-01
   zy         0.530936D-01      0.786766D-02      0.875395D-02
   zz         0.721140D+02      0.106862D+02      0.118900D+02

 ----------------------------------------------------------------------

 Dipole orientation:
     6          5.07966888         -0.06991745         -0.98728462
     9          6.92694686          0.72145086          0.53303986
     9          5.81409004         -2.27621680         -1.98384918
     9          4.79893984          1.58258416         -2.85324903
     6          2.66733228         -0.36859654          0.48201468
     9          2.84564163         -1.97828192          2.36994874
     6          0.08470750          0.04675668         -0.62109104
     9         -0.32031794         -1.56788911         -2.56350021
     9         -0.07189032          2.41210973         -1.53972694
     6         -2.05332966         -0.33312327          1.36977666
     9         -1.38768163          0.88275388          3.49251385
     9         -2.26066816         -2.80806938          1.86590299
     6         -4.67720079          0.70466054          0.51128657
     9         -5.10724793          0.07080000         -1.90045217
     9         -4.65908942          3.22325078          0.71525999
     6         -6.93514874         -0.30482415          2.10837463
     9         -8.98864327          1.00069675          1.50771759
     9         -7.35521425         -2.72524093          1.62867277
     9         -6.47903004         -0.01698197          4.55878171

 Electric dipole moment (dipole orientation):
 (Debye = 10**-18 statcoulomb cm , SI units = C m)
                  (au)            (Debye)         (10**-30 SI)
   Tot        0.172653D+00      0.438841D+00      0.146382D+01
   x          0.000000D+00      0.000000D+00      0.000000D+00
   y          0.000000D+00      0.000000D+00      0.000000D+00
   z          0.172653D+00      0.438841D+00      0.146382D+01

 Dipole polarizability, Alpha (dipole orientation).
 (esu units = cm**3 , SI units = C**2 m**2 J**-1)
 Alpha(0;0):
               (au)            (10**-24 esu)      (10**-40 SI)
   iso        0.790891D+02      0.117198D+02      0.130400D+02
   aniso      0.171960D+02      0.254818D+01      0.283524D+01
   xx         0.900459D+02      0.133434D+02      0.148466D+02
   yx        -0.952053D+00     -0.141080D+00     -0.156972D+00
   yy         0.729523D+02      0.108104D+02      0.120282D+02
   zx        -0.245284D+01     -0.363474D+00     -0.404419D+00
   zy        -0.108327D+01     -0.160525D+00     -0.178608D+00
   zz         0.742693D+02      0.110056D+02      0.122453D+02

 ----------------------------------------------------------------------
 1\1\GINC-CCLEARCO\Freq\UwB97XD\6-311+G(2d,2p)\C6F13(2)\RAPPE\15-Nov-20
 25\0\\#N Geom=AllCheck Guess=TCheck SCRF=Check GenChk UwB97XD/6-311+G(
 2d,2p) Freq\\Title Card Required\\0,2\C,2.7297691887,-0.2044734425,-0.
 080362542\F,3.5447875095,0.3173063439,-0.9978025917\F,3.2813420782,0.0
 200950701,1.1186349932\F,2.6568482091,-1.5166621173,-0.2664083381\C,1.
 3708085439,0.4304988881,-0.1759821224\F,1.3868042755,1.7358127469,-0.0
 072051113\C,0.0897207407,-0.2845680518,0.1470199208\F,0.0941206927,-0.
 6960011147,1.4366836416\F,-0.0205454054,-1.3776964879,-0.6293966543\C,
 -1.1625292446,0.6158530729,-0.0799112273\F,-1.0280290289,1.2326070067,
 -1.2637168511\F,-1.2053672346,1.538475851,0.8912591644\C,-2.5098152589
 ,-0.1717963614,-0.0976005379\F,-2.5235483483,-1.0739261905,0.891870417
 \F,-2.6210637244,-0.8052771571,-1.2699368214\C,-3.7682884233,0.7305824
 562,0.0734754191\F,-4.8487329105,0.0037447399,-0.1784959728\F,-3.84987
 50624,1.1971183387,1.3104324676\F,-3.7294600571,1.7504272788,-0.775817
 3835\\Version=EM64M-G16RevA.03\State=2-A\HF=-1526.5907638\S2=0.754028\
 S2-1=0.\S2A=0.750011\RMSD=4.402e-09\RMSF=5.841e-06\ZeroPoint=0.0739362
 \Thermal=0.0914045\Dipole=-0.0249302,0.1442798,-0.0914933\DipoleDeriv=
 1.8335746,0.0963464,-0.0275132,-0.0743826,1.5219205,0.0066698,-0.01116
 29,0.0033769,1.6718611,-0.7475872,-0.1532913,0.3158879,-0.1210604,-0.3
 520256,0.1523648,0.3020298,0.176643,-0.569069,-0.6179527,-0.0122539,-0
 .2806835,0.0073384,-0.2870467,-0.0709833,-0.3187539,-0.0879447,-0.7599
 188,-0.3632411,0.0580904,0.0118912,-0.0194625,-0.8677653,-0.0927322,-0
 .0100256,-0.0758093,-0.268686,0.0256259,-0.0467396,0.0095614,0.1924221
 ,0.8329336,0.0621567,-0.0438104,0.1171934,-0.073069,-0.2946916,-0.0080
 051,0.0097116,-0.0147638,-0.8432621,-0.0383284,0.0134998,-0.1303409,-0
 .0473434,0.8829044,0.1218506,-0.0179148,0.1088546,0.9665844,0.0143622,
 -0.0034854,0.0368808,1.2282872,-0.3818684,-0.0081387,-0.0008071,-0.054
 9644,-0.3331428,0.2354196,0.0668127,0.1758865,-0.7643509,-0.3214054,-0
 .040713,-0.0197419,-0.064739,-0.636905,-0.2859008,-0.0076702,-0.207743
 3,-0.4002115,0.6856094,0.0012009,-0.0580535,-0.0207407,0.8967779,0.040
 5266,-0.044437,0.0483125,1.148453,-0.3562185,-0.0264035,0.0446591,-0.0
 221391,-0.3719133,0.290398,0.0509024,0.2038621,-0.6601792,-0.3409066,0
 .0200541,0.0024688,0.051479,-0.5254987,-0.3320256,0.0285257,-0.2449213
 ,-0.5075971,0.6568296,-0.0165335,0.0375548,0.2228382,0.9087393,-0.0266
 702,0.0509622,-0.0404337,1.1869054,-0.3241974,-0.0028263,0.0191912,-0.
 0102837,-0.5320336,0.3403389,0.0098864,0.2480267,-0.5303712,-0.327741,
 -0.0247876,-0.0494331,-0.0443942,-0.3930393,-0.3025059,-0.0636264,-0.2
 161474,-0.6737341,1.6194372,0.1878531,0.0260382,-0.0239181,1.4717983,-
 0.017522,-0.0041373,-0.027846,1.5781853,-0.9154173,-0.2854571,-0.10014
 95,-0.2119757,-0.444168,-0.0603577,-0.0916019,-0.0639283,-0.2761068,-0
 .3571815,0.0708671,0.1067485,0.0695745,-0.3581437,-0.2371015,0.0519603
 ,-0.1967186,-0.785721,-0.3555727,0.0688869,-0.029416,0.0303174,-0.6538
 097,0.3218911,0.0241317,0.2816517,-0.497334\Polar=90.4327641,-0.320258
 ,74.7207023,-0.5049268,0.0530936,72.1139539\Quadrupole=-0.8634111,0.14
 00267,0.7233844,0.2046118,-0.3987886,0.0660239\PG=C01 [X(C6F13)]\NImag
 =0\\0.58095198,-0.03124564,0.56625187,-0.00813885,0.00109039,0.4672804
 6,-0.17419968,-0.03893090,0.09411805,0.19614504,-0.03871374,-0.0953255
 8,0.04120373,0.08139278,0.12525423,0.08774926,0.03879512,-0.15307544,-
 0.13714695,-0.08745799,0.23443225,-0.12654788,-0.00614235,-0.08760639,
 0.02134670,-0.00073547,0.02203500,0.12415813,-0.00538321,-0.07581998,-
 0.01532309,0.00081203,0.01251175,0.01722631,0.02598506,0.08467022,-0.0
 7899326,-0.01541745,-0.20586029,0.00543229,0.01079106,-0.08397364,0.11
 463201,0.04697685,0.33007354,-0.08572150,0.01726583,0.00148437,0.00137
 361,-0.04314188,0.00908660,0.00779562,-0.02826875,-0.01658548,0.078029
 49,0.02311829,-0.28672604,-0.02682457,-0.03071293,-0.05227406,0.025656
 23,-0.01866828,-0.03098255,-0.04129101,0.02018372,0.41481734,0.0025800
 7,-0.02745343,-0.07426579,0.00882650,0.03614521,0.00554308,-0.01318632
 ,-0.05506435,-0.02364729,0.00350075,0.04839633,0.08574133,-0.18471851,
 0.03946035,-0.01466692,-0.04412443,0.00028221,0.01830078,-0.03095797,0
 .00764974,-0.02645356,0.01016179,-0.00137177,-0.00052849,0.54478051,0.
 07132506,-0.08632032,0.00850059,-0.02376222,0.00510842,0.01006171,-0.0
 0945860,0.00693487,-0.00920178,0.02709433,-0.03795831,-0.00218131,0.01
 073914,0.63477791,0.01259544,-0.00026086,-0.03818841,0.02643883,-0.001
 49745,-0.00236551,-0.04070231,0.00564182,-0.01839496,0.00271220,-0.004
 23023,0.00532270,-0.03278172,0.03172301,0.13390668,0.00740345,0.029784
 81,0.00543915,0.00198733,0.00022237,-0.00127905,0.00187039,-0.00081738
 ,0.00143950,-0.00641375,0.00893115,0.00026051,-0.07350637,-0.00709588,
 0.00478205,0.06951072,-0.02256630,-0.03785742,-0.00671904,0.00602741,0
 .00562589,-0.00205537,0.00663014,0.00402199,0.00547411,0.00793772,-0.0
 0612024,0.00023687,-0.00267509,-0.40304098,-0.04619385,0.00261945,0.47
 001655,-0.00745799,0.00219889,-0.00086444,0.00016744,0.00052631,0.0001
 3429,0.00395888,0.00000286,0.00324774,0.00040779,-0.00063314,0.0021589
 8,0.00466216,-0.05797421,-0.02000774,-0.00317180,0.05154492,0.01429347
 ,-0.02650952,-0.01019625,0.01209379,-0.00063462,0.00122473,0.00032351,
 0.00583989,0.00006802,0.00198071,0.00242217,-0.00231390,-0.00096981,-0
 .19724198,-0.04237194,0.01074191,0.01267391,0.01535633,0.00341237,0.53
 118121,-0.00614135,0.03529077,-0.00291141,0.01021511,-0.00283514,-0.00
 318455,0.00696729,-0.00363779,0.00546626,-0.00208995,-0.00994703,-0.00
 072355,-0.02280080,-0.10259682,-0.00048735,-0.02639239,-0.02312514,0.0
 1083151,0.00370296,0.54281939,0.00010665,-0.00158024,0.01239732,0.0000
 8773,0.00039173,-0.00145054,-0.00340478,0.00061543,-0.00742260,-0.0014
 9690,-0.00112388,-0.00287787,0.03096077,0.02089584,-0.03711184,-0.0076
 3565,-0.01238271,0.00146210,-0.00265466,-0.00004697,0.44542349,0.00582
 260,-0.00016001,-0.00328600,-0.00079607,-0.00030541,0.00037760,-0.0023
 1252,-0.00008333,-0.00014064,-0.00098898,0.00097103,0.00080104,0.00013
 710,-0.01187206,0.03066466,-0.00150916,-0.00609479,-0.00082031,-0.0750
 2409,0.00187350,0.00702344,0.06611970,0.00596523,-0.00612262,0.0011610
 4,-0.00182113,0.00053116,-0.00001837,-0.00258298,0.00063945,-0.0018950
 9,-0.00011159,0.00275459,-0.00027939,-0.01222273,-0.00063342,0.0283667
 0,0.00016104,-0.00294352,-0.00261703,0.00539420,-0.09680992,0.07195602
 ,0.00193779,0.09830079,-0.00868539,0.00494545,-0.00429959,0.00232986,-
 0.00032345,0.00030286,0.00386764,-0.00044667,0.00447780,0.00126403,-0.
 00187053,0.00067661,0.01903978,0.01043705,-0.02997364,0.00186926,0.008
 89158,0.00060497,-0.01019307,0.07604030,-0.22225333,0.00149695,-0.0874
 9055,0.34592908,0.00283729,0.00380714,0.00038506,-0.00015074,-0.000473
 46,0.00007643,-0.00050434,-0.00034187,-0.00059989,-0.00694008,-0.00061
 268,-0.00127390,0.00595056,-0.03021983,-0.01134993,-0.00684797,-0.0078
 6475,-0.00126995,-0.07936697,-0.01369212,-0.01015316,0.01162803,-0.000
 55481,-0.00530622,0.07282398,0.00381022,-0.00976107,-0.00142614,-0.001
 56667,0.00114932,0.00023858,-0.00159477,0.00135218,-0.00021280,0.00094
 949,0.00610586,0.00093661,-0.01076368,-0.03110667,-0.01246333,-0.00724
 883,-0.00620057,-0.00288972,-0.00843076,-0.23091113,-0.09111564,0.0003
 1492,0.01354081,-0.02251492,0.02173679,0.29089978,0.00018410,-0.003318
 37,-0.00283523,-0.00061548,0.00027052,0.00062270,-0.00001278,0.0004923
 7,0.00093810,-0.00038456,0.00188214,0.00127127,-0.00393658,-0.00869813
 ,0.00232170,-0.00119848,0.00043734,0.00054566,-0.00502803,-0.09366407,
 -0.11276040,-0.00540036,-0.03890606,-0.06863798,0.01502639,0.15395026,
 0.18046165,-0.00343976,-0.00238783,0.00042022,0.00003363,0.00028879,0.
 00016144,0.00063660,0.00019196,0.00007030,0.00096722,-0.00039204,-0.00
 006549,-0.03078620,0.01823980,-0.00192945,0.00293513,0.00002905,-0.000
 01808,-0.16737745,0.02489501,-0.00938166,0.00913432,-0.00015063,-0.000
 14925,0.01204609,-0.00739534,0.00001379,0.51820294,0.00296484,-0.00465
 945,0.00159855,-0.00398194,-0.00018255,0.00194388,-0.00178168,0.000194
 64,-0.00195771,-0.00023608,-0.00065481,-0.00009114,-0.01315760,0.03070
 617,-0.00086346,0.00276658,-0.00946285,-0.00197195,0.03349154,-0.09302
 720,0.01437563,0.00868474,-0.00493089,0.00541876,0.02071729,-0.0278626
 8,-0.00928928,0.00150431,0.55572010,0.00024688,0.00083382,0.00228211,0
 .00089058,0.00018049,-0.00105621,-0.00013037,-0.00018753,-0.00064833,0
 .00004421,0.00001038,-0.00035597,0.00605009,-0.00348081,0.00437972,0.0
 0003935,0.00066050,-0.00140270,-0.01150031,0.01004339,-0.03970214,-0.0
 2341599,0.02468529,-0.03211814,0.01444794,-0.02772966,-0.00677613,-0.0
 0208311,-0.00145049,0.52422605,0.00218738,-0.00042391,-0.00024611,-0.0
 0026292,-0.00002753,0.00004171,-0.00069879,0.00009678,-0.00033705,-0.0
 0033239,0.00048978,0.00004450,0.00010947,-0.00233612,-0.00067091,-0.00
 379862,0.00053480,-0.00199134,0.01065175,0.01321371,-0.02163462,-0.004
 91320,0.00475372,-0.00469571,-0.00078731,0.00137849,0.00087326,-0.0815
 3463,-0.01279412,0.01580508,0.07612627,-0.00099742,-0.00041169,0.00066
 534,0.00070144,0.00026879,-0.00053475,0.00019268,0.00011590,-0.0000651
 6,0.00013429,0.00049668,-0.00010420,0.00090431,-0.00435623,-0.00043637
 ,-0.00133354,0.00342034,-0.00035845,-0.00848273,-0.00912331,0.03007409
 ,0.00687360,-0.00413583,0.00430784,0.00082805,0.00027992,-0.00166868,-
 0.00928092,-0.14022621,0.09607970,0.01750367,0.14471203,0.00045195,0.0
 0030439,-0.00137891,-0.00071678,-0.00025860,0.00072272,0.00010013,-0.0
 0004562,0.00050693,-0.00013707,-0.00027155,0.00022666,-0.00029904,0.00
 207954,0.00031383,-0.00163771,-0.00175536,-0.00070799,0.00617231,0.011
 33914,-0.02743704,-0.00597182,0.00391152,-0.00195443,-0.00172978,0.003
 95781,0.00478255,0.01663743,0.11166370,-0.21623513,-0.02636754,-0.1360
 0220,0.33334081,0.00144270,0.00003836,-0.00018916,-0.00030574,-0.00004
 235,0.00010951,-0.00041066,0.00001914,-0.00023118,-0.00036144,0.000244
 33,0.00001348,0.00126392,-0.00326247,-0.00022813,-0.00472505,0.0004781
 6,0.00225627,0.00902362,0.02090762,0.01845253,-0.00036090,0.00081757,0
 .00037284,-0.00554267,0.00840360,0.00194008,-0.07989796,0.00457438,0.0
 0144009,0.00977442,0.00204948,0.00728010,0.07315720,-0.00142758,-0.000
 13029,-0.00072169,0.00079450,0.00023370,-0.00029263,0.00074088,0.00015
 209,0.00089635,0.00025183,0.00072685,0.00019285,0.00127424,-0.00647862
 ,0.00012626,-0.00114228,0.00496108,0.00118873,-0.00188221,-0.02285160,
 -0.03008317,0.00092520,0.00061183,0.00125624,0.00705647,-0.00743270,-0
 .00155885,0.00205430,-0.20455193,-0.10407328,0.00173793,0.02479682,-0.
 00784324,-0.00751505,0.23246077,-0.00081219,0.00013549,-0.00122012,0.0
 0035644,0.00002637,0.00007087,0.00053580,0.00008100,0.00080354,0.00013
 520,0.00025593,0.00021158,0.00025269,-0.00307619,0.00012570,0.00105051
 ,0.00199284,0.00043586,0.00049454,-0.01008549,-0.01411826,-0.00086002,
 0.00186882,0.00686181,0.00221459,-0.00170795,0.00091869,0.00203912,-0.
 11913949,-0.15895677,0.00695274,-0.02105860,-0.07467251,-0.00922384,0.
 16928862,0.25038690,-0.00162167,-0.00036208,0.00025649,0.00040285,0.00
 012071,-0.00018128,0.00049574,0.00001617,0.00020923,0.00045558,-0.0000
 3389,-0.00000599,-0.00132389,0.00208523,-0.00038967,0.00088451,0.00018
 764,-0.00007246,-0.03042254,-0.01177757,-0.00131536,0.00226239,-0.0001
 2256,0.00066572,0.00355698,-0.00143872,-0.00038424,-0.17189457,-0.0218
 1866,-0.00025145,0.00519697,-0.00252551,0.00208316,0.01148872,0.007200
 19,0.00190210,0.52264997,-0.00224843,0.00439223,-0.00057202,0.00176249
 ,-0.00034613,-0.00066457,0.00119487,-0.00051656,0.00096022,0.00020035,
 -0.00131383,-0.00008517,0.00396141,-0.00725600,0.00124946,-0.00035315,
 -0.00041605,-0.00004571,0.01729850,0.03444050,-0.00393969,-0.00237340,
 -0.00477710,0.00481814,-0.00445126,-0.00605367,-0.00233876,-0.01883298
 ,-0.09526427,0.00309445,-0.01724082,-0.00947544,0.00888141,-0.02063739
 ,-0.01702032,-0.01266310,0.00320101,0.56663982,-0.00022953,0.00010933,
 0.00135795,0.00024659,0.00009181,-0.00038060,-0.00005194,-0.00004275,-
 0.00050016,-0.00001164,-0.00010790,-0.00025664,0.00009155,0.00002068,-
 0.00072946,-0.00002688,0.00008215,0.00008672,-0.00519049,-0.00053932,0
 .01569108,0.00342148,0.00186452,-0.00555061,-0.00128325,-0.00195223,-0
 .00435962,-0.00403865,-0.00298264,-0.04009704,0.02733114,0.02684833,-0
 .02566130,-0.02055846,-0.02868809,-0.01464597,0.00058593,0.00494094,0.
 53494831,0.00090101,-0.00000056,-0.00013906,-0.00025868,-0.00005539,0.
 00011591,-0.00026679,0.00000519,-0.00012270,-0.00018440,0.00004518,0.0
 0001218,0.00052103,-0.00028862,0.00026733,-0.00028081,-0.00021787,-0.0
 0004529,0.00351248,0.00284341,-0.00199406,-0.00929298,-0.00176106,-0.0
 0080049,-0.00190770,0.00010753,0.00114997,0.01096918,-0.01973537,0.022
 13923,-0.00733208,-0.00609493,0.00455426,-0.00141896,-0.00152702,-0.00
 225001,-0.08010583,-0.00402877,0.00381069,0.07137737,0.00036441,-0.000
 99543,0.00041358,-0.00012868,0.00016745,-0.00008379,-0.00022209,0.0001
 3589,-0.00024246,-0.00004102,0.00047086,-0.00002676,0.00002358,-0.0002
 4375,-0.00027555,-0.00011883,0.00083407,0.00010485,-0.00001693,-0.0057
 5800,0.00254867,-0.00083724,0.00274491,-0.00312200,0.00074841,0.002344
 19,-0.00033259,0.00548542,-0.01542058,0.02769240,-0.00796045,-0.004643
 87,0.00332606,-0.00135017,-0.00043414,-0.00319894,-0.00276633,-0.20254
 825,0.10610776,0.00017737,0.22838922,-0.00021506,0.00047587,-0.0006724
 5,0.00004514,-0.00010410,0.00013740,0.00017021,-0.00005673,0.00031069,
 0.00004657,-0.00018685,0.00010398,-0.00005222,0.00002954,0.00037736,0.
 00008736,-0.00041343,-0.00005585,-0.00007701,0.00272797,-0.00544404,-0
 .00308392,-0.00225116,0.00389394,0.00102217,-0.00020223,0.00069086,-0.
 00064959,0.01106724,-0.01412760,0.00394443,0.00239213,-0.00010547,0.00
 185849,0.00325306,0.00459566,0.00307134,0.12038709,-0.16456635,-0.0005
 8550,-0.17052060,0.25876205,0.00092066,-0.00012761,0.00000583,-0.00034
 362,-0.00004599,0.00014514,-0.00030302,0.00001570,-0.00018486,-0.00023
 310,0.00005858,-0.00000496,0.00022810,0.00004833,-0.00001914,-0.000302
 64,-0.00017957,0.00002606,0.00223622,0.00172429,0.00228787,-0.00012502
 ,0.00001394,-0.00051446,-0.00727731,0.00162989,-0.00231203,0.00581665,
 -0.01660660,-0.02597088,-0.00076009,-0.00118277,-0.00114017,-0.0067633
 1,-0.00808576,-0.00417284,-0.08092552,-0.01320672,-0.01594465,0.010589
 28,0.00151704,-0.00318816,0.07491535,0.00044777,-0.00105994,-0.0002765
 5,-0.00031094,0.00009892,0.00016159,-0.00020099,0.00015612,-0.00001630
 ,-0.00001879,0.00046001,0.00009858,-0.00042309,0.00045677,-0.00016787,
 -0.00004702,0.00062275,0.00015524,-0.00044496,-0.00622880,-0.00173833,
 -0.00010799,0.00055251,0.00058238,0.00282243,0.00325258,0.00251648,-0.
 00213573,-0.01008267,-0.02632272,-0.00126185,-0.00000056,-0.00072590,-
 0.00587013,-0.00477128,-0.00250710,-0.00720599,-0.14630805,-0.10101834
 ,0.00164198,0.02556164,0.01968945,0.01356327,0.15208124,0.00053099,-0.
 00077438,-0.00064140,-0.00040819,0.00001172,0.00030991,-0.00016925,0.0
 0012141,0.00011398,-0.00005503,0.00031865,0.00014586,-0.00056647,0.000
 68534,-0.00004695,-0.00003526,0.00021360,0.00010344,0.00051346,-0.0043
 7019,-0.00395480,-0.00070842,-0.00030815,0.00200270,-0.00035467,0.0030
 9562,0.00262465,-0.00138309,-0.00959691,-0.02523474,0.00097726,0.00083
 290,0.00765752,-0.00443489,-0.00342217,-0.00024462,-0.01478595,-0.1161
 8093,-0.22045443,-0.00455202,0.00609817,-0.07643505,0.02318889,0.14308
 562,0.33664898,-0.00269855,0.00106339,-0.00005037,0.00113507,0.0000491
 4,-0.00045573,0.00096555,-0.00012610,0.00058730,0.00053470,-0.00038673
 ,-0.00002008,0.00000651,-0.00107270,0.00015123,0.00068678,0.00017235,-
 0.00002350,-0.00225104,0.00204442,-0.00048231,0.00110195,-0.00062960,0
 .00064094,0.00097328,-0.00103500,-0.00036501,-0.02870993,0.00584789,0.
 00339269,0.00292031,0.00087716,-0.00202946,0.00272718,0.00070325,0.000
 85349,-0.14829260,0.07013179,0.01407477,0.00563918,-0.00879005,0.00276
 461,0.00464000,-0.01091568,-0.00680276,0.58195704,0.00151167,-0.000399
 73,0.00021203,-0.00097950,-0.00017267,0.00048660,-0.00061475,-0.000034
 76,-0.00051998,-0.00025255,-0.00026798,-0.00003541,-0.00152450,0.00439
 504,-0.00018077,0.00004864,-0.00173400,-0.00030198,-0.00221686,-0.0059
 1044,0.00182609,-0.00015803,0.00000133,-0.00092164,0.00009521,-0.00114
 247,-0.00029510,-0.01300683,0.03701255,0.00017161,0.00169483,-0.006906
 60,0.00477661,0.00338231,-0.00696805,-0.00337982,0.03638343,-0.0929041
 5,-0.00824761,0.01983516,-0.02703356,0.01342272,0.01182915,-0.01296252
 ,-0.01375664,-0.02085593,0.56465142,0.00030833,-0.00021213,0.00084143,
 -0.00003717,0.00007186,-0.00018477,-0.00023210,-0.00001689,-0.00044581
 ,-0.00005074,0.00001139,-0.00013128,-0.00013405,0.00050705,0.00000046,
 0.00002672,-0.00006660,-0.00015764,-0.00041940,-0.00111068,0.00221900,
 0.00001256,0.00062362,-0.00201509,0.00009214,-0.00073194,-0.00076304,0
 .00019201,0.00383022,0.01853732,-0.00235073,0.00215733,-0.00524467,0.0
 0273320,-0.00348841,-0.00655558,0.00948031,-0.01011290,-0.03808889,-0.
 01904396,0.03370354,-0.01779135,0.02080230,-0.03366475,-0.03041381,-0.
 00498925,0.00370860,0.56075468,0.00166560,-0.00103933,0.00006786,-0.00
 080857,0.00000318,0.00033274,-0.00063127,0.00011914,-0.00040178,-0.000
 30153,0.00031906,0.00002067,-0.00056929,0.00169816,-0.00024488,-0.0002
 4496,-0.00021176,-0.00001642,-0.00025001,-0.00496573,0.00087765,-0.000
 31962,0.00071663,-0.00085537,0.00002742,0.00083644,0.00038878,-0.00166
 319,0.01141001,-0.00036495,-0.00048114,-0.00127951,0.00171253,0.000370
 51,-0.00031294,-0.00024686,-0.05114651,-0.03591431,-0.00931476,0.00311
 483,0.00452291,-0.00160557,0.00304920,0.00216652,0.00133369,-0.2470075
 7,-0.07505085,-0.02894165,0.30149049,0.00009786,-0.00022877,-0.0000405
 8,-0.00001000,0.00004060,-0.00000893,-0.00002888,0.00004559,0.00001398
 ,-0.00001973,0.00015357,0.00001707,0.00012837,-0.00042291,-0.00001764,
 -0.00005670,0.00032079,0.00005681,0.00023404,-0.00029448,-0.00028073,-
 0.00002725,0.00020736,0.00000005,0.00003818,0.00050978,0.00021812,0.00
 129816,-0.00380735,-0.00030892,-0.00036438,0.00111625,-0.00045054,-0.0
 0063225,0.00129605,0.00076354,0.00306053,0.00095177,-0.00161138,0.0006
 0270,0.00383470,-0.00133601,0.00341123,0.00267453,0.00183295,-0.083418
 88,-0.11936442,-0.01652815,0.15558053,0.18016823,0.00011033,-0.0000930
 6,-0.00012557,-0.00006657,-0.00000459,0.00005729,-0.00002317,0.0000194
 8,0.00003075,-0.00001889,0.00004619,0.00002395,-0.00003372,0.00004329,
 -0.00001794,-0.00002660,0.00002774,0.00002401,0.00002718,-0.00041161,-
 0.00033354,-0.00003667,-0.00000278,0.00023938,0.00004195,0.00026829,0.
 00020508,-0.00003840,0.00014925,-0.00185792,0.00008321,-0.00027659,0.0
 0075561,-0.00031993,0.00058038,0.00086577,-0.00252616,-0.00362155,0.00
 110832,0.00045951,-0.00212505,0.00232807,0.00311171,0.00283559,0.00388
 380,-0.03274698,-0.01628080,-0.08060638,0.05269978,0.03666401,0.094916
 71,0.00067523,-0.00020343,0.00004944,-0.00028029,-0.00002192,0.0001054
 3,-0.00024306,0.00002040,-0.00016375,-0.00013556,0.00006047,-0.0000082
 5,0.00000845,0.00030883,-0.00003868,-0.00017872,-0.00009875,0.00000515
 ,0.00066960,-0.00037767,0.00036238,-0.00022127,0.00010136,-0.00021922,
 -0.00029702,0.00015283,-0.00001364,0.00193450,-0.00041856,-0.00223345,
 -0.00021162,-0.00024586,0.00056601,-0.00827846,-0.00076601,0.00176760,
 0.00806513,0.00601422,0.02446240,-0.00040718,0.00163091,-0.00078743,-0
 .00492112,0.00706151,0.00540467,-0.08967961,0.02063629,0.03034627,-0.0
 0001604,-0.02954526,-0.04386789,0.08019306,-0.00041934,0.00002900,-0.0
 0017393,0.00021051,0.00003956,-0.00007355,0.00017595,0.00002163,0.0001
 8230,0.00007596,0.00008435,0.00003214,0.00024841,-0.00088415,0.0000219
 0,0.00002158,0.00042044,0.00009010,-0.00001621,0.00063310,-0.00071954,
 0.00011758,0.00001240,0.00041408,0.00012604,0.00049520,0.00029495,0.00
 018368,-0.00615724,-0.00196179,0.00006618,0.00071679,0.00015416,-0.001
 59601,0.00319719,0.00225960,0.00178580,-0.00213544,-0.02494097,0.00041
 776,0.00064720,-0.00111123,0.00462271,-0.00490703,-0.00425684,0.021322
 96,-0.11371010,-0.07706558,-0.02130824,-0.01721153,-0.04099434,-0.0013
 1465,0.12182352,-0.00043799,0.00011402,-0.00046974,0.00016671,-0.00000
 472,0.00002257,0.00022214,0.00001714,0.00031053,0.00008116,0.00004290,
 0.00007460,0.00021933,-0.00076716,0.00006550,0.00001857,0.00029215,0.0
 0010011,0.00011968,0.00091709,-0.00168471,0.00004012,-0.00030869,0.001
 17552,0.00011600,0.00057822,0.00056327,-0.00030293,-0.00527108,-0.0059
 4641,0.00053450,-0.00044603,0.00203161,-0.00030616,0.00319254,0.004133
 47,-0.00267015,-0.00381998,-0.02855724,-0.00011503,-0.00181058,0.00712
 859,0.00530055,-0.00461274,-0.00185741,0.03914780,-0.08425588,-0.25122
 411,-0.03062246,-0.03614383,-0.03093341,-0.01833736,0.11345176,0.38183
 272,0.00064917,-0.00020002,0.00000260,-0.00025884,-0.00002078,0.000101
 97,-0.00023233,0.00002130,-0.00013719,-0.00012746,0.00007064,0.0000036
 0,0.00006119,0.00020157,0.00000118,-0.00014416,-0.00006417,-0.00000898
 ,0.00086736,-0.00014976,-0.00000584,-0.00034230,0.00009559,-0.00012783
 ,-0.00022151,0.00015355,0.00007482,0.00262745,-0.00143098,0.00145437,-
 0.00585377,0.00135850,0.00047150,-0.00118312,-0.00007993,-0.00098907,0
 .01027430,0.01552258,-0.01737429,-0.00516896,0.00776175,-0.00276587,-0
 .00044071,0.00123967,0.00230704,-0.08464823,0.01924309,-0.00779477,-0.
 00627833,-0.05034824,0.02317128,0.01332398,-0.00472066,0.00682552,0.07
 709629,-0.00046234,-0.00014553,0.00014377,0.00028863,0.00010636,-0.000
 19551,0.00014395,0.00003931,0.00005862,0.00008684,0.00017474,-0.000010
 96,0.00026752,-0.00108098,-0.00005443,0.00005038,0.00065687,0.00009197
 ,-0.00039757,-0.00012695,0.00032740,0.00032116,0.00045615,-0.00042212,
 0.00023478,0.00054136,0.00000770,-0.00058818,-0.00734277,0.00206316,0.
 00093928,0.00335622,-0.00304134,-0.00000913,0.00220255,0.00014449,-0.0
 0598942,-0.02008907,0.03006572,0.00803330,-0.00805256,0.00273725,0.001
 00088,0.00040378,-0.00362978,0.02501831,-0.21654887,0.09838442,-0.0372
 8994,-0.04998978,0.02317615,-0.00299475,0.01688513,0.01883486,0.011346
 29,0.27855404,0.00010626,0.00010714,-0.00026189,-0.00011500,-0.0000599
 1,0.00013076,-0.00000240,-0.00001102,0.00007948,-0.00002257,-0.0000804
 7,0.00003424,-0.00012435,0.00039594,0.00002279,-0.00000155,-0.00026744
 ,-0.00000099,0.00015331,0.00016953,-0.00064188,-0.00011371,-0.00036027
 ,0.00063814,-0.00010192,-0.00007884,0.00018624,0.00050541,0.00256692,-
 0.00490997,0.00170618,-0.00240664,0.00305922,-0.00096484,0.00019650,0.
 00100398,0.00432844,0.00971269,-0.00934409,-0.00286096,0.00174328,0.00
 086958,-0.00141620,0.00192566,0.00579237,-0.01364737,0.10357137,-0.148
 73047,0.01518099,0.01716017,0.00943601,0.00260031,0.03439676,-0.076765
 45,-0.00521002,-0.16868139,0.21940195\\0.00001025,0.00000656,0.0000081
 0,0.00000005,0.00000025,-0.00000890,-0.00000722,0.00000348,-0.00000271
 ,-0.00000387,-0.00000147,0.00000189,-0.00000674,-0.00000894,0.00000464
 ,0.00000454,0.00000478,0.00000231,0.00000053,-0.00000513,0.00000818,0.
 00000198,0.00000270,-0.00000837,0.00000199,0.00000080,0.00000290,-0.00
 000780,-0.00000668,-0.00001001,-0.00000228,-0.00000291,-0.00000088,-0.
 00000579,0.00000133,0.00000204,0.00000650,0.00001465,0.00000697,0.0000
 0485,-0.00000462,0.00000732,0.00000360,-0.00000507,-0.00001125,-0.0000
 0389,-0.00000387,0.00000488,0.00000845,0.00000871,0.00000179,-0.000001
 36,0.,-0.00001019,-0.00000379,-0.00000458,0.00000130\\\@


 IT IS A SIMPLE TASK TO MAKE THINGS COMPLEX,
 BUT A COMPLEX TASK TO MAKE THEM SIMPLE.
 Job cpu time:       1 days  3 hours 16 minutes  6.5 seconds.
 Elapsed time:       0 days  1 hours  9 minutes  3.3 seconds.
 File lengths (MBytes):  RWF=    972 Int=      0 D2E=      0 Chk=     30 Scr=      1
 Normal termination of Gaussian 16 at Sat Nov 15 06:01:44 2025.
