 Entering Gaussian System, Link 0=/applications/g16/g16/g16
 Initial command:
 /applications/g16/g16/l1.exe "/scratch/g98/Gau-43867.inp" -scrdir="/scratch/g98/"
 Entering Link 1 = /applications/g16/g16/l1.exe PID=     43868.
  
 Copyright (c) 1988,1990,1992,1993,1995,1998,2003,2009,2016,
            Gaussian, Inc.  All Rights Reserved.
  
 This is part of the Gaussian(R) 16 program.  It is based on
 the Gaussian(R) 09 system (copyright 2009, Gaussian, Inc.),
 the Gaussian(R) 03 system (copyright 2003, Gaussian, Inc.),
 the Gaussian(R) 98 system (copyright 1998, Gaussian, Inc.),
 the Gaussian(R) 94 system (copyright 1995, Gaussian, Inc.),
 the Gaussian 92(TM) system (copyright 1992, Gaussian, Inc.),
 the Gaussian 90(TM) system (copyright 1990, Gaussian, Inc.),
 the Gaussian 88(TM) system (copyright 1988, Gaussian, Inc.),
 the Gaussian 86(TM) system (copyright 1986, Carnegie Mellon
 University), and the Gaussian 82(TM) system (copyright 1983,
 Carnegie Mellon University). Gaussian is a federally registered
 trademark of Gaussian, Inc.
  
 This software contains proprietary and confidential information,
 including trade secrets, belonging to Gaussian, Inc.
  
 This software is provided under written license and may be
 used, copied, transmitted, or stored only in accord with that
 written license.
  
 The following legend is applicable only to US Government
 contracts under FAR:
  
                    RESTRICTED RIGHTS LEGEND
  
 Use, reproduction and disclosure by the US Government is
 subject to restrictions as set forth in subparagraphs (a)
 and (c) of the Commercial Computer Software - Restricted
 Rights clause in FAR 52.227-19.
  
 Gaussian, Inc.
 340 Quinnipiac St., Bldg. 40, Wallingford CT 06492
  
  
 ---------------------------------------------------------------
 Warning -- This program may not be used in any manner that
 competes with the business of Gaussian, Inc. or will provide
 assistance to any competitor of Gaussian, Inc.  The licensee
 of this program is prohibited from giving any competitor of
 Gaussian, Inc. access to this program.  By using this program,
 the user acknowledges that Gaussian, Inc. is engaged in the
 business of creating and licensing software in the field of
 computational chemistry and represents and warrants to the
 licensee that it is not a competitor of Gaussian, Inc. and that
 it will not use this program in any manner prohibited above.
 ---------------------------------------------------------------
  

 Cite this work as:
 Gaussian 16, Revision A.03,
 M. J. Frisch, G. W. Trucks, H. B. Schlegel, G. E. Scuseria, 
 M. A. Robb, J. R. Cheeseman, G. Scalmani, V. Barone, 
 G. A. Petersson, H. Nakatsuji, X. Li, M. Caricato, A. V. Marenich, 
 J. Bloino, B. G. Janesko, R. Gomperts, B. Mennucci, H. P. Hratchian, 
 J. V. Ortiz, A. F. Izmaylov, J. L. Sonnenberg, D. Williams-Young, 
 F. Ding, F. Lipparini, F. Egidi, J. Goings, B. Peng, A. Petrone, 
 T. Henderson, D. Ranasinghe, V. G. Zakrzewski, J. Gao, N. Rega, 
 G. Zheng, W. Liang, M. Hada, M. Ehara, K. Toyota, R. Fukuda, 
 J. Hasegawa, M. Ishida, T. Nakajima, Y. Honda, O. Kitao, H. Nakai, 
 T. Vreven, K. Throssell, J. A. Montgomery, Jr., J. E. Peralta, 
 F. Ogliaro, M. J. Bearpark, J. J. Heyd, E. N. Brothers, K. N. Kudin, 
 V. N. Staroverov, T. A. Keith, R. Kobayashi, J. Normand, 
 K. Raghavachari, A. P. Rendell, J. C. Burant, S. S. Iyengar, 
 J. Tomasi, M. Cossi, J. M. Millam, M. Klene, C. Adamo, R. Cammi, 
 J. W. Ochterski, R. L. Martin, K. Morokuma, O. Farkas, 
 J. B. Foresman, and D. J. Fox, Gaussian, Inc., Wallingford CT, 2016.
 
 ******************************************
 Gaussian 16:  EM64M-G16RevA.03 25-Dec-2016
                11-Dec-2021 
 ******************************************
 %mem=24GB
 %nprocshared=8
 Will use up to    8 processors via shared memory.
 %chk=2Hbutane.chk
 ----------------------------------------------
 # freq wb97xd/6-311+g(2d,2p) geom=connectivity
 ----------------------------------------------
 1/10=4,30=1,38=1,57=2/1,3;
 2/12=2,17=6,18=5,40=1/2;
 3/5=4,6=6,7=212,11=2,25=1,30=1,71=2,74=-58,140=1/1,2,3;
 4//1;
 5/5=2,38=5,98=1/2;
 8/6=4,10=90,11=11/1;
 11/6=1,8=1,9=11,15=111,16=1/1,2,10;
 10/6=1/2;
 6/7=2,8=2,9=2,10=2,28=1/1;
 7/8=1,10=1,25=1/1,2,3,16;
 1/10=4,30=1/3;
 99//99;
 -------------------
 Title Card Required
 -------------------
 Symbolic Z-matrix:
 Charge =  0 Multiplicity = 1
 C                    -2.0136   -0.02659  -0.08923 
 F                    -2.88517   0.82448  -0.63344 
 F                    -2.21361  -1.22706  -0.62998 
 F                    -2.26348  -0.097     1.21152 
 C                    -0.59241   0.47384  -0.38657 
 F                    -0.46244   1.70962   0.17387 
 C                     0.52703  -0.44002   0.13367 
 F                     0.4632   -1.61112  -0.52694 
 F                     0.40587  -0.67825   1.44669 
 C                     1.94705   0.14253  -0.10993 
 F                     2.85655  -0.7877    0.14299 
 F                     2.17888   1.18858   0.66614 
 F                     2.06288   0.51712  -1.3862 
 H                    -0.49244   0.55335  -1.46951 
 

 GradGradGradGradGradGradGradGradGradGradGradGradGradGradGradGradGradGrad
 Berny optimization.
 Initialization pass.
 Trust Radius=3.00D-01 FncErr=1.00D-07 GrdErr=1.00D-07 EigMax=2.50D+02 EigMin=1.00D-04
 Number of steps in this run=      2 maximum allowed number of steps=      2.
 GradGradGradGradGradGradGradGradGradGradGradGradGradGradGradGradGradGrad

                          Input orientation:                          
 ---------------------------------------------------------------------
 Center     Atomic      Atomic             Coordinates (Angstroms)
 Number     Number       Type             X           Y           Z
 ---------------------------------------------------------------------
      1          6           0       -2.013596   -0.026589   -0.089228
      2          9           0       -2.885165    0.824480   -0.633443
      3          9           0       -2.213612   -1.227059   -0.629981
      4          9           0       -2.263484   -0.096998    1.211520
      5          6           0       -0.592408    0.473842   -0.386566
      6          9           0       -0.462443    1.709617    0.173870
      7          6           0        0.527025   -0.440016    0.133674
      8          9           0        0.463196   -1.611121   -0.526942
      9          9           0        0.405868   -0.678251    1.446694
     10          6           0        1.947053    0.142527   -0.109933
     11          9           0        2.856547   -0.787700    0.142989
     12          9           0        2.178876    1.188583    0.666142
     13          9           0        2.062883    0.517124   -1.386201
     14          1           0       -0.492440    0.553349   -1.469508
 ---------------------------------------------------------------------
                    Distance matrix (angstroms):
                    1          2          3          4          5
     1  C    0.000000
     2  F    1.334212   0.000000
     3  F    1.331746   2.158659   0.000000
     4  F    1.326404   2.153949   2.161169   0.000000
     5  C    1.535779   2.332516   2.362333   2.381645   0.000000
     6  F    2.343012   2.702740   3.512383   2.753965   1.363128
     7  C    2.583672   3.718933   2.951897   3.011039   1.535876
     8  F    2.972681   4.141861   2.706182   3.570659   2.341170
     9  F    2.938967   4.173256   3.387543   2.742007   2.384264
    10  C    3.964312   4.908101   4.411049   4.419528   2.575880
    11  F    4.934725   6.014086   5.147527   5.275751   3.710419
    12  F    4.429904   5.240802   5.177761   4.656685   3.049437
    13  F    4.312243   5.014408   4.680006   5.083577   2.837554
    14  H    2.134342   2.549049   2.614783   3.278332   1.090449
                    6          7          8          9         10
     6  F    0.000000
     7  C    2.366767   0.000000
     8  F    3.517847   1.346096   0.000000
     9  F    2.841823   1.339946   2.183752   0.000000
    10  C    2.888250   1.554085   2.334740   2.339234   0.000000
    11  F    4.153702   2.355344   2.618198   2.778030   1.325319
    12  F    2.736855   2.380014   3.493616   2.690332   1.322977
    13  F    3.198927   2.363260   2.797633   3.492838   1.335140
    14  H    2.009614   2.143893   2.546881   3.290597   2.822826
                   11         12         13         14
    11  F    0.000000
    12  F    2.153746   0.000000
    13  F    2.161224   2.162504   0.000000
    14  H    3.951490   3.478570   2.556937   0.000000
 Stoichiometry    C4HF9
 Framework group  C1[X(C4HF9)]
 Deg. of freedom    36
 Full point group                 C1      NOp   1
 Largest Abelian subgroup         C1      NOp   1
 Largest concise Abelian subgroup C1      NOp   1
                         Standard orientation:                         
 ---------------------------------------------------------------------
 Center     Atomic      Atomic             Coordinates (Angstroms)
 Number     Number       Type             X           Y           Z
 ---------------------------------------------------------------------
      1          6           0       -2.013596   -0.026589   -0.089228
      2          9           0       -2.885165    0.824480   -0.633443
      3          9           0       -2.213612   -1.227059   -0.629981
      4          9           0       -2.263484   -0.096998    1.211520
      5          6           0       -0.592408    0.473842   -0.386566
      6          9           0       -0.462443    1.709617    0.173870
      7          6           0        0.527025   -0.440016    0.133674
      8          9           0        0.463196   -1.611121   -0.526942
      9          9           0        0.405868   -0.678251    1.446694
     10          6           0        1.947053    0.142527   -0.109933
     11          9           0        2.856547   -0.787700    0.142989
     12          9           0        2.178876    1.188583    0.666142
     13          9           0        2.062883    0.517124   -1.386201
     14          1           0       -0.492440    0.553349   -1.469508
 ---------------------------------------------------------------------
 Rotational constants (GHZ):           1.4735926           0.5456354           0.5092344
 Standard basis: 6-311+G(2d,2p) (5D, 7F)
 There are   386 symmetry adapted cartesian basis functions of A   symmetry.
 There are   360 symmetry adapted basis functions of A   symmetry.
   360 basis functions,   557 primitive gaussians,   386 cartesian basis functions
    53 alpha electrons       53 beta electrons
       nuclear repulsion energy      1026.5355472215 Hartrees.
 NAtoms=   14 NActive=   14 NUniq=   14 SFac= 1.00D+00 NAtFMM=   60 NAOKFM=F Big=F
 Integral buffers will be    131072 words long.
 Raffenetti 2 integral format.
 Two-electron integral symmetry is turned on.
 Nuclear repulsion after empirical dispersion term =     1026.5276657605 Hartrees.
 One-electron integrals computed using PRISM.
 NBasis=   360 RedAO= T EigKep=  1.06D-05  NBF=   360
 NBsUse=   360 1.00D-06 EigRej= -1.00D+00 NBFU=   360
 ExpMin= 4.38D-02 ExpMax= 1.14D+04 ExpMxC= 1.72D+03 IAcc=3 IRadAn=         5 AccDes= 0.00D+00
 Harris functional with IExCor= 4639 and IRadAn=       5 diagonalized for initial guess.
 HarFok:  IExCor= 4639 AccDes= 0.00D+00 IRadAn=         5 IDoV= 1 UseB2=F ITyADJ=14
 ICtDFT=  3500011 ScaDFX=  1.000000  1.000000  1.000000  1.000000
 FoFCou: FMM=F IPFlag=           0 FMFlag=      100000 FMFlg1=           0
         NFxFlg=           0 DoJE=T BraDBF=F KetDBF=T FulRan=T
         wScrn=  0.000000 ICntrl=       500 IOpCl=  0 I1Cent=   200000004 NGrid=           0
         NMat0=    1 NMatS0=      1 NMatT0=    0 NMatD0=    1 NMtDS0=    0 NMtDT0=    0
 Petite list used in FoFCou.
 Requested convergence on RMS density matrix=1.00D-08 within 128 cycles.
 Requested convergence on MAX density matrix=1.00D-06.
 Requested convergence on             energy=1.00D-06.
 No special actions if energy rises.
 SCF Done:  E(RwB97XD) =  -1051.66847645     A.U. after   13 cycles
            NFock= 13  Conv=0.58D-08     -V/T= 2.0026
 DoSCS=F DFT=T ScalE2(SS,OS)=  1.000000  1.000000
 Range of M.O.s used for correlation:     1   360
 NBasis=   360 NAE=    53 NBE=    53 NFC=     0 NFV=     0
 NROrb=    360 NOA=    53 NOB=    53 NVA=   307 NVB=   307

 **** Warning!!: The largest alpha MO coefficient is  0.50202784D+02

 Symmetrizing basis deriv contribution to polar:
 IMax=3 JMax=2 DiffMx= 0.00D+00
 G2DrvN: will do    15 centers at a time, making    1 passes.
 Calling FoFCou, ICntrl=  3107 FMM=F I1Cent=   0 AccDes= 0.00D+00.
 End of G2Drv F.D. properties file   721 does not exist.
 End of G2Drv F.D. properties file   722 does not exist.
 End of G2Drv F.D. properties file   788 does not exist.
          IDoAtm=11111111111111
          Differentiating once with respect to electric field.
                with respect to dipole field.
          Differentiating once with respect to nuclear coordinates.
 CalDSu exits because no D1Ps are significant.
          There are    45 degrees of freedom in the 1st order CPHF.  IDoFFX=6 NUNeed=     3.
     42 vectors produced by pass  0 Test12= 3.62D-14 2.22D-09 XBig12= 1.65D+01 6.68D-01.
 AX will form    42 AO Fock derivatives at one time.
     42 vectors produced by pass  1 Test12= 3.62D-14 2.22D-09 XBig12= 2.62D+00 1.44D-01.
     42 vectors produced by pass  2 Test12= 3.62D-14 2.22D-09 XBig12= 1.01D-01 3.56D-02.
     42 vectors produced by pass  3 Test12= 3.62D-14 2.22D-09 XBig12= 2.28D-03 5.38D-03.
     42 vectors produced by pass  4 Test12= 3.62D-14 2.22D-09 XBig12= 2.28D-05 4.57D-04.
     42 vectors produced by pass  5 Test12= 3.62D-14 2.22D-09 XBig12= 1.40D-07 4.10D-05.
     42 vectors produced by pass  6 Test12= 3.62D-14 2.22D-09 XBig12= 9.41D-10 3.39D-06.
     17 vectors produced by pass  7 Test12= 3.62D-14 2.22D-09 XBig12= 5.91D-12 3.09D-07.
      3 vectors produced by pass  8 Test12= 3.62D-14 2.22D-09 XBig12= 4.27D-14 1.87D-08.
 InvSVY:  IOpt=1 It=  1 EMax= 3.55D-15
 Solved reduced A of dimension   314 with    45 vectors.
 Isotropic polarizability for W=    0.000000       54.26 Bohr**3.
 End of Minotr F.D. properties file   721 does not exist.
 End of Minotr F.D. properties file   722 does not exist.
 End of Minotr F.D. properties file   788 does not exist.

 **********************************************************************

            Population analysis using the SCF density.

 **********************************************************************

 Orbital symmetries:
       Occupied  (A) (A) (A) (A) (A) (A) (A) (A) (A) (A) (A) (A)
                 (A) (A) (A) (A) (A) (A) (A) (A) (A) (A) (A) (A)
                 (A) (A) (A) (A) (A) (A) (A) (A) (A) (A) (A) (A)
                 (A) (A) (A) (A) (A) (A) (A) (A) (A) (A) (A) (A)
                 (A) (A) (A) (A) (A)
       Virtual   (A) (A) (A) (A) (A) (A) (A) (A) (A) (A) (A) (A)
                 (A) (A) (A) (A) (A) (A) (A) (A) (A) (A) (A) (A)
                 (A) (A) (A) (A) (A) (A) (A) (A) (A) (A) (A) (A)
                 (A) (A) (A) (A) (A) (A) (A) (A) (A) (A) (A) (A)
                 (A) (A) (A) (A) (A) (A) (A) (A) (A) (A) (A) (A)
                 (A) (A) (A) (A) (A) (A) (A) (A) (A) (A) (A) (A)
                 (A) (A) (A) (A) (A) (A) (A) (A) (A) (A) (A) (A)
                 (A) (A) (A) (A) (A) (A) (A) (A) (A) (A) (A) (A)
                 (A) (A) (A) (A) (A) (A) (A) (A) (A) (A) (A) (A)
                 (A) (A) (A) (A) (A) (A) (A) (A) (A) (A) (A) (A)
                 (A) (A) (A) (A) (A) (A) (A) (A) (A) (A) (A) (A)
                 (A) (A) (A) (A) (A) (A) (A) (A) (A) (A) (A) (A)
                 (A) (A) (A) (A) (A) (A) (A) (A) (A) (A) (A) (A)
                 (A) (A) (A) (A) (A) (A) (A) (A) (A) (A) (A) (A)
                 (A) (A) (A) (A) (A) (A) (A) (A) (A) (A) (A) (A)
                 (A) (A) (A) (A) (A) (A) (A) (A) (A) (A) (A) (A)
                 (A) (A) (A) (A) (A) (A) (A) (A) (A) (A) (A) (A)
                 (A) (A) (A) (A) (A) (A) (A) (A) (A) (A) (A) (A)
                 (A) (A) (A) (A) (A) (A) (A) (A) (A) (A) (A) (A)
                 (A) (A) (A) (A) (A) (A) (A) (A) (A) (A) (A) (A)
                 (A) (A) (A) (A) (A) (A) (A) (A) (A) (A) (A) (A)
                 (A) (A) (A) (A) (A) (A) (A) (A) (A) (A) (A) (A)
                 (A) (A) (A) (A) (A) (A) (A) (A) (A) (A) (A) (A)
                 (A) (A) (A) (A) (A) (A) (A) (A) (A) (A) (A) (A)
                 (A) (A) (A) (A) (A) (A) (A) (A) (A) (A) (A) (A)
                 (A) (A) (A) (A) (A) (A) (A)
 The electronic state is 1-A.
 Alpha  occ. eigenvalues --  -24.88360 -24.88000 -24.87960 -24.87550 -24.87548
 Alpha  occ. eigenvalues --  -24.87388 -24.87271 -24.87220 -24.85968 -10.58284
 Alpha  occ. eigenvalues --  -10.57766 -10.52394 -10.44460  -1.47401  -1.46403
 Alpha  occ. eigenvalues --   -1.42705  -1.38198  -1.37912  -1.37558  -1.36995
 Alpha  occ. eigenvalues --   -1.36730  -1.36395  -0.96109  -0.90090  -0.82906
 Alpha  occ. eigenvalues --   -0.79701  -0.75233  -0.74546  -0.74122  -0.73112
 Alpha  occ. eigenvalues --   -0.72445  -0.71040  -0.70168  -0.68310  -0.64871
 Alpha  occ. eigenvalues --   -0.61069  -0.60473  -0.60180  -0.59852  -0.59499
 Alpha  occ. eigenvalues --   -0.58389  -0.57642  -0.56965  -0.56255  -0.56151
 Alpha  occ. eigenvalues --   -0.55221  -0.54981  -0.54564  -0.53980  -0.53349
 Alpha  occ. eigenvalues --   -0.52139  -0.48991  -0.46203
 Alpha virt. eigenvalues --    0.06195   0.06683   0.08647   0.08886   0.10402
 Alpha virt. eigenvalues --    0.11237   0.11750   0.12070   0.12640   0.14227
 Alpha virt. eigenvalues --    0.14397   0.15063   0.15575   0.16486   0.17229
 Alpha virt. eigenvalues --    0.18905   0.19994   0.21652   0.21997   0.22385
 Alpha virt. eigenvalues --    0.24377   0.25197   0.25708   0.27205   0.27783
 Alpha virt. eigenvalues --    0.28602   0.29846   0.30852   0.31498   0.31869
 Alpha virt. eigenvalues --    0.32576   0.33090   0.33552   0.34887   0.35409
 Alpha virt. eigenvalues --    0.35700   0.36497   0.37633   0.38173   0.39203
 Alpha virt. eigenvalues --    0.40064   0.40465   0.40704   0.40897   0.41592
 Alpha virt. eigenvalues --    0.42167   0.43450   0.43857   0.44154   0.44341
 Alpha virt. eigenvalues --    0.45001   0.45433   0.46428   0.47751   0.48040
 Alpha virt. eigenvalues --    0.48387   0.50112   0.50651   0.51500   0.53176
 Alpha virt. eigenvalues --    0.53777   0.54684   0.58016   0.59580   0.60873
 Alpha virt. eigenvalues --    0.61988   0.64886   0.66399   0.67823   0.69568
 Alpha virt. eigenvalues --    0.71490   0.72044   0.73451   0.74604   0.76988
 Alpha virt. eigenvalues --    0.80120   0.81480   0.83284   0.86564   0.87114
 Alpha virt. eigenvalues --    0.92977   0.97340   0.99362   1.01851   1.05363
 Alpha virt. eigenvalues --    1.07004   1.07975   1.12162   1.13326   1.14480
 Alpha virt. eigenvalues --    1.16315   1.21078   1.25033   1.28599   1.29668
 Alpha virt. eigenvalues --    1.30137   1.32491   1.33596   1.36803   1.37412
 Alpha virt. eigenvalues --    1.38458   1.39952   1.40477   1.40771   1.42424
 Alpha virt. eigenvalues --    1.43074   1.43969   1.44212   1.45466   1.46530
 Alpha virt. eigenvalues --    1.47054   1.47448   1.48152   1.48545   1.49719
 Alpha virt. eigenvalues --    1.50108   1.51159   1.51496   1.52598   1.53548
 Alpha virt. eigenvalues --    1.55083   1.55628   1.56624   1.56913   1.57445
 Alpha virt. eigenvalues --    1.59473   1.60871   1.65534   1.67582   1.71488
 Alpha virt. eigenvalues --    1.72355   1.72730   1.90180   1.94595   1.97315
 Alpha virt. eigenvalues --    1.99917   2.01084   2.02788   2.04237   2.05391
 Alpha virt. eigenvalues --    2.06106   2.07228   2.09540   2.10304   2.11226
 Alpha virt. eigenvalues --    2.12171   2.13207   2.14669   2.16315   2.17211
 Alpha virt. eigenvalues --    2.19610   2.21125   2.22021   2.23473   2.24958
 Alpha virt. eigenvalues --    2.28136   2.29072   2.30724   2.33000   2.35414
 Alpha virt. eigenvalues --    2.37082   2.38657   2.42602   2.44894   2.49126
 Alpha virt. eigenvalues --    2.53177   2.54146   2.60037   2.65328   2.67080
 Alpha virt. eigenvalues --    2.67995   2.69744   2.71324   2.72439   2.73674
 Alpha virt. eigenvalues --    2.75377   2.77049   2.81625   2.85043   2.88188
 Alpha virt. eigenvalues --    2.91137   2.97102   3.08830   3.09586   3.15612
 Alpha virt. eigenvalues --    3.17159   3.23177   3.26581   3.32306   3.38530
 Alpha virt. eigenvalues --    3.43165   3.46872   3.48542   3.50763   3.52739
 Alpha virt. eigenvalues --    3.55413   3.56253   3.58102   3.60369   3.61494
 Alpha virt. eigenvalues --    3.62753   3.64245   3.70270   3.72046   3.72575
 Alpha virt. eigenvalues --    3.75712   3.77030   3.80790   3.85539   3.96557
 Alpha virt. eigenvalues --    3.98248   4.17457   4.18964   4.30727   4.32185
 Alpha virt. eigenvalues --    4.33004   4.36798   4.38764   4.41219   4.45534
 Alpha virt. eigenvalues --    4.57594   4.97249   6.38543   6.40323   6.40960
 Alpha virt. eigenvalues --    6.43369   6.43642   6.44575   6.44918   6.45796
 Alpha virt. eigenvalues --    6.48338   6.48658   6.49395   6.50514   6.51285
 Alpha virt. eigenvalues --    6.51953   6.53292   6.53969   6.55072   6.55842
 Alpha virt. eigenvalues --    6.61428   6.63044   6.67108   6.76644   6.85460
 Alpha virt. eigenvalues --    6.87441   6.89312   6.92096   6.94972   9.08202
 Alpha virt. eigenvalues --    9.09200   9.09769   9.10182   9.10278   9.11465
 Alpha virt. eigenvalues --    9.13109   9.15811   9.17416   9.19367   9.19988
 Alpha virt. eigenvalues --    9.21328   9.21975   9.22730   9.23181   9.23601
 Alpha virt. eigenvalues --    9.24022   9.25112   9.26355   9.27160   9.28133
 Alpha virt. eigenvalues --    9.32696   9.34331   9.35608   9.36154   9.40887
 Alpha virt. eigenvalues --    9.43365   9.46023   9.51055   9.52392   9.58508
 Alpha virt. eigenvalues --    9.65345   9.68390   9.68984   9.73248   9.74985
 Alpha virt. eigenvalues --    9.75251   9.76072   9.78129   9.78727   9.84672
 Alpha virt. eigenvalues --    9.89446   9.89858   9.90217   9.92562  23.94305
 Alpha virt. eigenvalues --   23.99680  24.00748  24.08770  66.92977  66.93673
 Alpha virt. eigenvalues --   66.94734  66.95480  66.96725  66.97820  67.00243
 Alpha virt. eigenvalues --   67.02815  67.04828
          Condensed to atoms (all electrons):
               1          2          3          4          5          6
     1  C    5.325733   0.225183   0.252820   0.301247  -1.003349  -0.144897
     2  F    0.225183   9.134712  -0.003386  -0.009426  -0.112149   0.021960
     3  F    0.252820  -0.003386   9.089313   0.016437  -0.072349   0.000920
     4  F    0.301247  -0.009426   0.016437   9.058969  -0.116302   0.015454
     5  C   -1.003349  -0.112149  -0.072349  -0.116302   7.894716   0.305975
     6  F   -0.144897   0.021960   0.000920   0.015454   0.305975   9.191588
     7  C    0.593237   0.029254  -0.006420   0.008482  -2.100525  -0.131107
     8  F    0.006514  -0.000297   0.003037  -0.004083  -0.103889   0.000902
     9  F   -0.001000   0.000020  -0.001519   0.006624  -0.074434   0.012059
    10  C   -0.417629   0.004174   0.010813  -0.006387   0.755273   0.027888
    11  F    0.004358  -0.000004   0.000084   0.000026   0.024483  -0.000061
    12  F   -0.008217   0.000044   0.000011  -0.000355   0.012810   0.002495
    13  F    0.027681   0.000163  -0.000242   0.000012  -0.024478   0.003401
    14  H   -0.003520   0.001410  -0.001399   0.003358   0.378645  -0.026064
               7          8          9         10         11         12
     1  C    0.593237   0.006514  -0.001000  -0.417629   0.004358  -0.008217
     2  F    0.029254  -0.000297   0.000020   0.004174  -0.000004   0.000044
     3  F   -0.006420   0.003037  -0.001519   0.010813   0.000084   0.000011
     4  F    0.008482  -0.004083   0.006624  -0.006387   0.000026  -0.000355
     5  C   -2.100525  -0.103889  -0.074434   0.755273   0.024483   0.012810
     6  F   -0.131107   0.000902   0.012059   0.027888  -0.000061   0.002495
     7  C    8.129323   0.343961   0.314490  -1.162415  -0.114727  -0.111849
     8  F    0.343961   9.121836   0.014555  -0.152598   0.017723  -0.001529
     9  F    0.314490   0.014555   9.119091  -0.153879   0.020365   0.021682
    10  C   -1.162415  -0.152598  -0.153879   5.329305   0.229256   0.309460
    11  F   -0.114727   0.017723   0.020365   0.229256   9.117954  -0.011444
    12  F   -0.111849  -0.001529   0.021682   0.309460  -0.011444   9.057017
    13  F   -0.076545   0.017418  -0.000141   0.226458   0.003315   0.010940
    14  H    0.025387  -0.000541   0.003855  -0.027136  -0.000084  -0.000664
              13         14
     1  C    0.027681  -0.003520
     2  F    0.000163   0.001410
     3  F   -0.000242  -0.001399
     4  F    0.000012   0.003358
     5  C   -0.024478   0.378645
     6  F    0.003401  -0.026064
     7  C   -0.076545   0.025387
     8  F    0.017418  -0.000541
     9  F   -0.000141   0.003855
    10  C    0.226458  -0.027136
    11  F    0.003315  -0.000084
    12  F    0.010940  -0.000664
    13  F    9.100855   0.004168
    14  H    0.004168   0.463101
 Mulliken charges:
               1
     1  C    0.841838
     2  F   -0.291658
     3  F   -0.288120
     4  F   -0.274057
     5  C    0.235572
     6  F   -0.280511
     7  C    0.259454
     8  F   -0.263006
     9  F   -0.281765
    10  C    1.027418
    11  F   -0.291243
    12  F   -0.280401
    13  F   -0.293004
    14  H    0.179484
 Sum of Mulliken charges =  -0.00000
 Mulliken charges with hydrogens summed into heavy atoms:
               1
     1  C    0.841838
     2  F   -0.291658
     3  F   -0.288120
     4  F   -0.274057
     5  C    0.415056
     6  F   -0.280511
     7  C    0.259454
     8  F   -0.263006
     9  F   -0.281765
    10  C    1.027418
    11  F   -0.291243
    12  F   -0.280401
    13  F   -0.293004
 APT charges:
               1
     1  C    1.595077
     2  F   -0.553162
     3  F   -0.513454
     4  F   -0.511036
     5  C    0.372952
     6  F   -0.432766
     7  C    0.971676
     8  F   -0.476841
     9  F   -0.479198
    10  C    1.542916
    11  F   -0.535516
    12  F   -0.498982
    13  F   -0.520002
    14  H    0.038337
 Sum of APT charges =  -0.00000
 APT charges with hydrogens summed into heavy atoms:
               1
     1  C    1.595077
     2  F   -0.553162
     3  F   -0.513454
     4  F   -0.511036
     5  C    0.411289
     6  F   -0.432766
     7  C    0.971676
     8  F   -0.476841
     9  F   -0.479198
    10  C    1.542916
    11  F   -0.535516
    12  F   -0.498982
    13  F   -0.520002
 Electronic spatial extent (au):  <R**2>=           2084.8355
 Charge=             -0.0000 electrons
 Dipole moment (field-independent basis, Debye):
    X=              0.1604    Y=              0.1482    Z=             -1.3158  Tot=              1.3338
 Quadrupole moment (field-independent basis, Debye-Ang):
   XX=            -71.6966   YY=            -71.2718   ZZ=            -67.5556
   XY=              0.2749   XZ=              0.6349   YZ=             -1.0781
 Traceless Quadrupole moment (field-independent basis, Debye-Ang):
   XX=             -1.5220   YY=             -1.0971   ZZ=              2.6191
   XY=              0.2749   XZ=              0.6349   YZ=             -1.0781
 Octapole moment (field-independent basis, Debye-Ang**2):
  XXX=              5.0396  YYY=             -2.5386  ZZZ=             -0.1496  XYY=              1.0526
  XXY=             -0.8579  XXZ=              2.8068  XZZ=             -0.7416  YZZ=              1.1319
  YYZ=              1.5479  XYZ=              0.4184
 Hexadecapole moment (field-independent basis, Debye-Ang**3):
 XXXX=          -1427.0449 YYYY=           -377.9502 ZZZZ=           -264.4579 XXXY=              9.2409
 XXXZ=             -7.0220 YYYX=              1.7239 YYYZ=              0.8658 ZZZX=              2.5971
 ZZZY=              1.2577 XXYY=           -302.0171 XXZZ=           -284.8014 YYZZ=           -106.3409
 XXYZ=              0.7635 YYXZ=             -1.9146 ZZXY=             -1.4144
 N-N= 1.026527665761D+03 E-N=-4.551960457100D+03  KE= 1.048976133488D+03
  Exact polarizability:  58.352  -0.882  52.848   0.685   0.573  51.582
 Approx polarizability:  54.823  -1.356  60.518   0.824   1.900  60.771
 Calling FoFJK, ICntrl=    100127 FMM=F ISym2X=0 I1Cent= 0 IOpClX= 0 NMat=1 NMatS=1 NMatT=0.
 Full mass-weighted force constant matrix:
 Low frequencies ---    0.0007    0.0008    0.0012    2.9432    7.2862    9.5522
 Low frequencies ---   10.7513   65.8974   81.4910
 Diagonal vibrational polarizability:
       27.8024016      26.3043446      16.3291705
 Harmonic frequencies (cm**-1), IR intensities (KM/Mole), Raman scattering
 activities (A**4/AMU), depolarization ratios for plane and unpolarized
 incident light, reduced masses (AMU), force constants (mDyne/A),
 and normal coordinates:
                      1                      2                      3
                      A                      A                      A
 Frequencies --     10.2885                65.8932                81.4835
 Red. masses --     17.7018                18.0669                14.6938
 Frc consts  --      0.0011                 0.0462                 0.0575
 IR Inten    --      0.0802                 0.1904                 0.3097
  Atom  AN      X      Y      Z        X      Y      Z        X      Y      Z
     1   6    -0.00   0.03   0.08    -0.00   0.03   0.07     0.00   0.01  -0.04
     2   9    -0.02  -0.14  -0.16    -0.04   0.01   0.09     0.03  -0.17  -0.38
     3   9    -0.01  -0.14   0.45    -0.00   0.02   0.09     0.20  -0.10   0.14
     4   9     0.04   0.43   0.10     0.05   0.05   0.08    -0.23   0.23  -0.08
     5   6    -0.01  -0.06  -0.10    -0.02   0.07   0.02     0.01   0.12   0.18
     6   9     0.08  -0.01  -0.25    -0.03   0.01   0.15    -0.09  -0.02   0.53
     7   6    -0.01  -0.07  -0.12    -0.00  -0.01  -0.14     0.01   0.04   0.04
     8   9     0.08   0.01  -0.27     0.02   0.12  -0.37    -0.06   0.08  -0.02
     9   9    -0.09  -0.25  -0.16    -0.02  -0.27  -0.18     0.06  -0.01   0.04
    10   6    -0.02   0.02   0.06     0.01   0.00   0.01     0.02  -0.02  -0.06
    11   9     0.00   0.01  -0.08    -0.01   0.12   0.49    -0.01  -0.06  -0.13
    12   9    -0.09  -0.12   0.28    -0.19   0.24  -0.25     0.14  -0.01  -0.11
    13   9     0.03   0.27   0.14     0.25  -0.37  -0.08    -0.07  -0.05  -0.08
    14   1    -0.09  -0.18  -0.12    -0.07   0.19   0.03     0.08   0.41   0.21
                      4                      5                      6
                      A                      A                      A
 Frequencies --    125.7789               193.5628               215.6992
 Red. masses --     16.9204                17.4895                15.7084
 Frc consts  --      0.1577                 0.3861                 0.4306
 IR Inten    --      0.7682                 0.5232                 3.6928
  Atom  AN      X      Y      Z        X      Y      Z        X      Y      Z
     1   6    -0.01   0.05  -0.02     0.19   0.09  -0.00    -0.08  -0.01   0.10
     2   9     0.24   0.25  -0.11    -0.02  -0.12   0.04     0.02   0.04  -0.01
     3   9    -0.20   0.09  -0.03     0.55   0.05  -0.07     0.02   0.02  -0.01
     4   9    -0.14   0.12  -0.04     0.23  -0.03  -0.00    -0.37  -0.12   0.04
     5   6     0.08  -0.20   0.08     0.11   0.17   0.01    -0.04  -0.03   0.15
     6   9     0.19  -0.21   0.09     0.27   0.19  -0.08    -0.06   0.18  -0.32
     7   6     0.05  -0.22   0.09    -0.10  -0.04   0.08     0.04   0.06   0.19
     8   9     0.14  -0.23   0.10    -0.15   0.02  -0.00     0.18   0.22  -0.13
     9   9     0.09  -0.26   0.09    -0.24  -0.15   0.05     0.03  -0.32   0.11
    10   6    -0.07   0.04  -0.00    -0.17  -0.05   0.06     0.06   0.05   0.11
    11   9     0.21   0.31  -0.05    -0.06   0.04  -0.02     0.00  -0.04   0.01
    12   9    -0.27   0.14  -0.09    -0.19   0.00  -0.02     0.42   0.09  -0.07
    13   9    -0.29   0.00  -0.04    -0.42  -0.12   0.01    -0.22  -0.11   0.04
    14   1     0.13  -0.21   0.09     0.15   0.09   0.02    -0.05  -0.36   0.12
                      7                      8                      9
                      A                      A                      A
 Frequencies --    247.9465               255.0296               296.3207
 Red. masses --     17.7936                16.4731                17.8453
 Frc consts  --      0.6445                 0.6313                 0.9232
 IR Inten    --      0.1868                 2.5684                 0.9282
  Atom  AN      X      Y      Z        X      Y      Z        X      Y      Z
     1   6    -0.01   0.02   0.08    -0.14   0.07   0.14    -0.10   0.06  -0.02
     2   9     0.05  -0.01  -0.06    -0.23  -0.05   0.09    -0.31  -0.08   0.08
     3   9     0.16   0.02  -0.00     0.19   0.05   0.01    -0.02   0.06  -0.04
     4   9    -0.26  -0.07   0.03    -0.49  -0.09   0.06    -0.07   0.07  -0.01
     5   6     0.00   0.06   0.16    -0.07  -0.01   0.03    -0.02   0.11  -0.03
     6   9    -0.04   0.21  -0.20     0.54  -0.07   0.02    -0.12   0.10   0.00
     7   6     0.03  -0.03   0.03    -0.02  -0.04  -0.14     0.03  -0.05   0.01
     8   9    -0.46   0.01   0.01     0.19  -0.13   0.04    -0.13  -0.06   0.04
     9   9     0.54  -0.10   0.07    -0.11   0.16  -0.10    -0.30  -0.03  -0.02
    10   6     0.01  -0.07  -0.09    -0.00   0.04  -0.08     0.23  -0.14   0.04
    11   9     0.09   0.03  -0.02    -0.07  -0.01   0.00     0.69   0.24  -0.13
    12   9    -0.34  -0.10   0.07    -0.04   0.01  -0.04     0.07  -0.13   0.08
    13   9     0.22   0.04  -0.02     0.20   0.08  -0.06     0.08  -0.18   0.01
    14   1    -0.02  -0.17   0.13    -0.33  -0.01   0.00    -0.02   0.15  -0.03
                     10                     11                     12
                      A                      A                      A
 Frequencies --    301.5102               330.6391               368.2280
 Red. masses --     17.7325                18.4065                18.4681
 Frc consts  --      0.9498                 1.1856                 1.4754
 IR Inten    --      1.5756                 0.0125                 0.0193
  Atom  AN      X      Y      Z        X      Y      Z        X      Y      Z
     1   6     0.16  -0.15   0.17     0.03   0.12   0.07    -0.04  -0.04  -0.02
     2   9     0.59   0.17  -0.01     0.03   0.16   0.12    -0.05  -0.06  -0.05
     3   9     0.05  -0.14   0.20     0.31   0.13  -0.03    -0.20  -0.04   0.03
     4   9    -0.21  -0.26   0.10    -0.11   0.13   0.05    -0.03  -0.07  -0.02
     5   6     0.06  -0.02   0.02    -0.06   0.03   0.02     0.03   0.05  -0.02
     6   9    -0.07   0.01  -0.03    -0.48   0.11  -0.03     0.20   0.01   0.03
     7   6    -0.01   0.07  -0.08     0.06  -0.04  -0.04     0.09   0.12  -0.06
     8   9    -0.16   0.09  -0.11     0.55  -0.12   0.06     0.19   0.26  -0.31
     9   9    -0.41   0.22  -0.10     0.02   0.03  -0.03     0.27   0.42   0.00
    10   6     0.03  -0.03  -0.03    -0.04  -0.11  -0.07    -0.03  -0.11   0.08
    11   9     0.11   0.04  -0.07    -0.04  -0.13  -0.12     0.12   0.02   0.07
    12   9    -0.08  -0.03  -0.01    -0.30  -0.17   0.06    -0.17  -0.23   0.26
    13   9     0.05  -0.02  -0.03     0.03  -0.13  -0.07    -0.36  -0.32   0.01
    14   1    -0.18  -0.03   0.00    -0.11   0.04   0.01    -0.02   0.09  -0.02
                     13                     14                     15
                      A                      A                      A
 Frequencies --    423.9236               478.4499               530.0870
 Red. masses --     16.5639                13.5368                16.4698
 Frc consts  --      1.7538                 1.8257                 2.7267
 IR Inten    --      1.7809                 3.1845                 6.1047
  Atom  AN      X      Y      Z        X      Y      Z        X      Y      Z
     1   6     0.01   0.03   0.02    -0.01   0.07  -0.01    -0.06   0.05  -0.25
     2   9     0.02   0.13   0.17     0.01   0.02  -0.18    -0.13   0.37   0.15
     3   9     0.31   0.02  -0.05    -0.14   0.01   0.21     0.15  -0.26   0.33
     4   9    -0.12   0.16   0.00     0.03  -0.28  -0.02    -0.01  -0.12  -0.35
     5   6    -0.08  -0.16  -0.16    -0.01   0.29  -0.04    -0.04   0.03  -0.20
     6   9    -0.18  -0.26  -0.02     0.00   0.36   0.06     0.04  -0.11   0.03
     7   6    -0.01  -0.10  -0.22     0.02  -0.02  -0.20    -0.08   0.09   0.03
     8   9    -0.21  -0.21  -0.11     0.09  -0.27   0.20    -0.04   0.09   0.12
     9   9     0.17   0.17  -0.20     0.07  -0.10  -0.27     0.07  -0.13  -0.00
    10   6     0.01   0.00   0.04     0.01  -0.02  -0.05    -0.06   0.15   0.03
    11   9     0.05   0.11   0.32    -0.00   0.05   0.21    -0.10   0.15  -0.16
    12   9     0.30  -0.06   0.04     0.10  -0.11   0.02     0.05   0.04   0.23
    13   9    -0.28   0.09   0.04    -0.15   0.08  -0.06     0.09  -0.24  -0.08
    14   1    -0.22  -0.11  -0.17    -0.12   0.49  -0.03     0.20   0.11  -0.17
                     16                     17                     18
                      A                      A                      A
 Frequencies --    539.5150               569.1567               593.5536
 Red. masses --     15.4015                15.7157                16.3028
 Frc consts  --      2.6413                 2.9995                 3.3840
 IR Inten    --      5.5006                 8.7156                 1.3978
  Atom  AN      X      Y      Z        X      Y      Z        X      Y      Z
     1   6    -0.01  -0.03   0.17     0.14  -0.26  -0.07     0.04  -0.01   0.06
     2   9     0.13  -0.15  -0.14     0.15  -0.15   0.41     0.05  -0.09  -0.01
     3   9    -0.01   0.15  -0.20    -0.16  -0.30  -0.23    -0.03   0.06  -0.04
     4   9     0.06   0.06   0.25    -0.20   0.34  -0.14    -0.06   0.01   0.08
     5   6    -0.14  -0.07   0.07     0.18   0.13  -0.03     0.01   0.07  -0.11
     6   9     0.01  -0.07  -0.02     0.07   0.20   0.04    -0.02   0.03   0.02
     7   6    -0.09   0.10  -0.06     0.12   0.12  -0.05     0.06   0.01  -0.19
     8   9    -0.03   0.02   0.14    -0.00   0.05   0.18    -0.07  -0.17   0.05
     9   9    -0.01  -0.09  -0.11    -0.01  -0.11  -0.15     0.11   0.04  -0.29
    10   6    -0.10   0.23  -0.09     0.04   0.02  -0.05     0.05   0.09   0.30
    11   9    -0.18   0.32  -0.06    -0.05  -0.02   0.07    -0.01  -0.17  -0.33
    12   9     0.16  -0.10   0.37    -0.04  -0.05   0.05    -0.02   0.46   0.10
    13   9     0.10  -0.27  -0.28    -0.07   0.02  -0.11    -0.04  -0.28   0.38
    14   1    -0.34  -0.15   0.04     0.20   0.27  -0.01    -0.19   0.20  -0.12
                     19                     20                     21
                      A                      A                      A
 Frequencies --    651.1461               694.4492               756.4838
 Red. masses --     15.7922                10.3903                15.7444
 Frc consts  --      3.9450                 2.9523                 5.3085
 IR Inten    --      5.7899                77.1306                13.6748
  Atom  AN      X      Y      Z        X      Y      Z        X      Y      Z
     1   6    -0.01   0.05   0.06     0.25   0.13  -0.03     0.16   0.05  -0.01
     2   9    -0.04   0.00  -0.09    -0.04  -0.22   0.09     0.12  -0.21   0.11
     3   9     0.05   0.14   0.04    -0.07   0.32   0.18    -0.05   0.19   0.08
     4   9    -0.02  -0.07   0.09    -0.13  -0.09  -0.15    -0.09  -0.02  -0.11
     5   6    -0.02  -0.05  -0.20     0.38  -0.05  -0.08     0.01   0.09  -0.23
     6   9     0.00  -0.31  -0.02    -0.11  -0.08  -0.01    -0.01  -0.08   0.01
     7   6     0.12   0.33  -0.06     0.19  -0.07   0.05    -0.19   0.06  -0.02
     8   9    -0.02   0.42   0.38    -0.06  -0.05  -0.06     0.07   0.12   0.08
     9   9     0.01  -0.18  -0.26    -0.06   0.02   0.05     0.09  -0.04  -0.02
    10   6     0.16  -0.06  -0.02     0.09   0.08  -0.03    -0.34  -0.15   0.05
    11   9     0.15  -0.22   0.10    -0.10  -0.02   0.02    -0.08   0.33  -0.09
    12   9    -0.16  -0.03  -0.05    -0.01   0.07   0.13     0.07  -0.30  -0.30
    13   9    -0.13   0.08  -0.04    -0.02  -0.00  -0.17     0.11  -0.05   0.39
    14   1    -0.19  -0.09  -0.23     0.60  -0.07  -0.06     0.04   0.15  -0.23
                     22                     23                     24
                      A                      A                      A
 Frequencies --    852.5774               874.1189              1053.4226
 Red. masses --      7.1252                 7.8600                 4.0745
 Frc consts  --      3.0515                 3.5385                 2.6640
 IR Inten    --     41.2238                42.5690                77.9723
  Atom  AN      X      Y      Z        X      Y      Z        X      Y      Z
     1   6    -0.00  -0.00  -0.01    -0.02  -0.01  -0.01     0.01  -0.06   0.12
     2   9    -0.11   0.07  -0.03    -0.13   0.15  -0.10    -0.02   0.02  -0.02
     3   9     0.01  -0.02   0.01     0.01  -0.15  -0.09     0.00   0.02  -0.00
     4   9     0.06   0.00  -0.07    -0.07  -0.02   0.32     0.03   0.01  -0.09
     5   6     0.17  -0.22   0.45     0.37   0.08  -0.26    -0.10  -0.00  -0.03
     6   9    -0.02   0.02  -0.04    -0.04  -0.01   0.02     0.01   0.01   0.01
     7   6     0.16   0.00   0.03     0.20  -0.02   0.03     0.33   0.04  -0.11
     8   9    -0.02   0.04   0.05    -0.03  -0.00  -0.01    -0.04  -0.02  -0.01
     9   9    -0.05   0.07  -0.26    -0.02  -0.01   0.04    -0.04  -0.03   0.12
    10   6    -0.03  -0.00  -0.02    -0.00  -0.02   0.01     0.17   0.05  -0.04
    11   9    -0.08   0.09  -0.03    -0.11   0.11  -0.03    -0.10   0.07  -0.01
    12   9     0.00  -0.08  -0.06     0.00  -0.07  -0.05    -0.03  -0.06  -0.04
    13   9     0.00  -0.03   0.12     0.01  -0.01   0.05    -0.03  -0.03   0.08
    14   1     0.33  -0.48   0.45     0.65   0.22  -0.23    -0.85   0.14  -0.09
                     25                     26                     27
                      A                      A                      A
 Frequencies --   1148.1234              1164.2306              1201.6616
 Red. masses --      6.9030                 8.3807                 8.1276
 Frc consts  --      5.3612                 6.6928                 6.9148
 IR Inten    --     41.6195                62.4085                85.3520
  Atom  AN      X      Y      Z        X      Y      Z        X      Y      Z
     1   6     0.19  -0.01   0.05    -0.17  -0.15  -0.26    -0.34   0.39  -0.28
     2   9    -0.06   0.04  -0.03     0.07  -0.03   0.04     0.17  -0.14   0.09
     3   9    -0.04  -0.06  -0.02     0.03   0.10   0.05     0.01  -0.06   0.00
     4   9    -0.01   0.00  -0.01    -0.00   0.01   0.07     0.01  -0.03   0.07
     5   6     0.08   0.43   0.29    -0.12   0.13   0.05    -0.09   0.05   0.10
     6   9    -0.03  -0.26  -0.16     0.03  -0.09  -0.04    -0.01  -0.06  -0.05
     7   6    -0.07   0.02  -0.13     0.05   0.45   0.27     0.17  -0.24  -0.12
     8   9     0.02  -0.02   0.01    -0.01  -0.23  -0.11    -0.01   0.10   0.05
     9   9    -0.00  -0.01   0.05    -0.01  -0.02  -0.04    -0.02   0.02   0.01
    10   6    -0.03  -0.10  -0.02     0.18   0.06  -0.14     0.13  -0.06   0.06
    11   9    -0.00   0.01  -0.00    -0.03   0.02   0.00    -0.07   0.05  -0.02
    12   9     0.02   0.04   0.03    -0.04  -0.05  -0.02    -0.00  -0.00  -0.01
    13   9     0.00   0.01  -0.01    -0.02  -0.02   0.08    -0.01   0.00  -0.00
    14   1    -0.19   0.65   0.28     0.62   0.07   0.11     0.29   0.55   0.16
                     28                     29                     30
                      A                      A                      A
 Frequencies --   1218.9160              1226.3701              1247.5517
 Red. masses --     10.5999                 7.6820                11.9609
 Frc consts  --      9.2790                 6.8072                10.9681
 IR Inten    --    258.5387               357.3597               388.4289
  Atom  AN      X      Y      Z        X      Y      Z        X      Y      Z
     1   6    -0.08  -0.46  -0.16     0.03   0.32   0.25     0.04   0.21   0.05
     2   9    -0.02   0.05  -0.00     0.01  -0.03  -0.01     0.00  -0.02   0.00
     3   9     0.05   0.18   0.07    -0.03  -0.14  -0.06    -0.02  -0.08  -0.03
     4   9     0.00   0.03   0.02     0.01  -0.01  -0.08    -0.00  -0.01  -0.00
     5   6    -0.06  -0.00   0.03    -0.03   0.07  -0.07     0.06   0.00   0.08
     6   9     0.02   0.02  -0.02    -0.01  -0.04   0.02    -0.02  -0.04  -0.02
     7   6     0.07  -0.08  -0.07     0.02   0.17   0.29    -0.07   0.18  -0.21
     8   9    -0.00   0.03   0.02    -0.00  -0.09  -0.05    -0.02  -0.10  -0.02
     9   9     0.01   0.02  -0.02     0.02   0.01  -0.11     0.00  -0.02   0.07
    10   6     0.04  -0.22   0.60     0.12  -0.28   0.28    -0.03   0.64   0.45
    11   9    -0.07   0.07  -0.05    -0.08   0.08  -0.03     0.09  -0.11  -0.01
    12   9    -0.01  -0.02  -0.06    -0.01   0.01  -0.02    -0.06  -0.24  -0.17
    13   9     0.03   0.07  -0.22     0.02   0.05  -0.12     0.00  -0.03  -0.07
    14   1     0.11   0.43   0.09    -0.28  -0.59  -0.13     0.27  -0.11   0.09
                     31                     32                     33
                      A                      A                      A
 Frequencies --   1274.7911              1301.5554              1355.7154
 Red. masses --      5.5745                 6.4679                 4.0992
 Frc consts  --      5.3374                 6.4556                 4.4390
 IR Inten    --     40.2149               276.6860               153.2048
  Atom  AN      X      Y      Z        X      Y      Z        X      Y      Z
     1   6     0.15  -0.01  -0.12     0.40   0.08  -0.35     0.04  -0.07   0.19
     2   9    -0.01   0.01   0.00    -0.06   0.02   0.00    -0.01   0.02  -0.02
     3   9    -0.01  -0.01   0.01    -0.04  -0.03   0.01    -0.00   0.00  -0.01
     4   9    -0.02  -0.00   0.05    -0.06  -0.01   0.15     0.00   0.01  -0.05
     5   6    -0.13   0.10  -0.03    -0.12  -0.08   0.05    -0.09   0.02  -0.04
     6   9     0.01  -0.03  -0.02     0.01   0.05   0.04     0.00  -0.01  -0.02
     7   6     0.19  -0.22   0.38    -0.14  -0.00  -0.08    -0.16  -0.20   0.10
     8   9    -0.02   0.02  -0.01     0.01   0.01   0.01     0.01   0.05   0.01
     9   9     0.00   0.04  -0.14     0.01  -0.00   0.02     0.02   0.02  -0.06
    10   6    -0.17   0.19   0.02     0.28  -0.04   0.02     0.32   0.11  -0.03
    11   9     0.04  -0.05   0.01    -0.06   0.05  -0.01    -0.06   0.03  -0.01
    12   9     0.00  -0.04  -0.02    -0.02  -0.01  -0.01    -0.03  -0.05  -0.03
    13   9     0.02  -0.00  -0.02    -0.02  -0.00   0.02    -0.03  -0.02   0.04
    14   1    -0.66   0.40  -0.05    -0.43  -0.59  -0.03     0.70   0.48   0.08
                     34                     35                     36
                      A                      A                      A
 Frequencies --   1388.6052              1426.7829              3121.4459
 Red. masses --      1.5875                 2.5716                 1.0857
 Frc consts  --      1.8035                 3.0844                 6.2329
 IR Inten    --      2.8540                19.6998                 2.8833
  Atom  AN      X      Y      Z        X      Y      Z        X      Y      Z
     1   6     0.04   0.05  -0.00     0.15   0.05   0.05    -0.00   0.00  -0.00
     2   9    -0.01  -0.00  -0.00    -0.02   0.01  -0.01     0.00  -0.00   0.00
     3   9    -0.00  -0.01  -0.00    -0.01  -0.02  -0.01     0.00   0.00   0.00
     4   9    -0.00  -0.00   0.01    -0.01  -0.00   0.01    -0.00  -0.00   0.00
     5   6     0.04  -0.17   0.01    -0.24  -0.05  -0.01     0.01   0.01  -0.08
     6   9     0.00   0.02  -0.02     0.02   0.01  -0.00    -0.00  -0.00   0.00
     7   6    -0.05   0.09   0.03     0.16   0.05  -0.06     0.00  -0.00  -0.00
     8   9    -0.00  -0.02  -0.01    -0.01  -0.01   0.00    -0.00   0.00   0.00
     9   9     0.01  -0.01   0.00    -0.01  -0.01   0.02     0.00  -0.00   0.00
    10   6    -0.00  -0.03   0.01    -0.11  -0.06   0.00    -0.00   0.00  -0.00
    11   9     0.00   0.00  -0.00     0.02  -0.01   0.00    -0.00  -0.00   0.00
    12   9    -0.00   0.01   0.00     0.01   0.02   0.01     0.00   0.00   0.00
    13   9     0.00   0.00  -0.01     0.01   0.01  -0.01     0.00  -0.00   0.00
    14   1    -0.22   0.94   0.09     0.91   0.14   0.12    -0.09  -0.09   0.99

 -------------------
 - Thermochemistry -
 -------------------
 Temperature   298.150 Kelvin.  Pressure   1.00000 Atm.
 Atom     1 has atomic number  6 and mass  12.00000
 Atom     2 has atomic number  9 and mass  18.99840
 Atom     3 has atomic number  9 and mass  18.99840
 Atom     4 has atomic number  9 and mass  18.99840
 Atom     5 has atomic number  6 and mass  12.00000
 Atom     6 has atomic number  9 and mass  18.99840
 Atom     7 has atomic number  6 and mass  12.00000
 Atom     8 has atomic number  9 and mass  18.99840
 Atom     9 has atomic number  9 and mass  18.99840
 Atom    10 has atomic number  6 and mass  12.00000
 Atom    11 has atomic number  9 and mass  18.99840
 Atom    12 has atomic number  9 and mass  18.99840
 Atom    13 has atomic number  9 and mass  18.99840
 Atom    14 has atomic number  1 and mass   1.00783
 Molecular mass:   219.99345 amu.
 Principal axes and moments of inertia in atomic units:
                           1         2         3
     Eigenvalues --  1224.721953307.595443544.02820
           X            1.00000  -0.00070   0.00152
           Y            0.00072   0.99987  -0.01622
           Z           -0.00151   0.01622   0.99987
 This molecule is an asymmetric top.
 Rotational symmetry number  1.
 Warning -- assumption of classical behavior for rotation
           may cause significant error
 Rotational temperatures (Kelvin)      0.07072     0.02619     0.02444
 Rotational constants (GHZ):           1.47359     0.54564     0.50923
 Zero-point vibrational energy     164995.0 (Joules/Mol)
                                   39.43476 (Kcal/Mol)
 Warning -- explicit consideration of  18 degrees of freedom as
           vibrations may cause significant error
 Vibrational temperatures:     14.80    94.81   117.24   180.97   278.49
          (Kelvin)            310.34   356.74   366.93   426.34   433.81
                              475.72   529.80   609.93   688.38   762.68
                              776.24   818.89   853.99   936.85   999.16
                             1088.41  1226.67  1257.66  1515.64  1651.89
                             1675.07  1728.92  1753.75  1764.47  1794.95
                             1834.14  1872.65  1950.57  1997.89  2052.82
                             4491.06
 
 Zero-point correction=                           0.062843 (Hartree/Particle)
 Thermal correction to Energy=                    0.074411
 Thermal correction to Enthalpy=                  0.075355
 Thermal correction to Gibbs Free Energy=         0.022889
 Sum of electronic and zero-point Energies=          -1051.605633
 Sum of electronic and thermal Energies=             -1051.594066
 Sum of electronic and thermal Enthalpies=           -1051.593122
 Sum of electronic and thermal Free Energies=        -1051.645587
 
                     E (Thermal)             CV                S
                      KCal/Mol        Cal/Mol-Kelvin    Cal/Mol-Kelvin
 Total                   46.693             40.490            110.423
 Electronic               0.000              0.000              0.000
 Translational            0.889              2.981             42.068
 Rotational               0.889              2.981             31.041
 Vibrational             44.916             34.528             37.314
 Vibration     1          0.593              1.987              7.955
 Vibration     2          0.597              1.971              4.272
 Vibration     3          0.600              1.962              3.855
 Vibration     4          0.611              1.927              3.010
 Vibration     5          0.635              1.849              2.193
 Vibration     6          0.645              1.817              1.995
 Vibration     7          0.662              1.766              1.745
 Vibration     8          0.665              1.754              1.696
 Vibration     9          0.690              1.681              1.438
 Vibration    10          0.693              1.671              1.409
 Vibration    11          0.713              1.614              1.257
 Vibration    12          0.741              1.538              1.087
 Vibration    13          0.786              1.418              0.879
 Vibration    14          0.835              1.298              0.714
 Vibration    15          0.885              1.183              0.587
 Vibration    16          0.895              1.163              0.566
 Vibration    17          0.925              1.098              0.506
 Vibration    18          0.951              1.046              0.461
                       Q            Log10(Q)             Ln(Q)
 Total Bot       0.296241D-10        -10.528356        -24.242434
 Total V=0       0.238519D+19         18.377523         42.315810
 Vib (Bot)       0.170297D-24        -24.768793        -57.032254
 Vib (Bot)    1  0.201393D+02          1.304044          3.002672
 Vib (Bot)    2  0.313164D+01          0.495772          1.141558
 Vib (Bot)    3  0.252684D+01          0.402577          0.926969
 Vib (Bot)    4  0.162251D+01          0.210187          0.483974
 Vib (Bot)    5  0.103263D+01          0.013944          0.032108
 Vib (Bot)    6  0.918673D+00         -0.036839         -0.084825
 Vib (Bot)    7  0.787915D+00         -0.103521         -0.238365
 Vib (Bot)    8  0.763451D+00         -0.117219         -0.269907
 Vib (Bot)    9  0.643116D+00         -0.191711         -0.441431
 Vib (Bot)   10  0.630209D+00         -0.200515         -0.461703
 Vib (Bot)   11  0.564883D+00         -0.248041         -0.571136
 Vib (Bot)   12  0.495016D+00         -0.305381         -0.703166
 Vib (Bot)   13  0.412955D+00         -0.384098         -0.884417
 Vib (Bot)   14  0.350023D+00         -0.455903         -1.049756
 Vib (Bot)   15  0.301678D+00         -0.520456         -1.198394
 Vib (Bot)   16  0.293796D+00         -0.531954         -1.224870
 Vib (Bot)   17  0.270634D+00         -0.567617         -1.306987
 Vib (Bot)   18  0.253235D+00         -0.596476         -1.373437
 Vib (V=0)       0.137115D+05          4.137085          9.525991
 Vib (V=0)    1  0.206455D+02          1.314825          3.027496
 Vib (V=0)    2  0.367131D+01          0.564821          1.300548
 Vib (V=0)    3  0.307583D+01          0.487963          1.123576
 Vib (V=0)    4  0.219780D+01          0.341989          0.787459
 Vib (V=0)    5  0.164731D+01          0.216776          0.499144
 Vib (V=0)    6  0.154593D+01          0.189189          0.435623
 Vib (V=0)    7  0.143317D+01          0.156298          0.359890
 Vib (V=0)    8  0.141261D+01          0.150022          0.345439
 Vib (V=0)    9  0.131462D+01          0.118799          0.273544
 Vib (V=0)   10  0.130447D+01          0.115432          0.265793
 Vib (V=0)   11  0.125438D+01          0.098430          0.226644
 Vib (V=0)   12  0.120359D+01          0.080479          0.185310
 Vib (V=0)   13  0.114848D+01          0.060125          0.138443
 Vib (V=0)   14  0.111034D+01          0.045456          0.104667
 Vib (V=0)   15  0.108396D+01          0.035013          0.080621
 Vib (V=0)   16  0.107993D+01          0.033395          0.076894
 Vib (V=0)   17  0.106854D+01          0.028793          0.066297
 Vib (V=0)   18  0.106047D+01          0.025499          0.058713
 Electronic      0.100000D+01          0.000000          0.000000
 Translational   0.128253D+09          8.108069         18.669518
 Rotational      0.135634D+07          6.132369         14.120302
 ***** Axes restored to original set *****
 -------------------------------------------------------------------
 Center     Atomic                   Forces (Hartrees/Bohr)
 Number     Number              X              Y              Z
 -------------------------------------------------------------------
      1        6           0.000002339    0.000014408   -0.000000724
      2        9           0.000001237   -0.000014436    0.000000671
      3        9          -0.000000520   -0.000013945   -0.000001007
      4        9          -0.000002565   -0.000003726   -0.000005447
      5        6          -0.000001518    0.000006276    0.000007871
      6        9          -0.000002045   -0.000004633   -0.000006644
      7        6           0.000001872   -0.000007463   -0.000016815
      8        9           0.000002880    0.000007354    0.000012504
      9        9           0.000001449    0.000001798    0.000009493
     10        6          -0.000013346    0.000009506    0.000002319
     11        9           0.000008810    0.000006310    0.000002474
     12        9          -0.000004026    0.000004780   -0.000002639
     13        9           0.000004370   -0.000000855    0.000004207
     14        1           0.000001064   -0.000005373   -0.000006264
 -------------------------------------------------------------------
 Cartesian Forces:  Max     0.000016815 RMS     0.000006986

 GradGradGradGradGradGradGradGradGradGradGradGradGradGradGradGradGradGrad
 Berny optimization.
 Search for a local minimum.
 Step number   1 out of a maximum of    2
 All quantities printed in internal units (Hartrees-Bohrs-Radians)
 Second derivative matrix not updated -- analytic derivatives used.
 ITU=  0
     Eigenvalues ---    0.00007   0.00293   0.00386   0.01013   0.02381
     Eigenvalues ---    0.02727   0.03577   0.04184   0.05795   0.05854
     Eigenvalues ---    0.07120   0.08046   0.08624   0.09817   0.12234
     Eigenvalues ---    0.16958   0.18345   0.20027   0.21486   0.23262
     Eigenvalues ---    0.25075   0.30062   0.31614   0.38788   0.47647
     Eigenvalues ---    0.65647   0.69241   0.72606   0.75449   0.76874
     Eigenvalues ---    0.78914   0.80689   0.82161   0.85538   0.88707
     Eigenvalues ---    0.94471
 Angle between quadratic step and forces=  88.31 degrees.
 Linear search not attempted -- first point.
 B after Tr=     0.000029    0.000068    0.000045
         Rot=    1.000000   -0.000021    0.000002    0.000003 Ang=  -0.00 deg.
 Variable       Old X    -DE/DX   Delta X   Delta X   Delta X     New X
                                 (Linear)    (Quad)   (Total)
    X1       -3.80514   0.00000   0.00000   0.00001   0.00004  -3.80511
    Y1       -0.05025   0.00001   0.00000   0.00028   0.00037  -0.04988
    Z1       -0.16862  -0.00000   0.00000   0.00055   0.00058  -0.16804
    X2       -5.45217   0.00000   0.00000  -0.00009  -0.00005  -5.45223
    Y2        1.55804  -0.00001   0.00000  -0.00068  -0.00053   1.55751
    Z2       -1.19703   0.00000   0.00000  -0.00073  -0.00064  -1.19767
    X3       -4.18312  -0.00000   0.00000  -0.00023  -0.00021  -4.18333
    Y3       -2.31881  -0.00001   0.00000  -0.00074  -0.00060  -2.31940
    Z3       -1.19049  -0.00000   0.00000   0.00279   0.00273  -1.18776
    X4       -4.27736  -0.00000   0.00000   0.00036   0.00038  -4.27699
    Y4       -0.18330  -0.00000   0.00000   0.00265   0.00265  -0.18065
    Z4        2.28944  -0.00001   0.00000   0.00073   0.00075   2.29019
    X5       -1.11949  -0.00000   0.00000  -0.00002   0.00001  -1.11947
    Y5        0.89543   0.00001   0.00000  -0.00046  -0.00035   0.89508
    Z5       -0.73050   0.00001   0.00000  -0.00073  -0.00065  -0.73116
    X6       -0.87389  -0.00000   0.00000   0.00073   0.00078  -0.87311
    Y6        3.23071  -0.00000   0.00000  -0.00002   0.00004   3.23074
    Z6        0.32857  -0.00001   0.00000  -0.00190  -0.00172   0.32684
    X7        0.99593   0.00000   0.00000  -0.00004  -0.00002   0.99591
    Y7       -0.83151  -0.00001   0.00000  -0.00053  -0.00048  -0.83199
    Z7        0.25261  -0.00002   0.00000  -0.00079  -0.00078   0.25183
    X8        0.87531   0.00000   0.00000   0.00057   0.00059   0.87590
    Y8       -3.04458   0.00001   0.00000   0.00001   0.00011  -3.04447
    Z8       -0.99578   0.00001   0.00000  -0.00172  -0.00180  -0.99758
    X9        0.76698   0.00000   0.00000  -0.00057  -0.00056   0.76642
    Y9       -1.28171   0.00000   0.00000  -0.00169  -0.00174  -1.28345
    Z9        2.73386   0.00001   0.00000  -0.00101  -0.00101   2.73284
   X10        3.67940  -0.00001   0.00000  -0.00014  -0.00011   3.67929
   Y10        0.26934   0.00001   0.00000   0.00022   0.00028   0.26962
   Z10       -0.20774   0.00000   0.00000   0.00047   0.00054  -0.20721
   X11        5.39809   0.00001   0.00000   0.00011   0.00013   5.39822
   Y11       -1.48854   0.00001   0.00000   0.00018   0.00021  -1.48833
   Z11        0.27021   0.00000   0.00000  -0.00046  -0.00046   0.26975
   X12        4.11748  -0.00000   0.00000  -0.00077  -0.00073   4.11674
   Y12        2.24610   0.00000   0.00000  -0.00078  -0.00078   2.24531
   Z12        1.25883  -0.00000   0.00000   0.00198   0.00214   1.26096
   X13        3.89828   0.00000   0.00000   0.00026   0.00030   3.89858
   Y13        0.97722  -0.00000   0.00000   0.00195   0.00210   0.97933
   Z13       -2.61954   0.00000   0.00000   0.00102   0.00112  -2.61842
   X14       -0.93058   0.00000   0.00000  -0.00058  -0.00054  -0.93111
   Y14        1.04568  -0.00001   0.00000  -0.00148  -0.00129   1.04439
   Z14       -2.77697  -0.00001   0.00000  -0.00087  -0.00079  -2.77776
         Item               Value     Threshold  Converged?
 Maximum Force            0.000017     0.000450     YES
 RMS     Force            0.000007     0.000300     YES
 Maximum Displacement     0.002729     0.001800     NO 
 RMS     Displacement     0.001028     0.001200     YES
 Predicted change in Energy=-4.303865D-10
 GradGradGradGradGradGradGradGradGradGradGradGradGradGradGradGradGradGrad


 ----------------------------------------------------------------------

 Electric dipole moment (input orientation):
 (Debye = 10**-18 statcoulomb cm , SI units = C m)
                  (au)            (Debye)         (10**-30 SI)
   Tot        0.524746D+00      0.133377D+01      0.444898D+01
   x          0.630960D-01      0.160374D+00      0.534950D+00
   y          0.583077D-01      0.148203D+00      0.494353D+00
   z         -0.517665D+00     -0.131577D+01     -0.438895D+01

 Dipole polarizability, Alpha (input orientation).
 (esu units = cm**3 , SI units = C**2 m**2 J**-1)
 Alpha(0;0):
               (au)            (10**-24 esu)      (10**-40 SI)
   iso        0.542607D+02      0.804061D+01      0.894638D+01
   aniso      0.660232D+01      0.978362D+00      0.108858D+01
   xx         0.583520D+02      0.864687D+01      0.962094D+01
   yx        -0.882190D+00     -0.130727D+00     -0.145454D+00
   yy         0.528484D+02      0.783132D+01      0.871352D+01
   zx         0.684589D+00      0.101446D+00      0.112874D+00
   zy         0.573147D+00      0.849316D-01      0.944992D-01
   zz         0.515818D+02      0.764363D+01      0.850469D+01

 ----------------------------------------------------------------------

 Dipole orientation:
     6         -3.79738759          0.04307725         -0.29677641
     9         -5.56690201         -1.45201777          0.69843052
     9         -4.28022570          2.40854155          0.41378843
     9         -3.96971638         -0.10100183         -2.79323099
     6         -1.20520014         -0.81622484          0.68553529
     9         -0.84975208         -3.25301461         -0.07022700
     6          1.02465073          0.80497127         -0.22184086
     9          0.76968688          3.14218829          0.74928666
     9          1.09873927          0.97512549         -2.74716258
     6          3.62582731         -0.21983271          0.67728226
     9          5.40130572          1.48556696          0.21710760
     9          4.22376754         -2.34431890         -0.49717271
     9          3.54836321         -0.65385701          3.16151265
     1         -1.26474235         -0.73687178          2.74379515

 Electric dipole moment (dipole orientation):
 (Debye = 10**-18 statcoulomb cm , SI units = C m)
                  (au)            (Debye)         (10**-30 SI)
   Tot        0.524746D+00      0.133377D+01      0.444898D+01
   x          0.000000D+00      0.000000D+00      0.000000D+00
   y          0.000000D+00      0.000000D+00      0.000000D+00
   z          0.524746D+00      0.133377D+01      0.444898D+01

 Dipole polarizability, Alpha (dipole orientation).
 (esu units = cm**3 , SI units = C**2 m**2 J**-1)
 Alpha(0;0):
               (au)            (10**-24 esu)      (10**-40 SI)
   iso        0.542607D+02      0.804061D+01      0.894638D+01
   aniso      0.660232D+01      0.978362D+00      0.108858D+01
   xx         0.584281D+02      0.865815D+01      0.963349D+01
   yx         0.781014D+00      0.115734D+00      0.128772D+00
   yy         0.529704D+02      0.784940D+01      0.873363D+01
   zx         0.615037D-01      0.911390D-02      0.101406D-01
   zy         0.511500D+00      0.757965D-01      0.843349D-01
   zz         0.513837D+02      0.761427D+01      0.847202D+01

 ----------------------------------------------------------------------
 1\1\GINC-CCLEARCU\Freq\RwB97XD\6-311+G(2d,2p)\C4H1F9\RAPPE\11-Dec-2021
 \0\\# freq wb97xd/6-311+g(2d,2p) geom=connectivity\\Title Card Require
 d\\0,1\C,-2.013596,-0.026589,-0.089228\F,-2.885165,0.82448,-0.633443\F
 ,-2.213612,-1.227059,-0.629981\F,-2.263484,-0.096998,1.21152\C,-0.5924
 08,0.473842,-0.386566\F,-0.462443,1.709617,0.17387\C,0.527025,-0.44001
 6,0.133674\F,0.463196,-1.611121,-0.526942\F,0.405868,-0.678251,1.44669
 4\C,1.947053,0.142527,-0.109933\F,2.856547,-0.7877,0.142989\F,2.178876
 ,1.188583,0.666142\F,2.062883,0.517124,-1.386201\H,-0.49244,0.553349,-
 1.469508\\Version=EM64M-G16RevA.03\State=1-A\HF=-1051.6684765\RMSD=5.8
 24e-09\RMSF=6.986e-06\ZeroPoint=0.0628433\Thermal=0.0744106\Dipole=0.0
 63096,0.0583077,-0.5176652\DipoleDeriv=1.6136804,-0.1576774,0.0671963,
 -0.0028382,1.5605005,0.0107705,0.0304217,0.0248497,1.6110498,-0.750862
 3,0.3184608,-0.201274,0.2491721,-0.5264672,0.1657457,-0.1591648,0.1702
 123,-0.3821552,-0.3881754,-0.1667211,-0.0685467,-0.0984235,-0.782121,-
 0.2346025,-0.0205551,-0.2123821,-0.3700655,-0.4142201,-0.0204667,0.191
 4427,-0.0342354,-0.2659113,0.0513657,0.1377236,0.0305334,-0.8529754,0.
 1467326,0.0896677,-0.0043649,-0.0409364,0.7077279,0.1838585,0.0809427,
 0.221801,0.2643959,-0.3089426,-0.0406352,-0.0193895,-0.0430684,-0.7220
 249,-0.1774193,-0.029154,-0.1991778,-0.267331,0.6990191,0.0369153,-0.0
 15659,-0.1055984,1.0098267,0.0677019,0.0021187,0.0901531,1.2061809,-0.
 311797,-0.0183815,-0.0197651,-0.0182065,-0.734331,-0.2842802,-0.014253
 7,-0.1960013,-0.3843963,-0.3251836,-0.0043061,0.0498785,0.0033617,-0.2
 835423,0.1804877,0.0187601,0.0997826,-0.8288675,1.5050318,-0.1822236,0
 .0872297,-0.0321025,1.5423884,0.0309958,0.0318197,0.0221669,1.5813264,
 -0.7605072,0.3515102,-0.1017198,0.2794789,-0.5650456,0.0892245,-0.0667
 26,0.0823481,-0.2809949,-0.3788272,-0.1621661,-0.1058277,-0.1156725,-0
 .6545024,-0.2985516,-0.049312,-0.2649011,-0.463617,-0.3930409,-0.04426
 85,0.1275952,-0.0358077,-0.3240468,0.1939576,0.0391728,0.1673814,-0.84
 29189,0.0670924,0.0002921,0.0132043,-0.005123,0.0375489,0.0207458,-0.0
 017937,-0.0367662,0.0103688\Polar=58.3519573,-0.8821902,52.8483961,0.6
 845893,0.5731469,51.5817883\Quadrupole=-1.1315508,-0.8156682,1.947219,
 0.2044042,0.4720195,-0.8015739\PG=C01 [X(C4H1F9)]\NImag=0\\0.59208465,
 0.02206572,0.54244476,-0.01878563,-0.00050640,0.55049316,-0.19362596,0
 .07675376,-0.04912527,0.21459778,0.08398561,-0.13590036,0.04054732,-0.
 13861239,0.21248946,-0.05264973,0.03867723,-0.09961276,0.08610034,-0.0
 8330983,0.13384576,-0.10110946,-0.05240923,-0.01565926,0.01123714,0.03
 829159,0.00598187,0.08481530,-0.05963494,-0.23935730,-0.06317550,0.024
 42200,-0.07481180,-0.00181558,0.04111829,0.35190608,-0.02129316,-0.065
 69305,-0.10065269,0.00398078,0.00530439,0.01656239,0.02177881,0.121292
 88,0.13274873,-0.10449581,-0.00984383,0.05900388,0.01290222,0.01110525
 ,-0.03533717,0.01535118,0.00314467,-0.00381559,0.08987557,-0.00811061,
 -0.07686583,0.01617070,0.00691704,-0.00352365,0.04257868,0.00757414,-0
 .00668364,-0.05441438,-0.00169361,0.08051418,0.06831029,0.02076649,-0.
 26764018,-0.02200654,0.03441239,-0.05833919,0.00300032,-0.04026946,-0.
 05545067,-0.05919736,-0.01763801,0.40966213,-0.17155907,-0.01937245,0.
 02407032,-0.04254603,0.00627162,-0.00339164,0.00517729,-0.00311531,0.0
 0109332,-0.00285493,-0.00544749,0.00807739,0.51070091,-0.04433326,-0.0
 6551748,0.01926935,0.03845576,-0.00496169,0.00461931,-0.02829514,-0.02
 516326,-0.00564999,-0.00043565,0.00468662,-0.00354256,-0.00157322,0.50
 680225,0.02055098,0.01438592,-0.07404380,-0.02063926,0.00358158,0.0040
 7548,-0.01409380,-0.01689769,0.00357740,0.04177714,0.01129386,-0.03364
 811,-0.01049554,0.00769429,0.63476745,0.00079135,-0.03173042,-0.017132
 80,0.00229406,-0.00174809,0.00085595,-0.00863401,-0.00809934,-0.000461
 46,0.00127140,0.00120672,-0.00073734,-0.06929733,-0.01627381,-0.008947
 54,0.06769057,0.00241879,-0.03981931,-0.01863455,-0.00223108,0.0059693
 7,0.00057167,-0.00841230,-0.00430059,-0.00001238,-0.00082531,0.0034058
 3,0.00315223,-0.01977652,-0.24774192,-0.08622080,0.02967562,0.33876132
 ,0.00068076,-0.00481485,-0.00422334,-0.00050542,0.00053835,0.00084352,
 -0.00040745,0.00039933,0.00188390,-0.00200660,0.00136294,0.00539294,-0
 .00934693,-0.08545303,-0.10920667,0.01594424,0.13101286,0.10986227,-0.
 02770562,0.02334721,-0.01682613,-0.00596439,-0.00065469,0.00056545,0.0
 0227173,-0.00080531,0.00116365,0.00326375,-0.00081387,-0.00060324,-0.1
 6002138,0.03279215,-0.01798267,0.00978475,-0.00844319,0.00177435,0.535
 62624,0.01065295,0.03019077,-0.00735591,-0.01151245,-0.00074735,-0.000
 34002,-0.00024706,-0.00958822,-0.00210265,-0.00230856,-0.00325087,0.00
 349358,0.03341417,-0.09669745,0.02688979,0.01902036,-0.03748023,0.0009
 7566,-0.00007596,0.55474557,-0.00284227,-0.00598425,0.01961608,0.00541
 262,-0.00094863,-0.00045101,0.00164652,-0.00189263,-0.00319606,0.00048
 069,0.00186896,-0.01000821,-0.02676593,0.03581704,-0.08132843,0.012466
 64,-0.02377980,-0.00059148,0.00227266,-0.02505892,0.53646682,0.0016340
 0,-0.00539391,-0.00051562,0.00044776,0.00077263,-0.00014301,-0.0090284
 3,0.00341862,0.00053506,-0.00040226,0.00033141,0.00086310,0.01001186,0
 .02133302,0.01051682,-0.00426774,0.00829758,-0.00054184,-0.07879457,-0
 .00823005,-0.00540770,0.07383032,-0.00406328,-0.00805663,-0.00245562,0
 .00131420,0.00106458,0.00026735,0.00156302,0.00561609,0.00149966,0.001
 12799,0.00095959,0.00048808,-0.00439111,-0.03509611,-0.02263453,0.0084
 7405,-0.00881312,0.00185286,-0.01454936,-0.25523527,-0.06584172,0.0157
 3128,0.32563028,-0.00133249,-0.00296674,-0.00351183,0.00065795,0.00023
 890,0.00037949,-0.00089057,0.00201341,0.00191532,0.00029547,0.00011288
 ,0.00162042,0.00148806,-0.00268630,0.00233013,-0.00083235,0.00111245,0
 .00205776,-0.00661253,-0.07896602,-0.09716528,0.00954315,0.13866388,0.
 14761901,0.00228276,-0.00221872,0.00439993,0.00048630,0.00031777,-0.00
 041617,-0.00044369,-0.00050053,-0.00077265,-0.00778920,0.00221346,-0.0
 0286604,0.00947538,0.00621103,-0.02844260,0.00035959,0.00054635,0.0010
 7519,-0.08308475,-0.00581811,0.02107470,0.01061278,0.00235350,0.000352
 59,0.07501493,-0.00293842,-0.00310484,0.00169025,0.00060404,0.00048777
 ,-0.00047288,0.00053394,0.00144408,0.00013484,0.00229722,0.00082576,-0
 .00129288,-0.00223545,-0.00012965,0.02765819,-0.00066159,0.00262073,-0
 .00072004,-0.00689160,-0.08869709,0.05607676,0.00356007,0.00794772,-0.
 04675772,0.00665537,0.08121635,0.00620253,0.00219307,-0.00969662,-0.00
 171961,-0.00033023,0.00144776,-0.00141059,0.00007614,0.00122684,-0.001
 38657,-0.00108351,0.00650993,-0.00011614,0.00281294,-0.03989426,0.0003
 0052,0.00386500,0.00535609,0.02537536,0.07157574,-0.27228399,0.0016652
 5,-0.03289981,-0.05867065,-0.03368494,-0.05865927,0.39752601,-0.006355
 31,-0.00204164,0.00075426,0.00350346,-0.00084558,0.00054420,0.00153819
 ,0.00104167,0.00027101,0.00181730,0.00038951,-0.00123886,-0.02241731,0
 .00429933,-0.00143145,0.00119746,-0.00337785,-0.00082863,-0.17427109,-
 0.05151827,0.02166717,0.00210826,0.00604165,-0.00122590,0.00353752,0.0
 0299503,-0.00259004,0.60102908,-0.00236602,-0.00320287,0.00381462,0.00
 466006,-0.00146794,0.00059780,-0.00018838,-0.00084539,-0.00037755,0.00
 019757,-0.00013484,-0.00076380,0.02225298,0.02646179,-0.00164998,-0.00
 592335,-0.00699190,-0.00325454,-0.02387769,-0.06847238,0.01520149,-0.0
 2923768,-0.03709136,-0.01016504,-0.00773306,-0.00238022,0.00470574,0.0
 1667183,0.56467663,0.00023894,0.00206170,-0.00017492,-0.00202225,0.000
 48428,-0.00066072,-0.00022429,-0.00066878,-0.00054877,0.00074875,0.000
 11128,-0.00155668,-0.00883752,-0.00319042,0.01177953,-0.00110157,-0.00
 103850,-0.00306042,0.01085404,0.01407920,-0.04182404,-0.01574182,-0.02
 439879,-0.00645675,0.03370362,0.01922991,-0.03990202,-0.00122830,0.006
 73171,0.54530687,0.00402191,0.00433351,-0.00231779,-0.00309161,0.00038
 802,-0.00027336,-0.00072199,-0.00118850,-0.00016607,-0.00088985,-0.000
 49474,0.00114931,-0.00613904,-0.00957485,0.00334977,0.00059344,0.00089
 472,0.00053554,-0.03911089,0.04365626,-0.01560895,0.00210200,-0.002018
 42,0.00018819,0.00202728,-0.00296182,0.00346284,-0.21241917,0.09439039
 ,-0.02357849,0.23492086,-0.00113520,-0.00164810,0.00028662,0.00043311,
 0.00019519,-0.00002339,0.00027038,0.00081130,0.00016458,0.00034570,0.0
 0030289,-0.00039487,0.00004128,-0.00038815,-0.00081638,0.00078369,0.00
 116275,0.00041750,0.00576864,-0.00919177,0.00302660,-0.00370489,0.0063
 8682,0.00067593,-0.00074700,0.00252522,-0.00183723,0.10532438,-0.15815
 349,0.02125095,-0.16701842,0.25043566,0.00024031,0.00009346,-0.0002674
 1,0.00005272,-0.00006061,0.00008964,-0.00004291,-0.00000254,0.00007870
 ,-0.00015796,-0.00007133,0.00035559,0.00037869,0.00004892,-0.00075701,
 0.00002415,0.00007081,0.00029257,0.00000742,0.00030532,0.00243675,-0.0
 0036723,0.00196283,0.00148220,-0.00051574,-0.00201656,0.00456016,-0.02
 605084,0.02208447,-0.07998302,0.04768831,-0.04401839,0.09244257,0.0016
 3944,-0.00002167,-0.00039627,-0.00081178,0.00028716,-0.00013063,-0.000
 42416,0.00000927,0.00003344,-0.00038854,-0.00001915,0.00037036,0.00109
 194,-0.00016843,0.00111139,-0.00566417,0.00199971,-0.00166907,0.006213
 84,-0.02331418,-0.02128188,-0.00785296,-0.00878587,-0.00161293,-0.0006
 6072,-0.00033883,0.00177043,-0.10484089,-0.05223665,-0.02893874,0.0119
 5925,0.03677094,0.01543828,0.08525985,0.00131370,-0.00019525,-0.001095
 19,-0.00127100,0.00063736,-0.00015624,-0.00003834,0.00074879,0.0002986
 8,-0.00035536,0.00009702,0.00063974,-0.00268212,-0.00735110,-0.0006391
 4,0.00337837,0.00452082,0.00223249,-0.00158330,-0.01872329,-0.02481742
 ,-0.00686668,-0.00492809,-0.00084170,-0.00012265,0.00156386,0.00259473
 ,-0.05933490,-0.21716419,-0.09161734,0.02345323,-0.07067174,-0.0251585
 3,0.04252840,0.29920719,0.00059961,-0.00019875,-0.00089421,-0.00032381
 ,0.00016030,0.00009206,-0.00003247,0.00036436,0.00025052,-0.00028877,-
 0.00001225,0.00068088,-0.00036569,-0.00242818,-0.00136011,-0.00060894,
 0.00196380,0.00156811,0.00269263,-0.00907892,-0.00803839,-0.00244567,-
 0.00061493,0.00108817,-0.00022407,0.00145579,0.00647482,-0.03734653,-0
 .09786295,-0.13885358,0.01002197,-0.01798658,0.01075712,0.03815249,0.1
 6282239,0.20129867,0.00229512,0.00038905,0.00067126,-0.00076201,0.0002
 4857,-0.00019710,-0.00037304,-0.00029224,-0.00016726,-0.00071949,-0.00
 011745,0.00032457,-0.00128448,-0.00132316,-0.00104467,-0.00020395,0.00
 087337,0.00046871,0.00613330,-0.00569684,0.02980261,-0.00066660,-0.002
 05407,-0.00136135,-0.00768639,-0.00458667,0.00696545,-0.09495947,-0.01
 720929,0.03911240,0.00660632,0.02319044,-0.03710786,0.01458425,0.00140
 396,-0.01038781,0.07870310,0.00036995,-0.00036549,-0.00004285,-0.00061
 479,0.00034798,-0.00018574,-0.00000639,0.00027474,0.00000175,0.0000748
 6,0.00017772,-0.00034272,-0.00052310,-0.00278837,0.00015985,0.00058793
 ,0.00139913,0.00009355,-0.00006808,0.00148623,0.01856976,0.00025216,0.
 00165456,0.00013005,-0.00477664,-0.00158001,0.00371858,-0.01946074,-0.
 09499470,0.05667944,0.01615096,-0.02187278,0.04681187,0.00333873,0.012
 25098,-0.03855946,0.00532443,0.10383455,-0.00048821,0.00017593,-0.0007
 3807,0.00087849,-0.00039534,0.00041194,0.00015204,0.00008295,0.0002980
 6,-0.00033030,-0.00025476,0.00121452,-0.00094976,0.00135856,-0.0026023
 1,0.00062135,-0.00013217,0.00108476,-0.00446002,0.00392504,-0.03158153
 ,0.00191939,0.00401496,0.00539853,0.00766618,0.00306869,-0.00289600,0.
 04931516,0.06069262,-0.24230626,-0.02458344,0.03938402,-0.03167274,-0.
 00294738,-0.02463598,-0.07342016,-0.02868182,-0.08674829,0.37580853,0.
 00010199,-0.00385740,0.03185912,0.00133304,0.00019252,-0.00150900,0.00
 034396,0.00048166,-0.00217987,-0.00694134,-0.00193537,0.00455402,-0.06
 033781,-0.00111377,0.02577141,0.00408459,-0.00163990,-0.00517286,0.005
 65908,0.00197775,-0.02291687,0.00026559,-0.00074356,0.00134270,-0.0041
 3177,0.00396873,-0.00483449,0.00053196,0.00059931,-0.00298478,0.000141
 49,-0.00032304,0.00041267,-0.00010536,0.00017669,0.00055707,-0.0016666
 6,-0.00064928,0.00188833,0.06072123,0.00177501,0.00139791,0.01148713,0
 .00068176,0.00022107,-0.00100835,0.00024548,-0.00005089,-0.00044676,-0
 .00283094,-0.00051078,0.00129178,-0.00286327,-0.05211550,0.03719503,0.
 00130985,-0.01269288,-0.04464308,-0.00414495,0.00166134,0.01776274,-0.
 00026354,-0.00003905,-0.00056397,0.00361923,-0.00273968,0.00326812,-0.
 00018442,-0.00023915,0.00028537,-0.00001035,0.00010619,-0.00004973,-0.
 00004942,0.00000763,-0.00002464,-0.00015011,0.00017548,-0.00053622,0.0
 0286567,0.06481831,0.00056807,0.00181022,-0.00865340,-0.00074074,-0.00
 022287,0.00131564,0.00020177,0.00049311,0.00130633,0.00021439,-0.00002
 507,0.00120664,0.02516138,0.03133008,-0.31368930,-0.00039085,-0.011930
 63,-0.01126000,0.00177903,0.00165809,-0.01205123,0.00012013,0.00009578
 ,0.00191349,-0.00135001,0.00060492,0.00024196,-0.00061126,0.00024543,-
 0.00175922,0.00013216,-0.00012936,0.00018488,0.00010052,0.00037351,0.0
 0035609,0.00160287,-0.00028579,0.00100074,-0.02678746,-0.02401741,0.33
 988740\\-0.00000234,-0.00001441,0.00000072,-0.00000124,0.00001444,-0.0
 0000067,0.00000052,0.00001394,0.00000101,0.00000257,0.00000373,0.00000
 545,0.00000152,-0.00000628,-0.00000787,0.00000205,0.00000463,0.0000066
 4,-0.00000187,0.00000746,0.00001682,-0.00000288,-0.00000735,-0.0000125
 0,-0.00000145,-0.00000180,-0.00000949,0.00001335,-0.00000951,-0.000002
 32,-0.00000881,-0.00000631,-0.00000247,0.00000403,-0.00000478,0.000002
 64,-0.00000437,0.00000086,-0.00000421,-0.00000106,0.00000537,0.0000062
 6\\\@


 MAN IS THE MEASURE OF ALL THINGS.
  -- PROTAGORAS (5TH CENTURY B.C.)
 Job cpu time:       0 days  3 hours 40 minutes  1.5 seconds.
 Elapsed time:       0 days  0 hours 28 minutes 27.8 seconds.
 File lengths (MBytes):  RWF=    201 Int=      0 D2E=      0 Chk=     10 Scr=      1
 Normal termination of Gaussian 16 at Sat Dec 11 09:18:34 2021.
