 Entering Gaussian System, Link 0=g16
 Initial command:
 /usr/local/src/g16/l1.exe "/home/rappe/Gau-2406.inp" -scrdir="/home/rappe/"
 Entering Link 1 = /usr/local/src/g16/l1.exe PID=      2407.
  
 Copyright (c) 1988,1990,1992,1993,1995,1998,2003,2009,2016,
            Gaussian, Inc.  All Rights Reserved.
  
 This is part of the Gaussian(R) 16 program.  It is based on
 the Gaussian(R) 09 system (copyright 2009, Gaussian, Inc.),
 the Gaussian(R) 03 system (copyright 2003, Gaussian, Inc.),
 the Gaussian(R) 98 system (copyright 1998, Gaussian, Inc.),
 the Gaussian(R) 94 system (copyright 1995, Gaussian, Inc.),
 the Gaussian 92(TM) system (copyright 1992, Gaussian, Inc.),
 the Gaussian 90(TM) system (copyright 1990, Gaussian, Inc.),
 the Gaussian 88(TM) system (copyright 1988, Gaussian, Inc.),
 the Gaussian 86(TM) system (copyright 1986, Carnegie Mellon
 University), and the Gaussian 82(TM) system (copyright 1983,
 Carnegie Mellon University). Gaussian is a federally registered
 trademark of Gaussian, Inc.
  
 This software contains proprietary and confidential information,
 including trade secrets, belonging to Gaussian, Inc.
  
 This software is provided under written license and may be
 used, copied, transmitted, or stored only in accord with that
 written license.
  
 The following legend is applicable only to US Government
 contracts under FAR:
  
                    RESTRICTED RIGHTS LEGEND
  
 Use, reproduction and disclosure by the US Government is
 subject to restrictions as set forth in subparagraphs (a)
 and (c) of the Commercial Computer Software - Restricted
 Rights clause in FAR 52.227-19.
  
 Gaussian, Inc.
 340 Quinnipiac St., Bldg. 40, Wallingford CT 06492
  
  
 ---------------------------------------------------------------
 Warning -- This program may not be used in any manner that
 competes with the business of Gaussian, Inc. or will provide
 assistance to any competitor of Gaussian, Inc.  The licensee
 of this program is prohibited from giving any competitor of
 Gaussian, Inc. access to this program.  By using this program,
 the user acknowledges that Gaussian, Inc. is engaged in the
 business of creating and licensing software in the field of
 computational chemistry and represents and warrants to the
 licensee that it is not a competitor of Gaussian, Inc. and that
 it will not use this program in any manner prohibited above.
 ---------------------------------------------------------------
  

 Cite this work as:
 Gaussian 16, Revision A.03,
 M. J. Frisch, G. W. Trucks, H. B. Schlegel, G. E. Scuseria, 
 M. A. Robb, J. R. Cheeseman, G. Scalmani, V. Barone, 
 G. A. Petersson, H. Nakatsuji, X. Li, M. Caricato, A. V. Marenich, 
 J. Bloino, B. G. Janesko, R. Gomperts, B. Mennucci, H. P. Hratchian, 
 J. V. Ortiz, A. F. Izmaylov, J. L. Sonnenberg, D. Williams-Young, 
 F. Ding, F. Lipparini, F. Egidi, J. Goings, B. Peng, A. Petrone, 
 T. Henderson, D. Ranasinghe, V. G. Zakrzewski, J. Gao, N. Rega, 
 G. Zheng, W. Liang, M. Hada, M. Ehara, K. Toyota, R. Fukuda, 
 J. Hasegawa, M. Ishida, T. Nakajima, Y. Honda, O. Kitao, H. Nakai, 
 T. Vreven, K. Throssell, J. A. Montgomery, Jr., J. E. Peralta, 
 F. Ogliaro, M. J. Bearpark, J. J. Heyd, E. N. Brothers, K. N. Kudin, 
 V. N. Staroverov, T. A. Keith, R. Kobayashi, J. Normand, 
 K. Raghavachari, A. P. Rendell, J. C. Burant, S. S. Iyengar, 
 J. Tomasi, M. Cossi, J. M. Millam, M. Klene, C. Adamo, R. Cammi, 
 J. W. Ochterski, R. L. Martin, K. Morokuma, O. Farkas, 
 J. B. Foresman, and D. J. Fox, Gaussian, Inc., Wallingford CT, 2016.
 
 ******************************************
 Gaussian 16:  ES64L-G16RevA.03 25-Dec-2016
                 3-Sep-2025 
 ******************************************
 %mem=220GB
 %nprocshared=56
 Will use up to   56 processors via shared memory.
 %chk=butene_2OH.chk
 ----------------------------------------------------------
 # opt freq wb97xd/6-311+g(2d,2p) geom=connectivity scf=xqc
 ----------------------------------------------------------
 1/18=20,19=15,26=3,38=1,57=2/1,3;
 2/9=110,12=2,17=6,18=5,40=1/2;
 3/5=4,6=6,7=212,11=2,25=1,30=1,71=1,74=-58/1,2,3;
 4//1;
 5/5=2,8=3,13=1,38=5/2,8;
 6/7=2,8=2,9=2,10=2,28=1/1;
 7//1,2,3,16;
 1/18=20,19=15,26=3/3(2);
 2/9=110/2;
 99//99;
 2/9=110/2;
 3/5=4,6=6,7=212,11=2,25=1,30=1,71=1,74=-58/1,2,3;
 4/5=5,16=3,69=1/1;
 5/5=2,8=3,13=1,38=5/2,8;
 7//1,2,3,16;
 1/18=20,19=15,26=3/3(-5);
 2/9=110/2;
 6/7=2,8=2,9=2,10=2,19=2,28=1/1;
 99/9=1/99;
 -------------------
 Title Card Required
 -------------------
 Symbolic Z-matrix:
 Charge =  0 Multiplicity = 2
 F                    -2.37963   0.11193   1.13207 
 C                    -1.97046  -0.26506  -0.09795 
 F                    -2.81513  -0.15806  -1.14561 
 C                     0.44232   0.41456   0.10427 
 F                     0.25433   0.69288   1.41182 
 F                     0.19293   1.51879  -0.63124 
 F                    -0.26521  -1.81806   0.41239 
 C                     1.89817  -0.03421  -0.1209 
 F                     2.08616  -0.31253  -1.42845 
 F                     2.14756  -1.13844   0.61461 
 F                     2.73703   0.95496   0.25376 
 C                    -0.5146   -0.71383  -0.32312 
 O                    -0.31548  -1.00865  -1.70816 
 H                    -0.912    -1.71205  -1.97458 
 

 GradGradGradGradGradGradGradGradGradGradGradGradGradGradGradGradGradGrad
 Berny optimization.
 Initialization pass.
                           ----------------------------
                           !    Initial Parameters    !
                           ! (Angstroms and Degrees)  !
 --------------------------                            --------------------------
 ! Name  Definition              Value          Derivative Info.                !
 --------------------------------------------------------------------------------
 ! R1    R(1,2)                  1.35           estimate D2E/DX2                !
 ! R2    R(2,3)                  1.35           estimate D2E/DX2                !
 ! R3    R(2,12)                 1.54           estimate D2E/DX2                !
 ! R4    R(4,5)                  1.35           estimate D2E/DX2                !
 ! R5    R(4,6)                  1.35           estimate D2E/DX2                !
 ! R6    R(4,8)                  1.54           estimate D2E/DX2                !
 ! R7    R(4,12)                 1.54           estimate D2E/DX2                !
 ! R8    R(7,12)                 1.35           estimate D2E/DX2                !
 ! R9    R(8,9)                  1.35           estimate D2E/DX2                !
 ! R10   R(8,10)                 1.35           estimate D2E/DX2                !
 ! R11   R(8,11)                 1.35           estimate D2E/DX2                !
 ! R12   R(12,13)                1.43           estimate D2E/DX2                !
 ! R13   R(13,14)                0.96           estimate D2E/DX2                !
 ! A1    A(1,2,3)              119.6895         estimate D2E/DX2                !
 ! A2    A(1,2,12)             120.0744         estimate D2E/DX2                !
 ! A3    A(3,2,12)             120.0744         estimate D2E/DX2                !
 ! A4    A(5,4,6)              109.4712         estimate D2E/DX2                !
 ! A5    A(5,4,8)              109.4712         estimate D2E/DX2                !
 ! A6    A(5,4,12)             109.4712         estimate D2E/DX2                !
 ! A7    A(6,4,8)              109.4712         estimate D2E/DX2                !
 ! A8    A(6,4,12)             109.4712         estimate D2E/DX2                !
 ! A9    A(8,4,12)             109.4712         estimate D2E/DX2                !
 ! A10   A(4,8,9)              109.4712         estimate D2E/DX2                !
 ! A11   A(4,8,10)             109.4712         estimate D2E/DX2                !
 ! A12   A(4,8,11)             109.4712         estimate D2E/DX2                !
 ! A13   A(9,8,10)             109.4712         estimate D2E/DX2                !
 ! A14   A(9,8,11)             109.4712         estimate D2E/DX2                !
 ! A15   A(10,8,11)            109.4712         estimate D2E/DX2                !
 ! A16   A(2,12,4)             109.4712         estimate D2E/DX2                !
 ! A17   A(2,12,7)             109.4712         estimate D2E/DX2                !
 ! A18   A(2,12,13)            109.4712         estimate D2E/DX2                !
 ! A19   A(4,12,7)             109.4712         estimate D2E/DX2                !
 ! A20   A(4,12,13)            109.4712         estimate D2E/DX2                !
 ! A21   A(7,12,13)            109.4712         estimate D2E/DX2                !
 ! A22   A(12,13,14)           109.4712         estimate D2E/DX2                !
 ! D1    D(1,2,12,4)           -57.6823         estimate D2E/DX2                !
 ! D2    D(1,2,12,7)            62.3177         estimate D2E/DX2                !
 ! D3    D(1,2,12,13)         -177.6823         estimate D2E/DX2                !
 ! D4    D(3,2,12,4)           117.6823         estimate D2E/DX2                !
 ! D5    D(3,2,12,7)          -122.3177         estimate D2E/DX2                !
 ! D6    D(3,2,12,13)           -2.3177         estimate D2E/DX2                !
 ! D7    D(5,4,8,9)            180.0            estimate D2E/DX2                !
 ! D8    D(5,4,8,10)            60.0            estimate D2E/DX2                !
 ! D9    D(5,4,8,11)           -60.0            estimate D2E/DX2                !
 ! D10   D(6,4,8,9)            -60.0            estimate D2E/DX2                !
 ! D11   D(6,4,8,10)           180.0            estimate D2E/DX2                !
 ! D12   D(6,4,8,11)            60.0            estimate D2E/DX2                !
 ! D13   D(12,4,8,9)            60.0            estimate D2E/DX2                !
 ! D14   D(12,4,8,10)          -60.0            estimate D2E/DX2                !
 ! D15   D(12,4,8,11)          180.0            estimate D2E/DX2                !
 ! D16   D(5,4,12,2)            60.0            estimate D2E/DX2                !
 ! D17   D(5,4,12,7)           -60.0            estimate D2E/DX2                !
 ! D18   D(5,4,12,13)          180.0            estimate D2E/DX2                !
 ! D19   D(6,4,12,2)           -60.0            estimate D2E/DX2                !
 ! D20   D(6,4,12,7)           180.0            estimate D2E/DX2                !
 ! D21   D(6,4,12,13)           60.0            estimate D2E/DX2                !
 ! D22   D(8,4,12,2)           180.0            estimate D2E/DX2                !
 ! D23   D(8,4,12,7)            60.0            estimate D2E/DX2                !
 ! D24   D(8,4,12,13)          -60.0            estimate D2E/DX2                !
 ! D25   D(2,12,13,14)         -60.0            estimate D2E/DX2                !
 ! D26   D(4,12,13,14)         180.0            estimate D2E/DX2                !
 ! D27   D(7,12,13,14)          60.0            estimate D2E/DX2                !
 --------------------------------------------------------------------------------
 Trust Radius=3.00D-01 FncErr=1.00D-07 GrdErr=1.00D-06 EigMax=2.50D+02 EigMin=1.00D-04
 Number of steps in this run=     72 maximum allowed number of steps=    100.
 GradGradGradGradGradGradGradGradGradGradGradGradGradGradGradGradGradGrad

                          Input orientation:                          
 ---------------------------------------------------------------------
 Center     Atomic      Atomic             Coordinates (Angstroms)
 Number     Number       Type             X           Y           Z
 ---------------------------------------------------------------------
      1          9           0       -2.379631    0.111934    1.132068
      2          6           0       -1.970458   -0.265065   -0.097952
      3          9           0       -2.815126   -0.158059   -1.145609
      4          6           0        0.442319    0.414556    0.104267
      5          9           0        0.254332    0.692883    1.411820
      6          9           0        0.192928    1.518787   -0.631244
      7          9           0       -0.265212   -1.818057    0.412394
      8          6           0        1.898174   -0.034205   -0.120899
      9          9           0        2.086160   -0.312533   -1.428452
     10          9           0        2.147564   -1.138437    0.614612
     11          9           0        2.737033    0.954960    0.253757
     12          6           0       -0.514603   -0.713825   -0.323118
     13          8           0       -0.315477   -1.008647   -1.708155
     14          1           0       -0.911999   -1.712053   -1.974577
 ---------------------------------------------------------------------
                    Distance matrix (angstroms):
                    1          2          3          4          5
     1  F    0.000000
     2  C    1.350000   0.000000
     3  F    2.334602   1.350000   0.000000
     4  C    3.018502   2.514809   3.535678   0.000000
     5  F    2.711738   2.854254   4.084865   1.350000   0.000000
     6  F    3.421486   2.854254   3.482064   1.350000   2.204541
     7  F    2.951875   2.362224   3.418337   2.362224   2.752017
     8  C    4.459921   3.875582   4.824994   1.540000   2.362224
     9  F    5.165242   4.269500   4.911870   2.362224   3.526131
    10  F    4.725112   4.269500   5.356101   2.362224   2.752017
    11  F    5.259503   4.875719   5.832967   2.362224   2.752017
    12  C    2.505549   1.540000   2.505549   1.540000   2.362224
    13  O    3.685554   2.425826   2.699668   2.425826   3.599185
    14  H    3.890002   2.595348   2.593064   3.267757   4.314132
                    6          7          8          9         10
     6  F    0.000000
     7  F    3.526131   0.000000
     8  C    2.362224   2.854254   0.000000
     9  F    2.752017   3.344289   1.350000   0.000000
    10  F    3.526131   2.514809   1.350000   2.204541   0.000000
    11  F    2.752017   4.090020   1.350000   2.204541   2.204541
    12  C    2.362224   1.350000   2.514809   2.854254   2.854254
    13  O    2.793946   2.270330   2.892951   2.516082   3.388018
    14  H    3.669296   2.475318   3.761431   3.353486   4.048934
                   11         12         13         14
    11  F    0.000000
    12  C    3.700104   0.000000
    13  O    4.125853   1.430000   0.000000
    14  H    5.039233   1.970203   0.960000   0.000000
 Stoichiometry    C4HF8O(2)
 Framework group  C1[X(C4HF8O)]
 Deg. of freedom    36
 Full point group                 C1      NOp   1
 Largest Abelian subgroup         C1      NOp   1
 Largest concise Abelian subgroup C1      NOp   1
                         Standard orientation:                         
 ---------------------------------------------------------------------
 Center     Atomic      Atomic             Coordinates (Angstroms)
 Number     Number       Type             X           Y           Z
 ---------------------------------------------------------------------
      1          9           0        2.438659   -1.328843    0.450496
      2          6           0        2.098907   -0.094660    0.021705
      3          9           0        2.964820    0.612068   -0.735415
      4          6           0       -0.364915   -0.490449   -0.290060
      5          9           0       -0.240228   -1.710733    0.273731
      6          9           0       -0.180192   -0.589884   -1.623661
      7          9           0        0.505795    0.559609    1.638499
      8          6           0       -1.773304    0.064385   -0.006866
      9          9           0       -1.897990    1.284669   -0.570657
     10          9           0       -1.958027    0.163820    1.326734
     11          9           0       -2.698521   -0.768954   -0.528421
     12          6           0        0.690518    0.460174    0.304899
     13          8           0        0.558443    1.752771   -0.292302
     14          1           0        1.216375    2.345368    0.078582
 ---------------------------------------------------------------------
 Rotational constants (GHZ):           1.3399680           0.6047553           0.5725566
 Standard basis: 6-311+G(2d,2p) (5D, 7F)
 There are   386 symmetry adapted cartesian basis functions of A   symmetry.
 There are   360 symmetry adapted basis functions of A   symmetry.
   360 basis functions,   557 primitive gaussians,   386 cartesian basis functions
    53 alpha electrons       52 beta electrons
       nuclear repulsion energy      1012.2667594461 Hartrees.
 NAtoms=   14 NActive=   14 NUniq=   14 SFac= 1.00D+00 NAtFMM=   60 NAOKFM=F Big=F
 Integral buffers will be    131072 words long.
 Raffenetti 2 integral format.
 Two-electron integral symmetry is turned on.
 Nuclear repulsion after empirical dispersion term =     1012.2589641594 Hartrees.
 One-electron integrals computed using PRISM.
 NBasis=   360 RedAO= T EigKep=  9.75D-06  NBF=   360
 NBsUse=   360 1.00D-06 EigRej= -1.00D+00 NBFU=   360
 ExpMin= 4.38D-02 ExpMax= 1.14D+04 ExpMxC= 1.72D+03 IAcc=3 IRadAn=         5 AccDes= 0.00D+00
 Harris functional with IExCor= 4639 and IRadAn=       5 diagonalized for initial guess.
 HarFok:  IExCor= 4639 AccDes= 0.00D+00 IRadAn=         5 IDoV= 1 UseB2=F ITyADJ=14
 ICtDFT=  3500011 ScaDFX=  1.000000  1.000000  1.000000  1.000000
 FoFCou: FMM=F IPFlag=           0 FMFlag=      100000 FMFlg1=           0
         NFxFlg=           0 DoJE=T BraDBF=F KetDBF=T FulRan=T
         wScrn=  0.000000 ICntrl=       500 IOpCl=  0 I1Cent=   200000004 NGrid=           0
         NMat0=    1 NMatS0=      1 NMatT0=    0 NMatD0=    1 NMtDS0=    0 NMtDT0=    0
 Petite list used in FoFCou.
 Initial guess <Sx>= 0.0000 <Sy>= 0.0000 <Sz>= 0.5000 <S**2>= 0.7500 S= 0.5000
 Requested convergence on RMS density matrix=1.00D-08 within  32 cycles.
 Requested convergence on MAX density matrix=1.00D-06.
 Requested convergence on             energy=1.00D-06.
 No special actions if energy rises.
 SCF Done:  E(UwB97XD) =  -1026.94534835     A.U. after   17 cycles
            NFock= 17  Conv=0.54D-08     -V/T= 2.0031
 <Sx>= 0.0000 <Sy>= 0.0000 <Sz>= 0.5000 <S**2>= 0.7555 S= 0.5027
 <L.S>= 0.000000000000E+00
 Annihilation of the first spin contaminant:
 S**2 before annihilation     0.7555,   after     0.7500
 QCSCF skips out because SCF is already converged.

 **********************************************************************

            Population analysis using the SCF density.

 **********************************************************************

 Orbital symmetries:
 Alpha Orbitals:
       Occupied  (A) (A) (A) (A) (A) (A) (A) (A) (A) (A) (A) (A)
                 (A) (A) (A) (A) (A) (A) (A) (A) (A) (A) (A) (A)
                 (A) (A) (A) (A) (A) (A) (A) (A) (A) (A) (A) (A)
                 (A) (A) (A) (A) (A) (A) (A) (A) (A) (A) (A) (A)
                 (A) (A) (A) (A) (A)
       Virtual   (A) (A) (A) (A) (A) (A) (A) (A) (A) (A) (A) (A)
                 (A) (A) (A) (A) (A) (A) (A) (A) (A) (A) (A) (A)
                 (A) (A) (A) (A) (A) (A) (A) (A) (A) (A) (A) (A)
                 (A) (A) (A) (A) (A) (A) (A) (A) (A) (A) (A) (A)
                 (A) (A) (A) (A) (A) (A) (A) (A) (A) (A) (A) (A)
                 (A) (A) (A) (A) (A) (A) (A) (A) (A) (A) (A) (A)
                 (A) (A) (A) (A) (A) (A) (A) (A) (A) (A) (A) (A)
                 (A) (A) (A) (A) (A) (A) (A) (A) (A) (A) (A) (A)
                 (A) (A) (A) (A) (A) (A) (A) (A) (A) (A) (A) (A)
                 (A) (A) (A) (A) (A) (A) (A) (A) (A) (A) (A) (A)
                 (A) (A) (A) (A) (A) (A) (A) (A) (A) (A) (A) (A)
                 (A) (A) (A) (A) (A) (A) (A) (A) (A) (A) (A) (A)
                 (A) (A) (A) (A) (A) (A) (A) (A) (A) (A) (A) (A)
                 (A) (A) (A) (A) (A) (A) (A) (A) (A) (A) (A) (A)
                 (A) (A) (A) (A) (A) (A) (A) (A) (A) (A) (A) (A)
                 (A) (A) (A) (A) (A) (A) (A) (A) (A) (A) (A) (A)
                 (A) (A) (A) (A) (A) (A) (A) (A) (A) (A) (A) (A)
                 (A) (A) (A) (A) (A) (A) (A) (A) (A) (A) (A) (A)
                 (A) (A) (A) (A) (A) (A) (A) (A) (A) (A) (A) (A)
                 (A) (A) (A) (A) (A) (A) (A) (A) (A) (A) (A) (A)
                 (A) (A) (A) (A) (A) (A) (A) (A) (A) (A) (A) (A)
                 (A) (A) (A) (A) (A) (A) (A) (A) (A) (A) (A) (A)
                 (A) (A) (A) (A) (A) (A) (A) (A) (A) (A) (A) (A)
                 (A) (A) (A) (A) (A) (A) (A) (A) (A) (A) (A) (A)
                 (A) (A) (A) (A) (A) (A) (A) (A) (A) (A) (A) (A)
                 (A) (A) (A) (A) (A) (A) (A)
 Beta  Orbitals:
       Occupied  (A) (A) (A) (A) (A) (A) (A) (A) (A) (A) (A) (A)
                 (A) (A) (A) (A) (A) (A) (A) (A) (A) (A) (A) (A)
                 (A) (A) (A) (A) (A) (A) (A) (A) (A) (A) (A) (A)
                 (A) (A) (A) (A) (A) (A) (A) (A) (A) (A) (A) (A)
                 (A) (A) (A) (A)
       Virtual   (A) (A) (A) (A) (A) (A) (A) (A) (A) (A) (A) (A)
                 (A) (A) (A) (A) (A) (A) (A) (A) (A) (A) (A) (A)
                 (A) (A) (A) (A) (A) (A) (A) (A) (A) (A) (A) (A)
                 (A) (A) (A) (A) (A) (A) (A) (A) (A) (A) (A) (A)
                 (A) (A) (A) (A) (A) (A) (A) (A) (A) (A) (A) (A)
                 (A) (A) (A) (A) (A) (A) (A) (A) (A) (A) (A) (A)
                 (A) (A) (A) (A) (A) (A) (A) (A) (A) (A) (A) (A)
                 (A) (A) (A) (A) (A) (A) (A) (A) (A) (A) (A) (A)
                 (A) (A) (A) (A) (A) (A) (A) (A) (A) (A) (A) (A)
                 (A) (A) (A) (A) (A) (A) (A) (A) (A) (A) (A) (A)
                 (A) (A) (A) (A) (A) (A) (A) (A) (A) (A) (A) (A)
                 (A) (A) (A) (A) (A) (A) (A) (A) (A) (A) (A) (A)
                 (A) (A) (A) (A) (A) (A) (A) (A) (A) (A) (A) (A)
                 (A) (A) (A) (A) (A) (A) (A) (A) (A) (A) (A) (A)
                 (A) (A) (A) (A) (A) (A) (A) (A) (A) (A) (A) (A)
                 (A) (A) (A) (A) (A) (A) (A) (A) (A) (A) (A) (A)
                 (A) (A) (A) (A) (A) (A) (A) (A) (A) (A) (A) (A)
                 (A) (A) (A) (A) (A) (A) (A) (A) (A) (A) (A) (A)
                 (A) (A) (A) (A) (A) (A) (A) (A) (A) (A) (A) (A)
                 (A) (A) (A) (A) (A) (A) (A) (A) (A) (A) (A) (A)
                 (A) (A) (A) (A) (A) (A) (A) (A) (A) (A) (A) (A)
                 (A) (A) (A) (A) (A) (A) (A) (A) (A) (A) (A) (A)
                 (A) (A) (A) (A) (A) (A) (A) (A) (A) (A) (A) (A)
                 (A) (A) (A) (A) (A) (A) (A) (A) (A) (A) (A) (A)
                 (A) (A) (A) (A) (A) (A) (A) (A) (A) (A) (A) (A)
                 (A) (A) (A) (A) (A) (A) (A) (A)
 The electronic state is 2-A.
 Alpha  occ. eigenvalues --  -24.88727 -24.88400 -24.87430 -24.87421 -24.87246
 Alpha  occ. eigenvalues --  -24.87196 -24.86953 -24.86014 -19.31789 -10.57966
 Alpha  occ. eigenvalues --  -10.52191 -10.50853 -10.49034  -1.45206  -1.42153
 Alpha  occ. eigenvalues --   -1.41285  -1.38760  -1.37097  -1.36727  -1.36208
 Alpha  occ. eigenvalues --   -1.35744  -1.19145  -0.95024  -0.89106  -0.81745
 Alpha  occ. eigenvalues --   -0.78042  -0.74331  -0.73164  -0.72836  -0.71084
 Alpha  occ. eigenvalues --   -0.70223  -0.69473  -0.69156  -0.66692  -0.64780
 Alpha  occ. eigenvalues --   -0.60469  -0.59549  -0.59198  -0.58644  -0.58423
 Alpha  occ. eigenvalues --   -0.58337  -0.57869  -0.56243  -0.55847  -0.55149
 Alpha  occ. eigenvalues --   -0.54931  -0.54030  -0.53263  -0.52276  -0.50169
 Alpha  occ. eigenvalues --   -0.46802  -0.44805  -0.32576
 Alpha virt. eigenvalues --    0.04600   0.07177   0.08184   0.08757   0.10617
 Alpha virt. eigenvalues --    0.11675   0.11951   0.12056   0.12800   0.13075
 Alpha virt. eigenvalues --    0.13909   0.14791   0.15373   0.16550   0.17230
 Alpha virt. eigenvalues --    0.18011   0.18961   0.20080   0.22000   0.22645
 Alpha virt. eigenvalues --    0.23453   0.24937   0.25513   0.25850   0.27570
 Alpha virt. eigenvalues --    0.28156   0.29267   0.30169   0.31063   0.31702
 Alpha virt. eigenvalues --    0.32626   0.33221   0.34320   0.34718   0.35483
 Alpha virt. eigenvalues --    0.36082   0.36560   0.37750   0.38156   0.38761
 Alpha virt. eigenvalues --    0.39528   0.39990   0.40739   0.41458   0.42002
 Alpha virt. eigenvalues --    0.42264   0.43210   0.44013   0.44135   0.45033
 Alpha virt. eigenvalues --    0.45557   0.46115   0.46438   0.46652   0.47563
 Alpha virt. eigenvalues --    0.48010   0.50284   0.51452   0.52623   0.52961
 Alpha virt. eigenvalues --    0.55095   0.56014   0.56369   0.58207   0.60888
 Alpha virt. eigenvalues --    0.61905   0.62886   0.66278   0.68972   0.69432
 Alpha virt. eigenvalues --    0.71742   0.72589   0.73323   0.75025   0.76098
 Alpha virt. eigenvalues --    0.79002   0.83052   0.84333   0.85976   0.87095
 Alpha virt. eigenvalues --    0.89606   0.91596   0.94669   0.99425   1.00110
 Alpha virt. eigenvalues --    1.04715   1.07243   1.08485   1.11879   1.13110
 Alpha virt. eigenvalues --    1.13738   1.16131   1.18320   1.19883   1.20991
 Alpha virt. eigenvalues --    1.24919   1.28785   1.30254   1.32242   1.34000
 Alpha virt. eigenvalues --    1.35469   1.36072   1.37898   1.38724   1.39670
 Alpha virt. eigenvalues --    1.41565   1.42390   1.43255   1.44578   1.44997
 Alpha virt. eigenvalues --    1.46674   1.46785   1.47716   1.48462   1.49038
 Alpha virt. eigenvalues --    1.50171   1.51719   1.52111   1.52879   1.54173
 Alpha virt. eigenvalues --    1.54722   1.55065   1.56065   1.57258   1.57794
 Alpha virt. eigenvalues --    1.58738   1.60552   1.64202   1.64872   1.68236
 Alpha virt. eigenvalues --    1.69529   1.70547   1.77252   1.89086   1.91745
 Alpha virt. eigenvalues --    1.94266   1.97033   1.98309   1.99891   2.01012
 Alpha virt. eigenvalues --    2.02599   2.05062   2.05913   2.06643   2.07174
 Alpha virt. eigenvalues --    2.08940   2.10482   2.11020   2.13758   2.14216
 Alpha virt. eigenvalues --    2.15135   2.18473   2.18746   2.21802   2.22847
 Alpha virt. eigenvalues --    2.24379   2.25687   2.29173   2.31359   2.34348
 Alpha virt. eigenvalues --    2.36979   2.38969   2.40374   2.43704   2.45778
 Alpha virt. eigenvalues --    2.51000   2.51796   2.53746   2.58326   2.61051
 Alpha virt. eigenvalues --    2.65288   2.67745   2.70150   2.71978   2.72645
 Alpha virt. eigenvalues --    2.74696   2.76987   2.79809   2.82411   2.84479
 Alpha virt. eigenvalues --    2.87172   2.88911   2.90199   3.00154   3.02996
 Alpha virt. eigenvalues --    3.09095   3.13982   3.18050   3.21160   3.31110
 Alpha virt. eigenvalues --    3.37291   3.41493   3.45108   3.46151   3.48984
 Alpha virt. eigenvalues --    3.50353   3.51378   3.54114   3.57541   3.59448
 Alpha virt. eigenvalues --    3.61326   3.63470   3.67451   3.68625   3.71311
 Alpha virt. eigenvalues --    3.74706   3.76329   3.76603   3.85165   3.88450
 Alpha virt. eigenvalues --    3.98927   4.01587   4.10934   4.19239   4.25491
 Alpha virt. eigenvalues --    4.28171   4.31983   4.33637   4.37460   4.38896
 Alpha virt. eigenvalues --    4.45101   4.49807   5.22395   5.54475   6.07043
 Alpha virt. eigenvalues --    6.36991   6.39019   6.42032   6.42966   6.43494
 Alpha virt. eigenvalues --    6.44752   6.46089   6.47688   6.48272   6.49206
 Alpha virt. eigenvalues --    6.50667   6.52472   6.53209   6.55981   6.56408
 Alpha virt. eigenvalues --    6.59357   6.62346   6.62987   6.65683   6.75632
 Alpha virt. eigenvalues --    6.83505   6.85135   6.86498   6.90867   7.03480
 Alpha virt. eigenvalues --    7.14274   7.17006   7.31867   7.58277   9.07338
 Alpha virt. eigenvalues --    9.09890   9.10795   9.11031   9.11728   9.12645
 Alpha virt. eigenvalues --    9.13997   9.15630   9.16325   9.18224   9.19201
 Alpha virt. eigenvalues --    9.20062   9.20497   9.23318   9.24388   9.26380
 Alpha virt. eigenvalues --    9.27008   9.28088   9.29182   9.33764   9.34032
 Alpha virt. eigenvalues --    9.34433   9.36592   9.42484   9.45334   9.49906
 Alpha virt. eigenvalues --    9.52307   9.57963   9.65787   9.66655   9.68587
 Alpha virt. eigenvalues --    9.71542   9.74076   9.75220   9.77827   9.79075
 Alpha virt. eigenvalues --    9.80571   9.84745   9.89550   9.91280  23.86556
 Alpha virt. eigenvalues --   23.93576  23.97770  24.04623  50.13732  66.91113
 Alpha virt. eigenvalues --   66.93485  66.94898  66.95497  66.97438  66.99954
 Alpha virt. eigenvalues --   67.03774  67.04372
  Beta  occ. eigenvalues --  -24.88429 -24.88111 -24.87428 -24.87413 -24.87246
  Beta  occ. eigenvalues --  -24.87188 -24.86953 -24.85919 -19.31780 -10.57957
  Beta  occ. eigenvalues --  -10.52146 -10.50950 -10.47693  -1.45191  -1.42051
  Beta  occ. eigenvalues --   -1.40380  -1.38520  -1.36754  -1.36347  -1.36188
  Beta  occ. eigenvalues --   -1.35729  -1.19101  -0.94672  -0.87947  -0.80704
  Beta  occ. eigenvalues --   -0.77469  -0.74155  -0.73079  -0.72578  -0.70798
  Beta  occ. eigenvalues --   -0.69782  -0.69036  -0.68849  -0.66546  -0.61724
  Beta  occ. eigenvalues --   -0.60121  -0.59490  -0.59084  -0.58427  -0.58328
  Beta  occ. eigenvalues --   -0.58007  -0.56255  -0.56076  -0.55499  -0.55075
  Beta  occ. eigenvalues --   -0.54770  -0.53981  -0.53239  -0.52118  -0.49969
  Beta  occ. eigenvalues --   -0.46653  -0.44308
  Beta virt. eigenvalues --   -0.01729   0.05055   0.07415   0.08380   0.09220
  Beta virt. eigenvalues --    0.10863   0.11751   0.12094   0.12735   0.12882
  Beta virt. eigenvalues --    0.13694   0.14552   0.14891   0.15450   0.16629
  Beta virt. eigenvalues --    0.17840   0.18426   0.19315   0.20144   0.22113
  Beta virt. eigenvalues --    0.22929   0.24072   0.25029   0.25872   0.26178
  Beta virt. eigenvalues --    0.27745   0.28199   0.29529   0.30245   0.31185
  Beta virt. eigenvalues --    0.31960   0.32915   0.33753   0.34554   0.34830
  Beta virt. eigenvalues --    0.35551   0.36414   0.36751   0.37821   0.38384
  Beta virt. eigenvalues --    0.38837   0.39672   0.40113   0.40863   0.41466
  Beta virt. eigenvalues --    0.42089   0.42353   0.43311   0.44156   0.44253
  Beta virt. eigenvalues --    0.45068   0.45583   0.46251   0.46569   0.46709
  Beta virt. eigenvalues --    0.47585   0.48092   0.50319   0.51498   0.52628
  Beta virt. eigenvalues --    0.53053   0.55164   0.56081   0.56535   0.58257
  Beta virt. eigenvalues --    0.60942   0.61939   0.62998   0.66584   0.69628
  Beta virt. eigenvalues --    0.70288   0.71913   0.73503   0.73869   0.75356
  Beta virt. eigenvalues --    0.76343   0.79703   0.83242   0.84717   0.86158
  Beta virt. eigenvalues --    0.87740   0.90381   0.91802   0.95555   0.99906
  Beta virt. eigenvalues --    1.00235   1.04825   1.07388   1.08762   1.11931
  Beta virt. eigenvalues --    1.13502   1.14151   1.16440   1.18728   1.19939
  Beta virt. eigenvalues --    1.21135   1.25276   1.28961   1.30593   1.32687
  Beta virt. eigenvalues --    1.34353   1.35638   1.36165   1.38089   1.38901
  Beta virt. eigenvalues --    1.39770   1.41810   1.42572   1.43419   1.44920
  Beta virt. eigenvalues --    1.45084   1.46762   1.46911   1.47819   1.48608
  Beta virt. eigenvalues --    1.49209   1.50248   1.51804   1.52177   1.52994
  Beta virt. eigenvalues --    1.54257   1.54815   1.55157   1.56099   1.57386
  Beta virt. eigenvalues --    1.57914   1.58816   1.60656   1.64345   1.64973
  Beta virt. eigenvalues --    1.68307   1.69613   1.70655   1.77316   1.89178
  Beta virt. eigenvalues --    1.91870   1.94381   1.97183   1.98396   1.99962
  Beta virt. eigenvalues --    2.01149   2.02715   2.05236   2.05981   2.07138
  Beta virt. eigenvalues --    2.07226   2.09075   2.10589   2.11294   2.14058
  Beta virt. eigenvalues --    2.14249   2.15340   2.18477   2.19077   2.22179
  Beta virt. eigenvalues --    2.23400   2.24560   2.25946   2.29274   2.31501
  Beta virt. eigenvalues --    2.34952   2.37462   2.39163   2.40447   2.43733
  Beta virt. eigenvalues --    2.46046   2.51186   2.51898   2.53869   2.58757
  Beta virt. eigenvalues --    2.61306   2.65425   2.68116   2.70528   2.72117
  Beta virt. eigenvalues --    2.72963   2.74888   2.77333   2.80248   2.82746
  Beta virt. eigenvalues --    2.85002   2.87809   2.89750   2.91186   3.01131
  Beta virt. eigenvalues --    3.04351   3.10485   3.15792   3.18928   3.21304
  Beta virt. eigenvalues --    3.31696   3.40334   3.44827   3.46799   3.47506
  Beta virt. eigenvalues --    3.50360   3.51581   3.52284   3.54745   3.58178
  Beta virt. eigenvalues --    3.59711   3.61949   3.64332   3.67866   3.69005
  Beta virt. eigenvalues --    3.71850   3.74851   3.76656   3.78686   3.85151
  Beta virt. eigenvalues --    3.88711   3.99383   4.02241   4.11662   4.19307
  Beta virt. eigenvalues --    4.26771   4.28271   4.32063   4.33755   4.37594
  Beta virt. eigenvalues --    4.39427   4.45372   4.50056   5.22425   5.54514
  Beta virt. eigenvalues --    6.07058   6.38128   6.40078   6.42163   6.43053
  Beta virt. eigenvalues --    6.43534   6.44880   6.46248   6.47761   6.48308
  Beta virt. eigenvalues --    6.49254   6.50812   6.52500   6.53258   6.56032
  Beta virt. eigenvalues --    6.56431   6.59598   6.62443   6.63025   6.65714
  Beta virt. eigenvalues --    6.75849   6.83519   6.85484   6.86576   6.90907
  Beta virt. eigenvalues --    7.03522   7.14312   7.17051   7.31892   7.58304
  Beta virt. eigenvalues --    9.08465   9.09953   9.10899   9.11411   9.11797
  Beta virt. eigenvalues --    9.13658   9.14640   9.15714   9.17325   9.18288
  Beta virt. eigenvalues --    9.19216   9.20179   9.20613   9.23336   9.24450
  Beta virt. eigenvalues --    9.26409   9.27048   9.28152   9.30217   9.33862
  Beta virt. eigenvalues --    9.34261   9.35039   9.36828   9.42606   9.45608
  Beta virt. eigenvalues --    9.49981   9.52502   9.58099   9.65962   9.66694
  Beta virt. eigenvalues --    9.68599   9.71880   9.74171   9.75247   9.77866
  Beta virt. eigenvalues --    9.79319   9.80864   9.84812   9.89561   9.91283
  Beta virt. eigenvalues --   23.88361  23.93743  23.97754  24.05218  50.13739
  Beta virt. eigenvalues --   66.91318  66.93693  66.94918  66.95503  66.97446
  Beta virt. eigenvalues --   66.99973  67.03824  67.04381
          Condensed to atoms (all electrons):
               1          2          3          4          5          6
     1  F    9.134350   0.234963  -0.014700   0.008931  -0.000106  -0.000091
     2  C    0.234963   6.518771   0.107021   1.014479  -0.007942   0.010679
     3  F   -0.014700   0.107021   9.161168  -0.043960  -0.000340   0.002293
     4  C    0.008931   1.014479  -0.043960   8.734479   0.366785   0.298500
     5  F   -0.000106  -0.007942  -0.000340   0.366785   9.107953   0.003722
     6  F   -0.000091   0.010679   0.002293   0.298500   0.003722   9.121522
     7  F    0.008637  -0.167186   0.003485  -0.106281   0.015168  -0.000154
     8  C    0.001805  -0.578237   0.002758  -1.653904  -0.157771  -0.134873
     9  F    0.000024  -0.018617   0.000240  -0.136605  -0.000387   0.017769
    10  F   -0.000275   0.006516  -0.000006  -0.111443   0.020180  -0.000846
    11  F    0.000042   0.000964   0.000016  -0.120953   0.018503   0.018395
    12  C   -0.128918  -1.686784   0.033530  -2.587460  -0.085556  -0.075895
    13  O    0.002409   0.017102  -0.001157  -0.021943   0.000668   0.008941
    14  H    0.000723  -0.050108   0.001369  -0.023815  -0.000168  -0.000578
               7          8          9         10         11         12
     1  F    0.008637   0.001805   0.000024  -0.000275   0.000042  -0.128918
     2  C   -0.167186  -0.578237  -0.018617   0.006516   0.000964  -1.686784
     3  F    0.003485   0.002758   0.000240  -0.000006   0.000016   0.033530
     4  C   -0.106281  -1.653904  -0.136605  -0.111443  -0.120953  -2.587460
     5  F    0.015168  -0.157771  -0.000387   0.020180   0.018503  -0.085556
     6  F   -0.000154  -0.134873   0.017769  -0.000846   0.018395  -0.075895
     7  F    9.190979   0.008283  -0.003297  -0.008829   0.000000   0.311348
     8  C    0.008283   5.659109   0.312271   0.279558   0.231167   0.978640
     9  F   -0.003297   0.312271   9.057260   0.024266  -0.008624   0.041625
    10  F   -0.008829   0.279558   0.024266   9.067661  -0.010329   0.022588
    11  F    0.000000   0.231167  -0.008624  -0.010329   9.135668   0.026184
    12  C    0.311348   0.978640   0.041625   0.022588   0.026184   8.638521
    13  O    0.002281  -0.017350  -0.019409  -0.003158  -0.001416   0.192565
    14  H   -0.007589   0.014302   0.001592  -0.000228  -0.000028   0.082886
              13         14
     1  F    0.002409   0.000723
     2  C    0.017102  -0.050108
     3  F   -0.001157   0.001369
     4  C   -0.021943  -0.023815
     5  F    0.000668  -0.000168
     6  F    0.008941  -0.000578
     7  F    0.002281  -0.007589
     8  C   -0.017350   0.014302
     9  F   -0.019409   0.001592
    10  F   -0.003158  -0.000228
    11  F   -0.001416  -0.000028
    12  C    0.192565   0.082886
    13  O    8.048771   0.198387
    14  H    0.198387   0.509299
          Atomic-Atomic Spin Densities.
               1          2          3          4          5          6
     1  F    0.132255  -0.119325   0.011241  -0.001878  -0.000329   0.001297
     2  C   -0.119325   1.177871  -0.110930  -0.006998   0.002084  -0.010490
     3  F    0.011241  -0.110930   0.135925   0.001142  -0.000045   0.000208
     4  C   -0.001878  -0.006998   0.001142   0.007135  -0.000918   0.002945
     5  F   -0.000329   0.002084  -0.000045  -0.000918   0.000917   0.000317
     6  F    0.001297  -0.010490   0.000208   0.002945   0.000317   0.004021
     7  F    0.002040  -0.022146   0.002292  -0.005152   0.000877  -0.000934
     8  C    0.000492  -0.002024   0.000142  -0.000665  -0.000652  -0.000386
     9  F    0.000011  -0.000635   0.000015  -0.000304   0.000011   0.000140
    10  F    0.000007  -0.000314  -0.000001   0.000290  -0.000017   0.000051
    11  F    0.000017  -0.000380   0.000002  -0.001379   0.000238   0.000285
    12  C    0.008832   0.004709  -0.007756   0.023803  -0.000683   0.000629
    13  O   -0.000257  -0.003028   0.001341  -0.002352  -0.000100   0.000135
    14  H   -0.000024   0.000328  -0.000091   0.000855  -0.000009   0.000041
               7          8          9         10         11         12
     1  F    0.002040   0.000492   0.000011   0.000007   0.000017   0.008832
     2  C   -0.022146  -0.002024  -0.000635  -0.000314  -0.000380   0.004709
     3  F    0.002292   0.000142   0.000015  -0.000001   0.000002  -0.007756
     4  C   -0.005152  -0.000665  -0.000304   0.000290  -0.001379   0.023803
     5  F    0.000877  -0.000652   0.000011  -0.000017   0.000238  -0.000683
     6  F   -0.000934  -0.000386   0.000140   0.000051   0.000285   0.000629
     7  F    0.061841   0.000793  -0.000159  -0.000311  -0.000066  -0.037277
     8  C    0.000793   0.006601   0.000118   0.000101  -0.001847   0.001158
     9  F   -0.000159   0.000118   0.000099  -0.000035   0.000148   0.000683
    10  F   -0.000311   0.000101  -0.000035  -0.000019   0.000131   0.000788
    11  F   -0.000066  -0.001847   0.000148   0.000131   0.003598   0.000623
    12  C   -0.037277   0.001158   0.000683   0.000788   0.000623  -0.009667
    13  O    0.003723  -0.000053   0.000026  -0.000028   0.000012   0.004524
    14  H    0.000431  -0.000329   0.000010  -0.000001  -0.000001  -0.001329
              13         14
     1  F   -0.000257  -0.000024
     2  C   -0.003028   0.000328
     3  F    0.001341  -0.000091
     4  C   -0.002352   0.000855
     5  F   -0.000100  -0.000009
     6  F    0.000135   0.000041
     7  F    0.003723   0.000431
     8  C   -0.000053  -0.000329
     9  F    0.000026   0.000010
    10  F   -0.000028  -0.000001
    11  F    0.000012  -0.000001
    12  C    0.004524  -0.001329
    13  O    0.001948   0.000979
    14  H    0.000979  -0.001385
 Mulliken charges and spin densities:
               1          2
     1  F   -0.247793   0.034379
     2  C    0.598377   0.908724
     3  F   -0.251716   0.033485
     4  C    0.383190   0.016524
     5  F   -0.280708   0.001693
     6  F   -0.269383  -0.001741
     7  F   -0.246846   0.005952
     8  C    1.054242   0.003449
     9  F   -0.268110   0.000128
    10  F   -0.285654   0.000643
    11  F   -0.289589   0.001382
    12  C    0.236726  -0.010962
    13  O   -0.406691   0.006870
    14  H    0.273955  -0.000525
 Sum of Mulliken charges =  -0.00000   1.00000
 Mulliken charges and spin densities with hydrogens summed into heavy atoms:
               1          2
     1  F   -0.247793   0.034379
     2  C    0.598377   0.908724
     3  F   -0.251716   0.033485
     4  C    0.383190   0.016524
     5  F   -0.280708   0.001693
     6  F   -0.269383  -0.001741
     7  F   -0.246846   0.005952
     8  C    1.054242   0.003449
     9  F   -0.268110   0.000128
    10  F   -0.285654   0.000643
    11  F   -0.289589   0.001382
    12  C    0.236726  -0.010962
    13  O   -0.132736   0.006345
 Electronic spatial extent (au):  <R**2>=           1954.3182
 Charge=              0.0000 electrons
 Dipole moment (field-independent basis, Debye):
    X=              1.3994    Y=              1.3384    Z=              0.3713  Tot=              1.9716
 Quadrupole moment (field-independent basis, Debye-Ang):
   XX=            -69.0391   YY=            -66.0787   ZZ=            -71.3133
   XY=              3.7018   XZ=              0.8333   YZ=              1.7063
 Traceless Quadrupole moment (field-independent basis, Debye-Ang):
   XX=             -0.2288   YY=              2.7317   ZZ=             -2.5029
   XY=              3.7018   XZ=              0.8333   YZ=              1.7063
 Octapole moment (field-independent basis, Debye-Ang**2):
  XXX=             -4.1736  YYY=             10.1438  ZZZ=             -0.7750  XYY=              7.9146
  XXY=              4.7074  XXZ=              3.3051  XZZ=             -1.4587  YZZ=             -3.3537
  YYZ=              3.1592  XYZ=              2.8096
 Hexadecapole moment (field-independent basis, Debye-Ang**3):
 XXXX=          -1243.5525 YYYY=           -377.3901 ZZZZ=           -313.2445 XXXY=             -1.4603
 XXXZ=              3.2185 YYYX=             25.2638 YYYZ=              5.5660 ZZZX=             -2.5642
 ZZZY=             -2.4984 XXYY=           -264.1802 XXZZ=           -257.6175 YYZZ=           -122.6044
 XXYZ=              5.3117 YYXZ=              0.7642 ZZXY=             -2.7046
 N-N= 1.012258964159D+03 E-N=-4.463162819176D+03  KE= 1.023817801508D+03
                          Isotropic Fermi Contact Couplings
        Atom                 a.u.       MegaHertz       Gauss      10(-4) cm-1
     1  F(19)              0.03720     156.50439      55.84466      52.20425
     2  C(13)              0.10014     112.57278      40.16877      37.55024
     3  F(19)              0.03765     158.42424      56.52971      52.84464
     4  C(13)              0.01543      17.34225       6.18815       5.78475
     5  F(19)              0.00004       0.16772       0.05985       0.05594
     6  F(19)              0.00661      27.80631       9.92198       9.27519
     7  F(19)              0.04265     179.44932      64.03198      59.85785
     8  C(13)              0.00395       4.43851       1.58377       1.48053
     9  F(19)             -0.00014      -0.60816      -0.21701      -0.20286
    10  F(19)              0.00007       0.31175       0.11124       0.10399
    11  F(19)              0.00180       7.56570       2.69963       2.52365
    12  C(13)             -0.03582     -40.26580     -14.36784     -13.43123
    13  O(17)             -0.00020       0.12266       0.04377       0.04092
    14  H(1)              -0.00030      -1.33687      -0.47703      -0.44593
 --------------------------------------------------------
       Center         ----  Spin Dipole Couplings  ----
                      3XX-RR        3YY-RR        3ZZ-RR
 --------------------------------------------------------
     1   Atom       -0.201071     -0.235389      0.436459
     2   Atom       -0.394043     -0.318432      0.712475
     3   Atom       -0.268654     -0.217131      0.485784
     4   Atom        0.018227     -0.005768     -0.012459
     5   Atom        0.002900     -0.006298      0.003399
     6   Atom        0.016821     -0.010978     -0.005844
     7   Atom        0.005762     -0.087873      0.082110
     8   Atom        0.006820     -0.002608     -0.004212
     9   Atom        0.002045     -0.001353     -0.000691
    10   Atom        0.003450     -0.000526     -0.002924
    11   Atom        0.019282     -0.009811     -0.009472
    12   Atom       -0.004456     -0.006046      0.010502
    13   Atom       -0.023753     -0.008425      0.032178
    14   Atom       -0.003240      0.010572     -0.007332
 --------------------------------------------------------
                        XY            XZ            YZ
 --------------------------------------------------------
     1   Atom        0.201105      0.349582      0.484095
     2   Atom        0.286899      0.586507      0.674687
     3   Atom        0.117249      0.389868      0.468511
     4   Atom        0.022931      0.016651      0.013623
     5   Atom        0.009735      0.005041      0.006098
     6   Atom       -0.003477      0.019470     -0.004229
     7   Atom       -0.027600     -0.138104      0.045755
     8   Atom       -0.005137     -0.002985      0.001924
     9   Atom       -0.001254      0.000636      0.001152
    10   Atom        0.001851     -0.000509      0.000326
    11   Atom        0.000739     -0.000957     -0.000281
    12   Atom       -0.000823     -0.012502      0.003770
    13   Atom        0.001253      0.002864     -0.005072
    14   Atom       -0.006822      0.000467     -0.000936
 --------------------------------------------------------


 ---------------------------------------------------------------------------------
              Anisotropic Spin Dipole Couplings in Principal Axis System
 ---------------------------------------------------------------------------------

       Atom             a.u.   MegaHertz   Gauss  10(-4) cm-1        Axes

              Baa    -0.4904  -246.294   -87.884   -82.155 -0.1055  0.8972 -0.4288
     1 F(19)  Bbb    -0.3546  -178.101   -63.551   -59.408  0.9272 -0.0671 -0.3686
              Bcc     0.8450   424.395   151.435   141.563  0.3595  0.4365  0.8248
 
              Baa    -0.6530   -87.626   -31.267   -29.229  0.3239  0.7856 -0.5273
     2 C(13)  Bbb    -0.6450   -86.556   -30.885   -28.872  0.8749 -0.4607 -0.1490
              Bcc     1.2980   174.181    62.152    58.101  0.3600  0.4131  0.8365
 
              Baa    -0.4999  -251.073   -89.589   -83.749  0.5631  0.6376 -0.5258
     3 F(19)  Bbb    -0.3628  -182.201   -65.014   -60.776  0.7554 -0.6551  0.0146
              Bcc     0.8627   433.274   154.603   144.525  0.3351  0.4054  0.8505
 
              Baa    -0.0232    -3.117    -1.112    -1.040  0.0803 -0.6766  0.7320
     4 C(13)  Bbb    -0.0174    -2.341    -0.835    -0.781  0.6157 -0.5438 -0.5702
              Bcc     0.0407     5.458     1.947     1.821  0.7839  0.4965  0.3730
 
              Baa    -0.0129    -6.481    -2.313    -2.162 -0.4751  0.8622 -0.1756
     5 F(19)  Bbb    -0.0014    -0.723    -0.258    -0.241 -0.5791 -0.1562  0.8001
              Bcc     0.0143     7.204     2.571     2.403  0.6625  0.4818  0.5735
 
              Baa    -0.0177    -8.865    -3.163    -2.957 -0.4456  0.3019  0.8428
     6 F(19)  Bbb    -0.0110    -5.539    -1.976    -1.847  0.2589  0.9447 -0.2016
              Bcc     0.0287    14.404     5.140     4.805  0.8570 -0.1284  0.4991
 
              Baa    -0.1043   -52.366   -18.686   -17.467 -0.5290  0.6459 -0.5505
     7 F(19)  Bbb    -0.0929   -46.636   -16.641   -15.556  0.6075  0.7411  0.2857
              Bcc     0.1971    99.002    35.326    33.023 -0.5925  0.1833  0.7844
 
              Baa    -0.0055    -0.742    -0.265    -0.247 -0.0905 -0.6541  0.7510
     8 C(13)  Bbb    -0.0044    -0.593    -0.212    -0.198  0.4570  0.6427  0.6149
              Bcc     0.0099     1.335     0.476     0.445  0.8848 -0.3989 -0.2407
 
              Baa    -0.0026    -1.322    -0.472    -0.441  0.2849  0.7804 -0.5566
     9 F(19)  Bbb     0.0002     0.077     0.028     0.026  0.0909  0.5560  0.8262
              Bcc     0.0025     1.245     0.444     0.415  0.9542 -0.2860  0.0874
 
              Baa    -0.0031    -1.543    -0.551    -0.515  0.1389 -0.2242  0.9646
    10 F(19)  Bbb    -0.0011    -0.564    -0.201    -0.188 -0.3375  0.9050  0.2589
              Bcc     0.0042     2.107     0.752     0.703  0.9310  0.3615 -0.0500
 
              Baa    -0.0100    -5.007    -1.787    -1.670 -0.0064  0.8766  0.4812
    11 F(19)  Bbb    -0.0094    -4.702    -1.678    -1.569  0.0417 -0.4806  0.8760
              Bcc     0.0193     9.710     3.465     3.239  0.9991  0.0257 -0.0334
 
              Baa    -0.0118    -1.583    -0.565    -0.528  0.8368 -0.2114  0.5050
    12 C(13)  Bbb    -0.0064    -0.854    -0.305    -0.285  0.2586  0.9657 -0.0242
              Bcc     0.0182     2.436     0.869     0.813 -0.4826  0.1508  0.8628
 
              Baa    -0.0240     1.740     0.621     0.580  0.9933 -0.0990 -0.0595
    13 O(17)  Bbb    -0.0089     0.643     0.229     0.214  0.1053  0.9878  0.1147
              Bcc     0.0329    -2.383    -0.850    -0.795  0.0474 -0.1202  0.9916
 
              Baa    -0.0074    -3.942    -1.407    -1.315 -0.0711  0.0250  0.9972
    14 H(1)   Bbb    -0.0060    -3.221    -1.149    -1.074  0.9224  0.3820  0.0562
              Bcc     0.0134     7.163     2.556     2.389 -0.3795  0.9238 -0.0502
 

 ---------------------------------------------------------------------------------

 Calling FoFJK, ICntrl=      2127 FMM=F ISym2X=0 I1Cent= 0 IOpClX= 1 NMat=1 NMatS=1 NMatT=0.
 ***** Axes restored to original set *****
 -------------------------------------------------------------------
 Center     Atomic                   Forces (Hartrees/Bohr)
 Number     Number              X              Y              Z
 -------------------------------------------------------------------
      1        9          -0.000107896   -0.006161169   -0.038250754
      2        6           0.003572759   -0.008301366    0.001436761
      3        9           0.013843429    0.003589192    0.034010778
      4        6           0.004783280   -0.002694378   -0.004251001
      5        9           0.003161125   -0.001420397   -0.011396741
      6        9           0.002054284   -0.008640052    0.007692549
      7        9          -0.001493944   -0.004098568    0.008801284
      8        6           0.015549217    0.001306202   -0.002507291
      9        9           0.007354964    0.006909747    0.025380771
     10        9           0.004631868    0.020127591   -0.012664441
     11        9          -0.008575854   -0.017148593   -0.006318411
     12        6          -0.039391799    0.001661846   -0.043449245
     13        8          -0.002902478    0.014008440    0.037777034
     14        1          -0.002478956    0.000861506    0.003738707
 -------------------------------------------------------------------
 Cartesian Forces:  Max     0.043449245 RMS     0.015778207

 GradGradGradGradGradGradGradGradGradGradGradGradGradGradGradGradGradGrad
 Berny optimization.
 FormGI is forming the generalized inverse of G from B-inverse, IUseBI=4.
 Internal  Forces:  Max     0.045896876 RMS     0.013813520
 Search for a local minimum.
 Step number   1 out of a maximum of   72
 All quantities printed in internal units (Hartrees-Bohrs-Radians)
 Mixed Optimization -- RFO/linear search
 Second derivative matrix not updated -- first step.
 ITU=  0
     Eigenvalues ---    0.00237   0.00237   0.00237   0.00264   0.01295
     Eigenvalues ---    0.05897   0.06363   0.07068   0.07481   0.08850
     Eigenvalues ---    0.08850   0.10615   0.11890   0.16000   0.18246
     Eigenvalues ---    0.18830   0.21371   0.25000   0.25000   0.25000
     Eigenvalues ---    0.25000   0.25000   0.25000   0.28519   0.28519
     Eigenvalues ---    0.28519   0.40989   0.55021   0.55021   0.55021
     Eigenvalues ---    0.55021   0.55021   0.55021   0.55021   0.55021
     Eigenvalues ---    0.55473
 RFO step:  Lambda=-3.35943921D-02 EMin= 2.36824131D-03
 Linear search not attempted -- first point.
 Maximum step size (   0.300) exceeded in Quadratic search.
    -- Step size scaled by   0.975
 Iteration  1 RMS(Cart)=  0.13832608 RMS(Int)=  0.00645296
 Iteration  2 RMS(Cart)=  0.00878352 RMS(Int)=  0.00075180
 Iteration  3 RMS(Cart)=  0.00003847 RMS(Int)=  0.00075113
 Iteration  4 RMS(Cart)=  0.00000002 RMS(Int)=  0.00075113
 Variable       Old X    -DE/DX   Delta X   Delta X   Delta X     New X
                                 (Linear)    (Quad)   (Total)
    R1        2.55113  -0.03654   0.00000  -0.06100  -0.06100   2.49013
    R2        2.55113  -0.03477   0.00000  -0.05805  -0.05805   2.49308
    R3        2.91018  -0.01994   0.00000  -0.06096  -0.06096   2.84921
    R4        2.55113  -0.01177   0.00000  -0.01965  -0.01965   2.53148
    R5        2.55113  -0.01164   0.00000  -0.01943  -0.01943   2.53170
    R6        2.91018   0.01409   0.00000   0.04309   0.04309   2.95327
    R7        2.91018   0.01572   0.00000   0.04806   0.04806   2.95824
    R8        2.55113   0.00787   0.00000   0.01314   0.01314   2.56427
    R9        2.55113  -0.02498   0.00000  -0.04171  -0.04171   2.50942
   R10        2.55113  -0.02251   0.00000  -0.03757  -0.03757   2.51356
   R11        2.55113  -0.01965   0.00000  -0.03280  -0.03280   2.51833
   R12        2.70231  -0.04403   0.00000  -0.09675  -0.09675   2.60555
   R13        1.81414  -0.00013   0.00000  -0.00021  -0.00021   1.81392
    A1        2.08898  -0.02110   0.00000  -0.07395  -0.07450   2.01447
    A2        2.09569   0.01148   0.00000   0.03800   0.03746   2.13315
    A3        2.09569   0.00950   0.00000   0.03121   0.03066   2.12635
    A4        1.91063   0.00648   0.00000  -0.02244  -0.02567   1.88496
    A5        1.91063  -0.01462   0.00000  -0.05016  -0.05108   1.85955
    A6        1.91063  -0.01241   0.00000  -0.03760  -0.03746   1.87317
    A7        1.91063  -0.01294   0.00000  -0.03747  -0.03952   1.87111
    A8        1.91063  -0.01239   0.00000  -0.03241  -0.03375   1.87688
    A9        1.91063   0.04590   0.00000   0.18009   0.17960   2.09024
   A10        1.91063   0.01584   0.00000   0.05921   0.05787   1.96851
   A11        1.91063   0.01193   0.00000   0.04467   0.04334   1.95397
   A12        1.91063   0.00170   0.00000  -0.00257  -0.00237   1.90826
   A13        1.91063  -0.00926   0.00000  -0.01499  -0.01749   1.89314
   A14        1.91063  -0.01078   0.00000  -0.04435  -0.04419   1.86645
   A15        1.91063  -0.00944   0.00000  -0.04197  -0.04175   1.86888
   A16        1.91063   0.00651   0.00000   0.02106   0.02109   1.93172
   A17        1.91063  -0.00409   0.00000  -0.02113  -0.02108   1.88955
   A18        1.91063  -0.00273   0.00000  -0.01337  -0.01331   1.89732
   A19        1.91063  -0.00117   0.00000  -0.00257  -0.00247   1.90816
   A20        1.91063  -0.00336   0.00000  -0.01110  -0.01103   1.89960
   A21        1.91063   0.00484   0.00000   0.02711   0.02705   1.93769
   A22        1.91063  -0.00789   0.00000  -0.03973  -0.03973   1.87091
    D1       -1.00675   0.00031   0.00000   0.02292   0.02291  -0.98383
    D2        1.08765   0.00036   0.00000   0.01973   0.01960   1.10725
    D3       -3.10114   0.00211   0.00000   0.03180   0.03186  -3.06928
    D4        2.05394  -0.00234   0.00000  -0.04833  -0.04829   2.00565
    D5       -2.13485  -0.00229   0.00000  -0.05152  -0.05160  -2.18645
    D6       -0.04045  -0.00054   0.00000  -0.03945  -0.03935  -0.07980
    D7        3.14159   0.00739   0.00000   0.07019   0.06998  -3.07161
    D8        1.04720   0.00172   0.00000   0.02493   0.02336   1.07056
    D9       -1.04720   0.00493   0.00000   0.05055   0.04969  -0.99751
   D10       -1.04720  -0.00156   0.00000  -0.01096  -0.00972  -1.05691
   D11        3.14159  -0.00723   0.00000  -0.05622  -0.05634   3.08526
   D12        1.04720  -0.00402   0.00000  -0.03059  -0.03001   1.01719
   D13        1.04720   0.00344   0.00000   0.03668   0.03767   1.08486
   D14       -1.04720  -0.00223   0.00000  -0.00857  -0.00896  -1.05615
   D15        3.14159   0.00098   0.00000   0.01705   0.01737  -3.12422
   D16        1.04720  -0.00322   0.00000  -0.02861  -0.02843   1.01877
   D17       -1.04720  -0.00147   0.00000  -0.01405  -0.01392  -1.06112
   D18        3.14159  -0.00463   0.00000  -0.03888  -0.03875   3.10285
   D19       -1.04720   0.00404   0.00000   0.04175   0.04172  -1.00548
   D20        3.14159   0.00579   0.00000   0.05631   0.05623  -3.08536
   D21        1.04720   0.00263   0.00000   0.03148   0.03141   1.07860
   D22        3.14159  -0.00062   0.00000  -0.00279  -0.00284   3.13875
   D23        1.04720   0.00112   0.00000   0.01177   0.01167   1.05887
   D24       -1.04720  -0.00203   0.00000  -0.01306  -0.01316  -1.06035
   D25       -1.04720   0.00345   0.00000   0.02600   0.02614  -1.02106
   D26        3.14159  -0.00080   0.00000   0.01519   0.01515  -3.12645
   D27        1.04720  -0.00027   0.00000   0.00853   0.00844   1.05564
         Item               Value     Threshold  Converged?
 Maximum Force            0.045897     0.000450     NO 
 RMS     Force            0.013814     0.000300     NO 
 Maximum Displacement     0.486092     0.001800     NO 
 RMS     Displacement     0.134680     0.001200     NO 
 Predicted change in Energy=-1.880885D-02
 GradGradGradGradGradGradGradGradGradGradGradGradGradGradGradGradGradGrad

                          Input orientation:                          
 ---------------------------------------------------------------------
 Center     Atomic      Atomic             Coordinates (Angstroms)
 Number     Number       Type             X           Y           Z
 ---------------------------------------------------------------------
      1          9           0       -2.390033    0.152730    1.069393
      2          6           0       -1.988546   -0.270259   -0.112246
      3          9           0       -2.835076   -0.068199   -1.103743
      4          6           0        0.466182    0.310756    0.053893
      5          9           0        0.266792    0.595435    1.347620
      6          9           0        0.204753    1.415103   -0.658088
      7          9           0       -0.400307   -1.886389    0.400158
      8          6           0        1.991144    0.008268   -0.105325
      9          9           0        2.343389   -0.209001   -1.367114
     10          9           0        2.369395   -1.037879    0.623862
     11          9           0        2.695638    1.056692    0.319447
     12          6           0       -0.587619   -0.773103   -0.352724
     13          8           0       -0.442693   -1.053544   -1.694901
     14          1           0       -1.107014   -1.708369   -1.921320
 ---------------------------------------------------------------------
                    Distance matrix (angstroms):
                    1          2          3          4          5
     1  F    0.000000
     2  C    1.317719   0.000000
     3  F    2.229214   1.319283   0.000000
     4  C    3.035486   2.528017   3.518812   0.000000
     5  F    2.707788   2.822620   4.008887   1.339601   0.000000
     6  F    3.363137   2.819388   3.411649   1.339718   2.167619
     7  F    2.926583   2.323131   3.390521   2.387080   2.739007
     8  C    4.538231   3.989431   4.929005   1.562804   2.330065
     9  F    5.335981   4.510443   5.187069   2.411080   3.511289
    10  F    4.926276   4.485838   5.568790   2.401229   2.759072
    11  F    5.219541   4.887611   5.820623   2.365885   2.677535
    12  C    2.475536   1.507740   2.472243   1.565434   2.343946
    13  O    3.590062   2.346911   2.654029   2.397008   3.532624
    14  H    3.748892   2.473460   2.518886   3.233153   4.228572
                    6          7          8          9         10
     6  F    0.000000
     7  F    3.519351   0.000000
     8  C    2.340069   3.092617   0.000000
     9  F    2.777444   3.669434   1.327928   0.000000
    10  F    3.513715   2.905385   1.330118   2.156780   0.000000
    11  F    2.699730   4.272367   1.332642   2.137883   2.141572
    12  C    2.347200   1.356954   2.705876   3.152459   3.125341
    13  O    2.754702   2.254928   3.094795   2.929667   3.644825
    14  H    3.615600   2.433184   3.980360   3.802700   4.360382
                   11         12         13         14
    11  F    0.000000
    12  C    3.818342   0.000000
    13  O    4.284835   1.378800   0.000000
    14  H    5.208335   1.898680   0.959887   0.000000
 Stoichiometry    C4HF8O(2)
 Framework group  C1[X(C4HF8O)]
 Deg. of freedom    36
 Full point group                 C1      NOp   1
 Largest Abelian subgroup         C1      NOp   1
 Largest concise Abelian subgroup C1      NOp   1
                         Standard orientation:                         
 ---------------------------------------------------------------------
 Center     Atomic      Atomic             Coordinates (Angstroms)
 Number     Number       Type             X           Y           Z
 ---------------------------------------------------------------------
      1          9           0        2.444906   -1.322198    0.437336
      2          6           0        2.131892   -0.113134    0.017135
      3          9           0        2.996357    0.439697   -0.812073
      4          6           0       -0.370096   -0.391660   -0.213846
      5          9           0       -0.250221   -1.579940    0.392907
      6          9           0       -0.180957   -0.576477   -1.527207
      7          9           0        0.676996    0.669816    1.650293
      8          6           0       -1.853627    0.059657   -0.019416
      9          9           0       -2.133009    1.194143   -0.650512
     10          9           0       -2.164983    0.204597    1.265599
     11          9           0       -2.666915   -0.871660   -0.516553
     12          6           0        0.793241    0.517174    0.306973
     13          8           0        0.729153    1.734896   -0.336560
     14          1           0        1.458730    2.266799   -0.010708
 ---------------------------------------------------------------------
 Rotational constants (GHZ):           1.3956948           0.5722953           0.5488432
 Standard basis: 6-311+G(2d,2p) (5D, 7F)
 There are   386 symmetry adapted cartesian basis functions of A   symmetry.
 There are   360 symmetry adapted basis functions of A   symmetry.
   360 basis functions,   557 primitive gaussians,   386 cartesian basis functions
    53 alpha electrons       52 beta electrons
       nuclear repulsion energy      1008.0057040883 Hartrees.
 NAtoms=   14 NActive=   14 NUniq=   14 SFac= 1.00D+00 NAtFMM=   60 NAOKFM=F Big=F
 Integral buffers will be    131072 words long.
 Raffenetti 2 integral format.
 Two-electron integral symmetry is turned on.
 Nuclear repulsion after empirical dispersion term =     1007.9979731437 Hartrees.
 One-electron integrals computed using PRISM.
 NBasis=   360 RedAO= T EigKep=  9.80D-06  NBF=   360
 NBsUse=   360 1.00D-06 EigRej= -1.00D+00 NBFU=   360
 Initial guess from the checkpoint file:  "butene_2OH.chk"
 B after Tr=    -0.000000    0.000000    0.000000
         Rot=    0.999677    0.025203   -0.002040    0.002714 Ang=   2.91 deg.
 Initial guess <Sx>= 0.0000 <Sy>= 0.0000 <Sz>= 0.5000 <S**2>= 0.7553 S= 0.5026
 ExpMin= 4.38D-02 ExpMax= 1.14D+04 ExpMxC= 1.72D+03 IAcc=2 IRadAn=         4 AccDes= 0.00D+00
 Harris functional with IExCor= 4639 and IRadAn=       4 diagonalized for initial guess.
 HarFok:  IExCor= 4639 AccDes= 0.00D+00 IRadAn=         4 IDoV= 1 UseB2=F ITyADJ=14
 ICtDFT=  3500011 ScaDFX=  1.000000  1.000000  1.000000  1.000000
 FoFCou: FMM=F IPFlag=           0 FMFlag=      100000 FMFlg1=           0
         NFxFlg=           0 DoJE=T BraDBF=F KetDBF=T FulRan=T
         wScrn=  0.000000 ICntrl=       500 IOpCl=  0 I1Cent=   200000004 NGrid=           0
         NMat0=    1 NMatS0=      1 NMatT0=    0 NMatD0=    1 NMtDS0=    0 NMtDT0=    0
 Petite list used in FoFCou.
 Requested convergence on RMS density matrix=1.00D-08 within  32 cycles.
 Requested convergence on MAX density matrix=1.00D-06.
 Requested convergence on             energy=1.00D-06.
 No special actions if energy rises.
 SCF Done:  E(UwB97XD) =  -1026.95866026     A.U. after   14 cycles
            NFock= 14  Conv=0.36D-08     -V/T= 2.0027
 <Sx>= 0.0000 <Sy>= 0.0000 <Sz>= 0.5000 <S**2>= 0.7546 S= 0.5023
 <L.S>= 0.000000000000E+00
 Annihilation of the first spin contaminant:
 S**2 before annihilation     0.7546,   after     0.7500
 QCSCF skips out because SCF is already converged.
 Calling FoFJK, ICntrl=      2127 FMM=F ISym2X=0 I1Cent= 0 IOpClX= 1 NMat=1 NMatS=1 NMatT=0.
 ***** Axes restored to original set *****
 -------------------------------------------------------------------
 Center     Atomic                   Forces (Hartrees/Bohr)
 Number     Number              X              Y              Z
 -------------------------------------------------------------------
      1        9          -0.000484624    0.000266824   -0.010302886
      2        6          -0.000111812   -0.009119318    0.007794788
      3        9           0.004649378    0.004278806    0.006778613
      4        6           0.001711292   -0.002620482   -0.000126126
      5        9           0.001610892   -0.000718182    0.004646139
      6        9           0.000129756    0.001576646   -0.003602508
      7        9           0.006198332   -0.005224621    0.008811942
      8        6           0.012017024   -0.002857519   -0.001703661
      9        9          -0.007838183   -0.001522510   -0.000339146
     10        9          -0.007270938   -0.001053503   -0.000858744
     11        9          -0.006103020    0.002917695    0.001667055
     12        6          -0.009769315    0.013637887   -0.021732448
     13        8           0.005216627    0.000637600    0.012853520
     14        1           0.000044591   -0.000199323   -0.003886538
 -------------------------------------------------------------------
 Cartesian Forces:  Max     0.021732448 RMS     0.006571817

 GradGradGradGradGradGradGradGradGradGradGradGradGradGradGradGradGradGrad
 Berny optimization.
 Using GEDIIS/GDIIS optimizer.
 FormGI is forming the generalized inverse of G from B-inverse, IUseBI=4.
 Internal  Forces:  Max     0.013132311 RMS     0.005015811
 Search for a local minimum.
 Step number   2 out of a maximum of   72
 All quantities printed in internal units (Hartrees-Bohrs-Radians)
 Mixed Optimization -- RFO/linear search
 Update second derivatives using D2CorX and points    1    2
 DE= -1.33D-02 DEPred=-1.88D-02 R= 7.08D-01
 TightC=F SS=  1.41D+00  RLast= 3.49D-01 DXNew= 5.0454D-01 1.0470D+00
 Trust test= 7.08D-01 RLast= 3.49D-01 DXMaxT set to 5.05D-01
 ITU=  1  0
 Use linear search instead of GDIIS.
     Eigenvalues ---    0.00236   0.00237   0.00237   0.00313   0.01295
     Eigenvalues ---    0.04391   0.06301   0.07174   0.07533   0.08233
     Eigenvalues ---    0.08642   0.10694   0.14568   0.16142   0.18864
     Eigenvalues ---    0.20164   0.20680   0.23357   0.25000   0.25000
     Eigenvalues ---    0.25000   0.25000   0.27858   0.28121   0.28519
     Eigenvalues ---    0.36294   0.39891   0.51115   0.55021   0.55021
     Eigenvalues ---    0.55021   0.55021   0.55021   0.55021   0.55470
     Eigenvalues ---    0.57203
 RFO step:  Lambda=-7.67838171D-03 EMin= 2.36165854D-03
 Quartic linear search produced a step of -0.11063.
 Iteration  1 RMS(Cart)=  0.06439021 RMS(Int)=  0.01391825
 Iteration  2 RMS(Cart)=  0.01518793 RMS(Int)=  0.00380964
 Iteration  3 RMS(Cart)=  0.00035657 RMS(Int)=  0.00379088
 Iteration  4 RMS(Cart)=  0.00000245 RMS(Int)=  0.00379088
 Iteration  5 RMS(Cart)=  0.00000003 RMS(Int)=  0.00379088
 Variable       Old X    -DE/DX   Delta X   Delta X   Delta X     New X
                                 (Linear)    (Quad)   (Total)
    R1        2.49013  -0.00901   0.00675  -0.03381  -0.02707   2.46306
    R2        2.49308  -0.00742   0.00642  -0.03037  -0.02395   2.46914
    R3        2.84921  -0.00461   0.00674  -0.03292  -0.02618   2.82304
    R4        2.53148   0.00410   0.00217   0.00012   0.00229   2.53377
    R5        2.53170   0.00319   0.00215  -0.00124   0.00091   2.53261
    R6        2.95327  -0.00836  -0.00477  -0.01156  -0.01633   2.93695
    R7        2.95824  -0.00691  -0.00532  -0.00564  -0.01096   2.94728
    R8        2.56427   0.01003  -0.00145   0.02001   0.01856   2.58283
    R9        2.50942  -0.00151   0.00461  -0.01581  -0.01119   2.49823
   R10        2.51356  -0.00171   0.00416  -0.01479  -0.01063   2.50293
   R11        2.51833  -0.00040   0.00363  -0.01119  -0.00756   2.51077
   R12        2.60555  -0.00826   0.01070  -0.04821  -0.03751   2.56805
   R13        1.81392   0.00102   0.00002   0.00152   0.00155   1.81547
    A1        2.01447  -0.00590   0.00824  -0.05712  -0.06701   1.94746
    A2        2.13315   0.00505  -0.00414   0.01511  -0.00518   2.12797
    A3        2.12635   0.00033  -0.00339  -0.00307  -0.02267   2.10368
    A4        1.88496  -0.00029   0.00284   0.01871   0.02185   1.90681
    A5        1.85955   0.00241   0.00565  -0.00995  -0.00413   1.85543
    A6        1.87317   0.00502   0.00414   0.00774   0.01177   1.88495
    A7        1.87111   0.00318   0.00437  -0.00928  -0.00479   1.86632
    A8        1.87688   0.00360   0.00373  -0.00320   0.00045   1.87733
    A9        2.09024  -0.01313  -0.01987  -0.00116  -0.02108   2.06915
   A10        1.96851  -0.00916  -0.00640  -0.01700  -0.02358   1.94492
   A11        1.95397  -0.00792  -0.00479  -0.01733  -0.02232   1.93165
   A12        1.90826  -0.00749   0.00026  -0.01940  -0.01928   1.88898
   A13        1.89314   0.00743   0.00194   0.00719   0.00890   1.90204
   A14        1.86645   0.00984   0.00489   0.02626   0.03102   1.89746
   A15        1.86888   0.00908   0.00462   0.02454   0.02902   1.89790
   A16        1.93172   0.00378  -0.00233   0.02434   0.02241   1.95413
   A17        1.88955   0.00003   0.00233   0.00223   0.00454   1.89409
   A18        1.89732   0.00541   0.00147   0.03947   0.04106   1.93839
   A19        1.90816  -0.00423   0.00027  -0.04003  -0.04005   1.86811
   A20        1.89960  -0.00706   0.00122  -0.03781  -0.03732   1.86229
   A21        1.93769   0.00227  -0.00299   0.01303   0.00847   1.94616
   A22        1.87091   0.00670   0.00440   0.02317   0.02756   1.89847
    D1       -0.98383   0.00148  -0.00254   0.12175   0.11712  -0.86671
    D2        1.10725  -0.00143  -0.00217   0.08867   0.08415   1.19140
    D3       -3.06928   0.00449  -0.00352   0.12880   0.12272  -2.94657
    D4        2.00565  -0.00330   0.00534  -0.25308  -0.24516   1.76049
    D5       -2.18645  -0.00621   0.00571  -0.28617  -0.27813  -2.46458
    D6       -0.07980  -0.00029   0.00435  -0.24603  -0.23956  -0.31936
    D7       -3.07161  -0.00240  -0.00774  -0.00952  -0.01710  -3.08871
    D8        1.07056   0.00067  -0.00258   0.00685   0.00439   1.07495
    D9       -0.99751  -0.00087  -0.00550  -0.00035  -0.00570  -1.00321
   D10       -1.05691  -0.00004   0.00107   0.00276   0.00374  -1.05317
   D11        3.08526   0.00302   0.00623   0.01913   0.02522   3.11048
   D12        1.01719   0.00149   0.00332   0.01193   0.01513   1.03232
   D13        1.08486  -0.00199  -0.00417  -0.01062  -0.01479   1.07008
   D14       -1.05615   0.00108   0.00099   0.00575   0.00670  -1.04946
   D15       -3.12422  -0.00046  -0.00192  -0.00144  -0.00340  -3.12761
   D16        1.01877   0.00074   0.00315   0.02969   0.03292   1.05169
   D17       -1.06112   0.00105   0.00154   0.03717   0.03926  -1.02186
   D18        3.10285   0.00524   0.00429   0.06922   0.07301  -3.10733
   D19       -1.00548  -0.00326  -0.00462   0.00565   0.00106  -1.00442
   D20       -3.08536  -0.00295  -0.00622   0.01313   0.00740  -3.07797
   D21        1.07860   0.00124  -0.00347   0.04518   0.04115   1.11975
   D22        3.13875  -0.00107   0.00031   0.02203   0.02235  -3.12208
   D23        1.05887  -0.00076  -0.00129   0.02951   0.02869   1.08755
   D24       -1.06035   0.00344   0.00146   0.06155   0.06244  -0.99792
   D25       -1.02106   0.00000  -0.00289   0.01658   0.01316  -1.00790
   D26       -3.12645  -0.00360  -0.00168  -0.01399  -0.01555   3.14118
   D27        1.05564   0.00479  -0.00093   0.05189   0.05136   1.10701
         Item               Value     Threshold  Converged?
 Maximum Force            0.013132     0.000450     NO 
 RMS     Force            0.005016     0.000300     NO 
 Maximum Displacement     0.291041     0.001800     NO 
 RMS     Displacement     0.073696     0.001200     NO 
 Predicted change in Energy=-5.105991D-03
 GradGradGradGradGradGradGradGradGradGradGradGradGradGradGradGradGradGrad

                          Input orientation:                          
 ---------------------------------------------------------------------
 Center     Atomic      Atomic             Coordinates (Angstroms)
 Number     Number       Type             X           Y           Z
 ---------------------------------------------------------------------
      1          9           0       -2.382625    0.182490    1.025380
      2          6           0       -2.001269   -0.339643   -0.106339
      3          9           0       -2.732078    0.085813   -1.102399
      4          6           0        0.440368    0.304115    0.069650
      5          9           0        0.277585    0.566711    1.374380
      6          9           0        0.162882    1.406065   -0.640874
      7          9           0       -0.354758   -1.879814    0.454008
      8          6           0        1.952457    0.005592   -0.130097
      9          9           0        2.239130   -0.205798   -1.403216
     10          9           0        2.317011   -1.054497    0.575302
     11          9           0        2.643476    1.058408    0.293408
     12          6           0       -0.595223   -0.789749   -0.334668
     13          8           0       -0.378211   -1.066871   -1.647245
     14          1           0       -1.002740   -1.740581   -1.928378
 ---------------------------------------------------------------------
                    Distance matrix (angstroms):
                    1          2          3          4          5
     1  F    0.000000
     2  C    1.303396   0.000000
     3  F    2.158449   1.306611   0.000000
     4  C    2.982868   2.531203   3.389066   0.000000
     5  F    2.710377   2.864817   3.927310   1.340812   0.000000
     6  F    3.279199   2.831391   3.215099   1.340200   2.186074
     7  F    2.948188   2.323168   3.455104   2.355738   2.689318
     8  C    4.489917   3.968841   4.785047   1.554165   2.320238
     9  F    5.235405   4.436303   4.988831   2.380103   3.487044
    10  F    4.880501   4.429807   5.441350   2.371350   2.725087
    11  F    5.154097   4.867032   5.638333   2.339383   2.647208
    12  C    2.447404   1.493886   2.433551   1.559635   2.350027
    13  O    3.566722   2.353204   2.676981   2.344654   3.496982
    14  H    3.785098   2.505896   2.647370   3.202414   4.227415
                    6          7          8          9         10
     6  F    0.000000
     7  F    3.501959   0.000000
     8  C    2.329119   3.036309   0.000000
     9  F    2.736799   3.602758   1.322006   0.000000
    10  F    3.489086   2.798966   1.324491   2.154273   0.000000
    11  F    2.673405   4.200994   1.328641   2.154123   2.156481
    12  C    2.343093   1.366775   2.676768   3.084858   3.062555
    13  O    2.724147   2.253151   2.980592   2.766130   3.493436
    14  H    3.594123   2.472858   3.875064   3.625062   4.214247
                   11         12         13         14
    11  F    0.000000
    12  C    3.781446   0.000000
    13  O    4.172954   1.358951   0.000000
    14  H    5.105445   1.900016   0.960706   0.000000
 Stoichiometry    C4HF8O(2)
 Framework group  C1[X(C4HF8O)]
 Deg. of freedom    36
 Full point group                 C1      NOp   1
 Largest Abelian subgroup         C1      NOp   1
 Largest concise Abelian subgroup C1      NOp   1
                         Standard orientation:                         
 ---------------------------------------------------------------------
 Center     Atomic      Atomic             Coordinates (Angstroms)
 Number     Number       Type             X           Y           Z
 ---------------------------------------------------------------------
      1          9           0        2.452942   -1.235699    0.466127
      2          6           0        2.145283   -0.024642    0.095278
      3          9           0        2.873623    0.367973   -0.915962
      4          6           0       -0.340781   -0.413402   -0.179195
      5          9           0       -0.237551   -1.560883    0.506667
      6          9           0       -0.122075   -0.654445   -1.479272
      7          9           0        0.598104    0.720328    1.660005
      8          6           0       -1.820461    0.042961   -0.046128
      9          9           0       -2.051873    1.141544   -0.744172
     10          9           0       -2.128838    0.265767    1.222547
     11          9           0       -2.598519   -0.928892   -0.510253
     12          6           0        0.783163    0.547376    0.316906
     13          8           0        0.627165    1.714302   -0.361841
     14          1           0        1.307138    2.330593   -0.077622
 ---------------------------------------------------------------------
 Rotational constants (GHZ):           1.3924452           0.5931398           0.5730620
 Standard basis: 6-311+G(2d,2p) (5D, 7F)
 There are   386 symmetry adapted cartesian basis functions of A   symmetry.
 There are   360 symmetry adapted basis functions of A   symmetry.
   360 basis functions,   557 primitive gaussians,   386 cartesian basis functions
    53 alpha electrons       52 beta electrons
       nuclear repulsion energy      1018.1832560478 Hartrees.
 NAtoms=   14 NActive=   14 NUniq=   14 SFac= 1.00D+00 NAtFMM=   60 NAOKFM=F Big=F
 Integral buffers will be    131072 words long.
 Raffenetti 2 integral format.
 Two-electron integral symmetry is turned on.
 Nuclear repulsion after empirical dispersion term =     1018.1754499227 Hartrees.
 One-electron integrals computed using PRISM.
 NBasis=   360 RedAO= T EigKep=  9.38D-06  NBF=   360
 NBsUse=   360 1.00D-06 EigRej= -1.00D+00 NBFU=   360
 Initial guess from the checkpoint file:  "butene_2OH.chk"
 B after Tr=    -0.000000   -0.000000    0.000000
         Rot=    0.999681    0.024130    0.002697   -0.006937 Ang=   2.89 deg.
 Initial guess <Sx>= 0.0000 <Sy>= 0.0000 <Sz>= 0.5000 <S**2>= 0.7546 S= 0.5023
 ExpMin= 4.38D-02 ExpMax= 1.14D+04 ExpMxC= 1.72D+03 IAcc=2 IRadAn=         4 AccDes= 0.00D+00
 Harris functional with IExCor= 4639 and IRadAn=       4 diagonalized for initial guess.
 HarFok:  IExCor= 4639 AccDes= 0.00D+00 IRadAn=         4 IDoV= 1 UseB2=F ITyADJ=14
 ICtDFT=  3500011 ScaDFX=  1.000000  1.000000  1.000000  1.000000
 FoFCou: FMM=F IPFlag=           0 FMFlag=      100000 FMFlg1=           0
         NFxFlg=           0 DoJE=T BraDBF=F KetDBF=T FulRan=T
         wScrn=  0.000000 ICntrl=       500 IOpCl=  0 I1Cent=   200000004 NGrid=           0
         NMat0=    1 NMatS0=      1 NMatT0=    0 NMatD0=    1 NMtDS0=    0 NMtDT0=    0
 Petite list used in FoFCou.
 Requested convergence on RMS density matrix=1.00D-08 within  32 cycles.
 Requested convergence on MAX density matrix=1.00D-06.
 Requested convergence on             energy=1.00D-06.
 No special actions if energy rises.
 SCF Done:  E(UwB97XD) =  -1026.96511655     A.U. after   13 cycles
            NFock= 13  Conv=0.78D-08     -V/T= 2.0025
 <Sx>= 0.0000 <Sy>= 0.0000 <Sz>= 0.5000 <S**2>= 0.7535 S= 0.5018
 <L.S>= 0.000000000000E+00
 Annihilation of the first spin contaminant:
 S**2 before annihilation     0.7535,   after     0.7500
 QCSCF skips out because SCF is already converged.
 Calling FoFJK, ICntrl=      2127 FMM=F ISym2X=0 I1Cent= 0 IOpClX= 1 NMat=1 NMatS=1 NMatT=0.
 ***** Axes restored to original set *****
 -------------------------------------------------------------------
 Center     Atomic                   Forces (Hartrees/Bohr)
 Number     Number              X              Y              Z
 -------------------------------------------------------------------
      1        9           0.003084633    0.003567509    0.007610040
      2        6          -0.012984355   -0.015716131    0.004758497
      3        9           0.001543497    0.005566025   -0.009381901
      4        6           0.001400853   -0.001846511    0.001551811
      5        9          -0.000636907    0.002180622    0.002366166
      6        9          -0.002126172    0.004304966   -0.000608976
      7        9          -0.001787988   -0.002274895    0.004543367
      8        6          -0.003733387   -0.002641529   -0.000817547
      9        9           0.001079448    0.000413361   -0.002684857
     10        9           0.000910020   -0.001785725    0.001528088
     11        9           0.001163413    0.000640418    0.000274404
     12        6           0.013723573    0.012206896   -0.005753787
     13        8          -0.001530186   -0.005132842   -0.000780966
     14        1          -0.000106442    0.000517836   -0.002604339
 -------------------------------------------------------------------
 Cartesian Forces:  Max     0.015716131 RMS     0.005246041

 GradGradGradGradGradGradGradGradGradGradGradGradGradGradGradGradGradGrad
 Berny optimization.
 Using GEDIIS/GDIIS optimizer.
 FormGI is forming the generalized inverse of G from B-inverse, IUseBI=4.
 Internal  Forces:  Max     0.008765213 RMS     0.003154403
 Search for a local minimum.
 Step number   3 out of a maximum of   72
 All quantities printed in internal units (Hartrees-Bohrs-Radians)
 Mixed Optimization -- RFO/linear search
 Update second derivatives using D2CorX and points    2    3
 DE= -6.46D-03 DEPred=-5.11D-03 R= 1.26D+00
 TightC=F SS=  1.41D+00  RLast= 5.20D-01 DXNew= 8.4853D-01 1.5591D+00
 Trust test= 1.26D+00 RLast= 5.20D-01 DXMaxT set to 8.49D-01
 ITU=  1  1  0
 Use linear search instead of GDIIS.
     Eigenvalues ---    0.00219   0.00237   0.00238   0.00663   0.01295
     Eigenvalues ---    0.04614   0.05930   0.07274   0.07782   0.08628
     Eigenvalues ---    0.08930   0.12180   0.14266   0.15763   0.19208
     Eigenvalues ---    0.19896   0.20525   0.24858   0.24998   0.25000
     Eigenvalues ---    0.25000   0.26534   0.27648   0.28517   0.29262
     Eigenvalues ---    0.38167   0.42350   0.53650   0.55021   0.55021
     Eigenvalues ---    0.55021   0.55021   0.55021   0.55369   0.55476
     Eigenvalues ---    0.63233
 RFO step:  Lambda=-4.37876217D-03 EMin= 2.18901616D-03
 Quartic linear search produced a step of  0.23789.
 Iteration  1 RMS(Cart)=  0.05720047 RMS(Int)=  0.02522593
 Iteration  2 RMS(Cart)=  0.02874877 RMS(Int)=  0.00684359
 Iteration  3 RMS(Cart)=  0.00134465 RMS(Int)=  0.00669900
 Iteration  4 RMS(Cart)=  0.00002641 RMS(Int)=  0.00669899
 Iteration  5 RMS(Cart)=  0.00000086 RMS(Int)=  0.00669899
 Variable       Old X    -DE/DX   Delta X   Delta X   Delta X     New X
                                 (Linear)    (Quad)   (Total)
    R1        2.46306   0.00713  -0.00644   0.00439  -0.00205   2.46101
    R2        2.46914   0.00810  -0.00570   0.00708   0.00138   2.47052
    R3        2.82304   0.00634  -0.00623   0.01360   0.00737   2.83041
    R4        2.53377   0.00281   0.00054   0.00571   0.00626   2.54003
    R5        2.53261   0.00430   0.00022   0.00796   0.00818   2.54079
    R6        2.93695   0.00030  -0.00388  -0.00347  -0.00736   2.92959
    R7        2.94728   0.00002  -0.00261  -0.00284  -0.00544   2.94184
    R8        2.58283   0.00412   0.00442   0.01309   0.01751   2.60034
    R9        2.49823   0.00275  -0.00266   0.00145  -0.00121   2.49702
   R10        2.50293   0.00249  -0.00253   0.00116  -0.00137   2.50156
   R11        2.51077   0.00120  -0.00180  -0.00020  -0.00200   2.50877
   R12        2.56805   0.00395  -0.00892  -0.00217  -0.01110   2.55695
   R13        1.81547   0.00047   0.00037   0.00131   0.00167   1.81715
    A1        1.94746   0.00877  -0.01594  -0.01920  -0.07066   1.87680
    A2        2.12797  -0.00508  -0.00123  -0.05079  -0.07571   2.05226
    A3        2.10368  -0.00743  -0.00539  -0.06519  -0.09489   2.00880
    A4        1.90681  -0.00230   0.00520  -0.00807  -0.00304   1.90377
    A5        1.85543   0.00267  -0.00098   0.00960   0.00871   1.86414
    A6        1.88495   0.00251   0.00280   0.01222   0.01500   1.89995
    A7        1.86632   0.00311  -0.00114   0.01277   0.01156   1.87787
    A8        1.87733   0.00203   0.00011   0.00767   0.00770   1.88503
    A9        2.06915  -0.00797  -0.00502  -0.03378  -0.03877   2.03038
   A10        1.94492   0.00043  -0.00561  -0.00370  -0.00944   1.93549
   A11        1.93165   0.00016  -0.00531  -0.00413  -0.00957   1.92209
   A12        1.88898   0.00080  -0.00459  -0.00485  -0.00951   1.87947
   A13        1.90204   0.00009   0.00212   0.00677   0.00871   1.91075
   A14        1.89746  -0.00090   0.00738   0.00245   0.00975   1.90721
   A15        1.89790  -0.00062   0.00690   0.00367   0.01050   1.90841
   A16        1.95413   0.00310   0.00533   0.02437   0.02960   1.98373
   A17        1.89409  -0.00311   0.00108  -0.02975  -0.02840   1.86570
   A18        1.93839  -0.00105   0.00977   0.00962   0.01910   1.95749
   A19        1.86811  -0.00019  -0.00953  -0.01265  -0.02205   1.84606
   A20        1.86229   0.00069  -0.00888   0.00594  -0.00372   1.85857
   A21        1.94616   0.00074   0.00202   0.00285   0.00452   1.95068
   A22        1.89847   0.00430   0.00656   0.03279   0.03934   1.93781
    D1       -0.86671   0.00296   0.02786   0.09062   0.11098  -0.75573
    D2        1.19140   0.00259   0.02002   0.07065   0.08285   1.27425
    D3       -2.94657   0.00073   0.02919   0.06035   0.08140  -2.86517
    D4        1.76049  -0.00323  -0.05832  -0.22648  -0.27666   1.48383
    D5       -2.46458  -0.00360  -0.06616  -0.24646  -0.30479  -2.76937
    D6       -0.31936  -0.00546  -0.05699  -0.25675  -0.30624  -0.62561
    D7       -3.08871   0.00043  -0.00407   0.03049   0.02645  -3.06225
    D8        1.07495  -0.00008   0.00104   0.02726   0.02828   1.10323
    D9       -1.00321   0.00010  -0.00136   0.02819   0.02683  -0.97638
   D10       -1.05317   0.00058   0.00089   0.03201   0.03294  -1.02023
   D11        3.11048   0.00007   0.00600   0.02878   0.03477  -3.13793
   D12        1.03232   0.00025   0.00360   0.02971   0.03332   1.06565
   D13        1.07008   0.00033  -0.00352   0.02938   0.02587   1.09595
   D14       -1.04946  -0.00018   0.00159   0.02615   0.02770  -1.02176
   D15       -3.12761  -0.00000  -0.00081   0.02708   0.02625  -3.10136
   D16        1.05169  -0.00080   0.00783   0.00419   0.01204   1.06373
   D17       -1.02186   0.00134   0.00934   0.03452   0.04413  -0.97772
   D18       -3.10733   0.00022   0.01737   0.03464   0.05194  -3.05539
   D19       -1.00442  -0.00051   0.00025   0.00312   0.00330  -1.00111
   D20       -3.07797   0.00163   0.00176   0.03346   0.03540  -3.04257
   D21        1.11975   0.00051   0.00979   0.03358   0.04320   1.16295
   D22       -3.12208  -0.00076   0.00532   0.00339   0.00860  -3.11349
   D23        1.08755   0.00138   0.00682   0.03372   0.04069   1.12825
   D24       -0.99792   0.00026   0.01485   0.03384   0.04850  -0.94942
   D25       -1.00790   0.00324   0.00313   0.06020   0.06317  -0.94474
   D26        3.14118  -0.00038  -0.00370   0.02071   0.01704  -3.12496
   D27        1.10701  -0.00095   0.01222   0.03086   0.04322   1.15023
         Item               Value     Threshold  Converged?
 Maximum Force            0.008765     0.000450     NO 
 RMS     Force            0.003154     0.000300     NO 
 Maximum Displacement     0.294643     0.001800     NO 
 RMS     Displacement     0.075393     0.001200     NO 
 Predicted change in Energy=-3.675330D-03
 GradGradGradGradGradGradGradGradGradGradGradGradGradGradGradGradGradGrad

                          Input orientation:                          
 ---------------------------------------------------------------------
 Center     Atomic      Atomic             Coordinates (Angstroms)
 Number     Number       Type             X           Y           Z
 ---------------------------------------------------------------------
      1          9           0       -2.335131    0.183261    0.999012
      2          6           0       -2.030192   -0.426574   -0.110550
      3          9           0       -2.579087    0.241732   -1.090969
      4          6           0        0.409888    0.313931    0.078962
      5          9           0        0.264879    0.578217    1.388846
      6          9           0        0.109613    1.417534   -0.627897
      7          9           0       -0.332998   -1.863239    0.514289
      8          6           0        1.911052    0.003422   -0.152188
      9          9           0        2.163107   -0.174479   -1.437034
     10          9           0        2.260609   -1.081724    0.520587
     11          9           0        2.610515    1.040639    0.292118
     12          6           0       -0.596362   -0.803717   -0.323289
     13          8           0       -0.335247   -1.108661   -1.615440
     14          1           0       -0.934640   -1.788102   -1.937536
 ---------------------------------------------------------------------
                    Distance matrix (angstroms):
                    1          2          3          4          5
     1  F    0.000000
     2  C    1.302311   0.000000
     3  F    2.104983   1.307341   0.000000
     4  C    2.898050   2.557000   3.210596   0.000000
     5  F    2.658574   2.919785   3.788252   1.344124   0.000000
     6  F    3.185441   2.871784   2.970868   1.344528   2.189934
     7  F    2.903731   2.309740   3.471696   2.341252   2.661393
     8  C    4.403144   3.964849   4.593414   1.550271   2.327028
     9  F    5.128006   4.405323   4.772986   2.368664   3.486462
    10  F    4.790606   4.386174   5.269849   2.359673   2.737191
    11  F    5.068946   4.883750   5.429839   2.327294   2.630333
    12  C    2.397066   1.497786   2.369281   1.556753   2.362813
    13  O    3.536094   2.367018   2.670852   2.334522   3.497348
    14  H    3.804072   2.528215   2.746108   3.208203   4.254777
                    6          7          8          9         10
     6  F    0.000000
     7  F    3.501995   0.000000
     8  C    2.339058   2.994056   0.000000
     9  F    2.721405   3.590280   1.321366   0.000000
    10  F    3.491717   2.708801   1.323767   2.159833   0.000000
    11  F    2.691280   4.140789   1.327583   2.160243   2.163113
    12  C    2.350562   1.376040   2.639672   3.041551   2.991939
    13  O    2.748600   2.259455   2.902359   2.673256   3.361815
    14  H    3.616867   2.525681   3.807228   3.528501   4.092793
                   11         12         13         14
    11  F    0.000000
    12  C    3.750257   0.000000
    13  O    4.115310   1.353080   0.000000
    14  H    5.053836   1.920739   0.961592   0.000000
 Stoichiometry    C4HF8O(2)
 Framework group  C1[X(C4HF8O)]
 Deg. of freedom    36
 Full point group                 C1      NOp   1
 Largest Abelian subgroup         C1      NOp   1
 Largest concise Abelian subgroup C1      NOp   1
                         Standard orientation:                         
 ---------------------------------------------------------------------
 Center     Atomic      Atomic             Coordinates (Angstroms)
 Number     Number       Type             X           Y           Z
 ---------------------------------------------------------------------
      1          9           0        2.423402   -1.127479    0.549568
      2          6           0        2.177272    0.088971    0.155001
      3          9           0        2.703289    0.231597   -1.033319
      4          6           0       -0.306391   -0.442031   -0.141145
      5          9           0       -0.202750   -1.531624    0.639057
      6          9           0       -0.060115   -0.789628   -1.416402
      7          9           0        0.558664    0.816723    1.633306
      8          6           0       -1.781273    0.028621   -0.060202
      9          9           0       -1.997460    1.044066   -0.877602
     10          9           0       -2.077199    0.388612    1.178827
     11          9           0       -2.550702   -0.992711   -0.417042
     12          6           0        0.773276    0.592136    0.292788
     13          8           0        0.555889    1.706207   -0.443699
     14          1           0        1.201424    2.388154   -0.236595
 ---------------------------------------------------------------------
 Rotational constants (GHZ):           1.3766300           0.6163803           0.5990044
 Standard basis: 6-311+G(2d,2p) (5D, 7F)
 There are   386 symmetry adapted cartesian basis functions of A   symmetry.
 There are   360 symmetry adapted basis functions of A   symmetry.
   360 basis functions,   557 primitive gaussians,   386 cartesian basis functions
    53 alpha electrons       52 beta electrons
       nuclear repulsion energy      1026.3007996284 Hartrees.
 NAtoms=   14 NActive=   14 NUniq=   14 SFac= 1.00D+00 NAtFMM=   60 NAOKFM=F Big=F
 Integral buffers will be    131072 words long.
 Raffenetti 2 integral format.
 Two-electron integral symmetry is turned on.
 Nuclear repulsion after empirical dispersion term =     1026.2929384802 Hartrees.
 One-electron integrals computed using PRISM.
 NBasis=   360 RedAO= T EigKep=  9.13D-06  NBF=   360
 NBsUse=   360 1.00D-06 EigRej= -1.00D+00 NBFU=   360
 Initial guess from the checkpoint file:  "butene_2OH.chk"
 B after Tr=     0.000000    0.000000    0.000000
         Rot=    0.999073    0.042654   -0.000789   -0.005685 Ang=   4.93 deg.
 Initial guess <Sx>= 0.0000 <Sy>= 0.0000 <Sz>= 0.5000 <S**2>= 0.7537 S= 0.5018
 ExpMin= 4.38D-02 ExpMax= 1.14D+04 ExpMxC= 1.72D+03 IAcc=2 IRadAn=         4 AccDes= 0.00D+00
 Harris functional with IExCor= 4639 and IRadAn=       4 diagonalized for initial guess.
 HarFok:  IExCor= 4639 AccDes= 0.00D+00 IRadAn=         4 IDoV= 1 UseB2=F ITyADJ=14
 ICtDFT=  3500011 ScaDFX=  1.000000  1.000000  1.000000  1.000000
 FoFCou: FMM=F IPFlag=           0 FMFlag=      100000 FMFlg1=           0
         NFxFlg=           0 DoJE=T BraDBF=F KetDBF=T FulRan=T
         wScrn=  0.000000 ICntrl=       500 IOpCl=  0 I1Cent=   200000004 NGrid=           0
         NMat0=    1 NMatS0=      1 NMatT0=    0 NMatD0=    1 NMtDS0=    0 NMtDT0=    0
 Petite list used in FoFCou.
 Requested convergence on RMS density matrix=1.00D-08 within  32 cycles.
 Requested convergence on MAX density matrix=1.00D-06.
 Requested convergence on             energy=1.00D-06.
 No special actions if energy rises.
 SCF Done:  E(UwB97XD) =  -1026.96666865     A.U. after   13 cycles
            NFock= 13  Conv=0.59D-08     -V/T= 2.0024
 <Sx>= 0.0000 <Sy>= 0.0000 <Sz>= 0.5000 <S**2>= 0.7528 S= 0.5014
 <L.S>= 0.000000000000E+00
 Annihilation of the first spin contaminant:
 S**2 before annihilation     0.7528,   after     0.7500
 QCSCF skips out because SCF is already converged.
 Calling FoFJK, ICntrl=      2127 FMM=F ISym2X=0 I1Cent= 0 IOpClX= 1 NMat=1 NMatS=1 NMatT=0.
 ***** Axes restored to original set *****
 -------------------------------------------------------------------
 Center     Atomic                   Forces (Hartrees/Bohr)
 Number     Number              X              Y              Z
 -------------------------------------------------------------------
      1        9          -0.000472698   -0.003820497    0.019425763
      2        6          -0.009324410    0.009438177   -0.000648758
      3        9          -0.004726955   -0.000027339   -0.018234167
      4        6          -0.004769625    0.003261760    0.001913763
      5        9           0.000539123    0.000526841   -0.002446892
      6        9           0.000086295    0.001173864    0.001470911
      7        9          -0.003169355   -0.000866430    0.000337871
      8        6          -0.007866451   -0.000311719    0.000185319
      9        9           0.004699959    0.000931693   -0.001410467
     10        9           0.004229418   -0.000826630    0.000546214
     11        9           0.003939540   -0.000452141   -0.000485352
     12        6           0.018660170   -0.005518556    0.002860929
     13        8          -0.001296645   -0.005056269   -0.004597315
     14        1          -0.000528366    0.001547247    0.001082181
 -------------------------------------------------------------------
 Cartesian Forces:  Max     0.019425763 RMS     0.006059971

 GradGradGradGradGradGradGradGradGradGradGradGradGradGradGradGradGradGrad
 Berny optimization.
 Using GEDIIS/GDIIS optimizer.
 FormGI is forming the generalized inverse of G from B-inverse, IUseBI=4.
 Internal  Forces:  Max     0.015645431 RMS     0.004648704
 Search for a local minimum.
 Step number   4 out of a maximum of   72
 All quantities printed in internal units (Hartrees-Bohrs-Radians)
 Mixed Optimization -- RFO/linear search
 Update second derivatives using D2CorX and points    3    4
 DE= -1.55D-03 DEPred=-3.68D-03 R= 4.22D-01
 Trust test= 4.22D-01 RLast= 5.85D-01 DXMaxT set to 8.49D-01
 ITU=  0  1  1  0
 Use linear search instead of GDIIS.
     Eigenvalues ---    0.00223   0.00237   0.00238   0.01272   0.04205
     Eigenvalues ---    0.04905   0.05615   0.07329   0.07897   0.08777
     Eigenvalues ---    0.09082   0.12059   0.13762   0.15728   0.19490
     Eigenvalues ---    0.19548   0.20349   0.23431   0.24986   0.24998
     Eigenvalues ---    0.25000   0.25068   0.27717   0.28517   0.28845
     Eigenvalues ---    0.39150   0.41699   0.53770   0.54192   0.55021
     Eigenvalues ---    0.55021   0.55021   0.55021   0.55109   0.55477
     Eigenvalues ---    0.60944
 RFO step:  Lambda=-4.70183806D-03 EMin= 2.22755567D-03
 Quartic linear search produced a step of -0.32274.
 Iteration  1 RMS(Cart)=  0.06790572 RMS(Int)=  0.01058449
 Iteration  2 RMS(Cart)=  0.01254059 RMS(Int)=  0.00153643
 Iteration  3 RMS(Cart)=  0.00025964 RMS(Int)=  0.00151121
 Iteration  4 RMS(Cart)=  0.00000019 RMS(Int)=  0.00151121
 Variable       Old X    -DE/DX   Delta X   Delta X   Delta X     New X
                                 (Linear)    (Quad)   (Total)
    R1        2.46101   0.01487   0.00066   0.01703   0.01770   2.47871
    R2        2.47052   0.01565  -0.00045   0.01936   0.01891   2.48943
    R3        2.83041   0.01539  -0.00238   0.03675   0.03437   2.86477
    R4        2.54003  -0.00234  -0.00202   0.00125  -0.00077   2.53926
    R5        2.54079   0.00017  -0.00264   0.00460   0.00196   2.54275
    R6        2.92959   0.00515   0.00237   0.00348   0.00586   2.93544
    R7        2.94184   0.00359   0.00176   0.00118   0.00294   2.94478
    R8        2.60034   0.00027  -0.00565   0.00812   0.00247   2.60281
    R9        2.49702   0.00214   0.00039   0.00351   0.00390   2.50092
   R10        2.50156   0.00207   0.00044   0.00315   0.00359   2.50515
   R11        2.50877   0.00156   0.00065   0.00244   0.00309   2.51186
   R12        2.55695   0.00380   0.00358   0.00332   0.00690   2.56385
   R13        1.81715  -0.00113  -0.00054  -0.00047  -0.00101   1.81613
    A1        1.87680   0.01253   0.02281   0.03268   0.06325   1.94006
    A2        2.05226  -0.00452   0.02444  -0.01720   0.01297   2.06523
    A3        2.00880  -0.00427   0.03062  -0.02519   0.01127   2.02007
    A4        1.90377  -0.00072   0.00098  -0.00674  -0.00573   1.89804
    A5        1.86414  -0.00034  -0.00281   0.00361   0.00078   1.86492
    A6        1.89995  -0.00027  -0.00484   0.00905   0.00420   1.90415
    A7        1.87787  -0.00088  -0.00373   0.00493   0.00124   1.87911
    A8        1.88503   0.00077  -0.00248   0.01060   0.00812   1.89315
    A9        2.03038   0.00131   0.01251  -0.02145  -0.00894   2.02144
   A10        1.93549   0.00542   0.00305   0.00439   0.00742   1.94290
   A11        1.92209   0.00478   0.00309   0.00430   0.00736   1.92945
   A12        1.87947   0.00407   0.00307   0.00079   0.00387   1.88334
   A13        1.91075  -0.00411  -0.00281   0.00069  -0.00216   1.90859
   A14        1.90721  -0.00545  -0.00315  -0.00630  -0.00944   1.89778
   A15        1.90841  -0.00481  -0.00339  -0.00408  -0.00747   1.90094
   A16        1.98373  -0.00067  -0.00955   0.01124   0.00176   1.98549
   A17        1.86570  -0.00158   0.00916  -0.02117  -0.01212   1.85358
   A18        1.95749  -0.00245  -0.00616   0.00207  -0.00405   1.95344
   A19        1.84606   0.00229   0.00712  -0.00125   0.00580   1.85187
   A20        1.85857   0.00334   0.00120   0.01020   0.01158   1.87015
   A21        1.95068  -0.00071  -0.00146  -0.00107  -0.00264   1.94804
   A22        1.93781  -0.00210  -0.01270   0.01238  -0.00032   1.93749
    D1       -0.75573  -0.00574  -0.03582  -0.20336  -0.23773  -0.99346
    D2        1.27425  -0.00432  -0.02674  -0.21217  -0.23739   1.03686
    D3       -2.86517  -0.00781  -0.02627  -0.22662  -0.25124  -3.11641
    D4        1.48383   0.00425   0.08929  -0.19734  -0.10968   1.37415
    D5       -2.76937   0.00568   0.09837  -0.20615  -0.10934  -2.87871
    D6       -0.62561   0.00218   0.09884  -0.22060  -0.12318  -0.74879
    D7       -3.06225   0.00166  -0.00854   0.05806   0.04954  -3.01271
    D8        1.10323   0.00004  -0.00913   0.05141   0.04228   1.14551
    D9       -0.97638   0.00070  -0.00866   0.05342   0.04477  -0.93161
   D10       -1.02023   0.00021  -0.01063   0.05453   0.04390  -0.97634
   D11       -3.13793  -0.00141  -0.01122   0.04788   0.03663  -3.10130
   D12        1.06565  -0.00075  -0.01076   0.04989   0.03912   1.10477
   D13        1.09595   0.00141  -0.00835   0.05773   0.04940   1.14534
   D14       -1.02176  -0.00021  -0.00894   0.05108   0.04214  -0.97962
   D15       -3.10136   0.00045  -0.00847   0.05309   0.04463  -3.05674
   D16        1.06373   0.00025  -0.00389   0.07350   0.06961   1.13334
   D17       -0.97772   0.00108  -0.01424   0.09400   0.07974  -0.89798
   D18       -3.05539  -0.00086  -0.01676   0.09089   0.07412  -2.98127
   D19       -1.00111   0.00083  -0.00107   0.07057   0.06950  -0.93161
   D20       -3.04257   0.00166  -0.01142   0.09107   0.07963  -2.96293
   D21        1.16295  -0.00028  -0.01394   0.08796   0.07401   1.23696
   D22       -3.11349   0.00050  -0.00277   0.07047   0.06771  -3.04577
   D23        1.12825   0.00133  -0.01313   0.09097   0.07784   1.20609
   D24       -0.94942  -0.00061  -0.01565   0.08785   0.07222  -0.87720
   D25       -0.94474   0.00202  -0.02039   0.06904   0.04865  -0.89608
   D26       -3.12496   0.00208  -0.00550   0.04639   0.04089  -3.08407
   D27        1.15023  -0.00222  -0.01395   0.04252   0.02857   1.17879
         Item               Value     Threshold  Converged?
 Maximum Force            0.015645     0.000450     NO 
 RMS     Force            0.004649     0.000300     NO 
 Maximum Displacement     0.289100     0.001800     NO 
 RMS     Displacement     0.075128     0.001200     NO 
 Predicted change in Energy=-3.343087D-03
 GradGradGradGradGradGradGradGradGradGradGradGradGradGradGradGradGradGrad

                          Input orientation:                          
 ---------------------------------------------------------------------
 Center     Atomic      Atomic             Coordinates (Angstroms)
 Number     Number       Type             X           Y           Z
 ---------------------------------------------------------------------
      1          9           0       -2.455725    0.030275    1.015292
      2          6           0       -2.043656   -0.388984   -0.157275
      3          9           0       -2.530970    0.357373   -1.127266
      4          6           0        0.418265    0.326967    0.080383
      5          9           0        0.298334    0.593666    1.391896
      6          9           0        0.109557    1.435856   -0.616471
      7          9           0       -0.384816   -1.820122    0.591463
      8          6           0        1.916371    0.008854   -0.179312
      9          9           0        2.164874   -0.114024   -1.473380
     10          9           0        2.270045   -1.106499    0.443820
     11          9           0        2.637399    1.017420    0.299990
     12          6           0       -0.590886   -0.795821   -0.305996
     13          8           0       -0.298900   -1.176885   -1.574952
     14          1           0       -0.923887   -1.835837   -1.889280
 ---------------------------------------------------------------------
                    Distance matrix (angstroms):
                    1          2          3          4          5
     1  F    0.000000
     2  C    1.311675   0.000000
     3  F    2.168688   1.317348   0.000000
     4  C    3.036758   2.574902   3.187056   0.000000
     5  F    2.836209   2.974970   3.795651   1.343718   0.000000
     6  F    3.349474   2.859585   2.897657   1.345563   2.185968
     7  F    2.809317   2.315278   3.507348   2.348644   2.633203
     8  C    4.532412   3.980021   4.560583   1.553370   2.329966
     9  F    5.250166   4.418083   4.732120   2.378927   3.492077
    10  F    4.894051   4.414086   5.259370   2.369810   2.770749
    11  F    5.236985   4.909107   5.402291   2.334418   2.615922
    12  C    2.430197   1.515973   2.401721   1.558309   2.367324
    13  O    3.580292   2.382177   2.745270   2.348622   3.506240
    14  H    3.776962   2.519347   2.823748   3.218487   4.261739
                    6          7          8          9         10
     6  F    0.000000
     7  F    3.507834   0.000000
     8  C    2.343506   3.038866   0.000000
     9  F    2.713070   3.698008   1.323429   0.000000
    10  F    3.500784   2.753060   1.325666   2.161417   0.000000
    11  F    2.721208   4.155765   1.329217   2.155989   2.160247
    12  C    2.359533   1.377349   2.636264   3.069502   2.973831
    13  O    2.812816   2.261524   2.874232   2.685176   3.268007
    14  H    3.659511   2.538687   3.793934   3.560625   4.022000
                   11         12         13         14
    11  F    0.000000
    12  C    3.751917   0.000000
    13  O    4.117309   1.356729   0.000000
    14  H    5.061298   1.923359   0.961056   0.000000
 Stoichiometry    C4HF8O(2)
 Framework group  C1[X(C4HF8O)]
 Deg. of freedom    36
 Full point group                 C1      NOp   1
 Largest Abelian subgroup         C1      NOp   1
 Largest concise Abelian subgroup C1      NOp   1
                         Standard orientation:                         
 ---------------------------------------------------------------------
 Center     Atomic      Atomic             Coordinates (Angstroms)
 Number     Number       Type             X           Y           Z
 ---------------------------------------------------------------------
      1          9           0        2.569920   -1.008248    0.631720
      2          6           0        2.188466    0.111420    0.064863
      3          9           0        2.628780    0.191145   -1.174158
      4          6           0       -0.315087   -0.455235   -0.138221
      5          9           0       -0.215627   -1.541732    0.646133
      6          9           0       -0.077042   -0.818025   -1.411900
      7          9           0        0.623802    0.743230    1.650158
      8          6           0       -1.788926    0.028042   -0.053355
      9          9           0       -2.026017    1.003108   -0.916198
     10          9           0       -2.071257    0.447502    1.172097
     11          9           0       -2.574673   -1.002886   -0.347645
     12          6           0        0.765345    0.583057    0.289496
     13          8           0        0.501477    1.733632   -0.379282
     14          1           0        1.168430    2.400407   -0.194313
 ---------------------------------------------------------------------
 Rotational constants (GHZ):           1.3651917           0.6021246           0.5938327
 Standard basis: 6-311+G(2d,2p) (5D, 7F)
 There are   386 symmetry adapted cartesian basis functions of A   symmetry.
 There are   360 symmetry adapted basis functions of A   symmetry.
   360 basis functions,   557 primitive gaussians,   386 cartesian basis functions
    53 alpha electrons       52 beta electrons
       nuclear repulsion energy      1020.5104783753 Hartrees.
 NAtoms=   14 NActive=   14 NUniq=   14 SFac= 1.00D+00 NAtFMM=   60 NAOKFM=F Big=F
 Integral buffers will be    131072 words long.
 Raffenetti 2 integral format.
 Two-electron integral symmetry is turned on.
 Nuclear repulsion after empirical dispersion term =     1020.5025791825 Hartrees.
 One-electron integrals computed using PRISM.
 NBasis=   360 RedAO= T EigKep=  9.93D-06  NBF=   360
 NBsUse=   360 1.00D-06 EigRej= -1.00D+00 NBFU=   360
 Initial guess from the checkpoint file:  "butene_2OH.chk"
 B after Tr=    -0.000000   -0.000000   -0.000000
         Rot=    0.999939    0.006478   -0.008042   -0.004018 Ang=   1.27 deg.
 Initial guess <Sx>= 0.0000 <Sy>= 0.0000 <Sz>= 0.5000 <S**2>= 0.7528 S= 0.5014
 ExpMin= 4.38D-02 ExpMax= 1.14D+04 ExpMxC= 1.72D+03 IAcc=2 IRadAn=         4 AccDes= 0.00D+00
 Harris functional with IExCor= 4639 and IRadAn=       4 diagonalized for initial guess.
 HarFok:  IExCor= 4639 AccDes= 0.00D+00 IRadAn=         4 IDoV= 1 UseB2=F ITyADJ=14
 ICtDFT=  3500011 ScaDFX=  1.000000  1.000000  1.000000  1.000000
 FoFCou: FMM=F IPFlag=           0 FMFlag=      100000 FMFlg1=           0
         NFxFlg=           0 DoJE=T BraDBF=F KetDBF=T FulRan=T
         wScrn=  0.000000 ICntrl=       500 IOpCl=  0 I1Cent=   200000004 NGrid=           0
         NMat0=    1 NMatS0=      1 NMatT0=    0 NMatD0=    1 NMtDS0=    0 NMtDT0=    0
 Petite list used in FoFCou.
 Requested convergence on RMS density matrix=1.00D-08 within  32 cycles.
 Requested convergence on MAX density matrix=1.00D-06.
 Requested convergence on             energy=1.00D-06.
 No special actions if energy rises.
 SCF Done:  E(UwB97XD) =  -1026.96981751     A.U. after   13 cycles
            NFock= 13  Conv=0.41D-08     -V/T= 2.0026
 <Sx>= 0.0000 <Sy>= 0.0000 <Sz>= 0.5000 <S**2>= 0.7529 S= 0.5015
 <L.S>= 0.000000000000E+00
 Annihilation of the first spin contaminant:
 S**2 before annihilation     0.7529,   after     0.7500
 QCSCF skips out because SCF is already converged.
 Calling FoFJK, ICntrl=      2127 FMM=F ISym2X=0 I1Cent= 0 IOpClX= 1 NMat=1 NMatS=1 NMatT=0.
 ***** Axes restored to original set *****
 -------------------------------------------------------------------
 Center     Atomic                   Forces (Hartrees/Bohr)
 Number     Number              X              Y              Z
 -------------------------------------------------------------------
      1        9           0.002485908   -0.001411973    0.001213351
      2        6          -0.004132034    0.000532384   -0.002372998
      3        9           0.000628525    0.000036819   -0.000676244
      4        6          -0.001535889    0.001691106    0.000302734
      5        9          -0.001863642   -0.000511819   -0.002942497
      6        9           0.000326246   -0.000697616    0.001192663
      7        9          -0.002853541    0.001799850   -0.001502147
      8        6          -0.003003777    0.000753996   -0.000186851
      9        9           0.002043900    0.000636583    0.000022222
     10        9           0.001476985   -0.000271883   -0.000231392
     11        9           0.002220632   -0.000237922   -0.000213612
     12        6           0.006114164   -0.002644900    0.004868290
     13        8          -0.000887572   -0.000840185   -0.000960814
     14        1          -0.001019906    0.001165560    0.001487295
 -------------------------------------------------------------------
 Cartesian Forces:  Max     0.006114164 RMS     0.001973055

 GradGradGradGradGradGradGradGradGradGradGradGradGradGradGradGradGradGrad
 Berny optimization.
 Using GEDIIS/GDIIS optimizer.
 FormGI is forming the generalized inverse of G from B-inverse, IUseBI=4.
 Internal  Forces:  Max     0.004889962 RMS     0.001640682
 Search for a local minimum.
 Step number   5 out of a maximum of   72
 All quantities printed in internal units (Hartrees-Bohrs-Radians)
 Mixed Optimization -- RFO/linear search
 Update second derivatives using D2CorX and points    4    5
 DE= -3.15D-03 DEPred=-3.34D-03 R= 9.42D-01
 TightC=F SS=  1.41D+00  RLast= 5.42D-01 DXNew= 1.4270D+00 1.6255D+00
 Trust test= 9.42D-01 RLast= 5.42D-01 DXMaxT set to 1.43D+00
 ITU=  1  0  1  1  0
 Use linear search instead of GDIIS.
     Eigenvalues ---    0.00217   0.00237   0.00253   0.01247   0.04924
     Eigenvalues ---    0.04976   0.05597   0.07323   0.07957   0.08680
     Eigenvalues ---    0.09007   0.11783   0.13861   0.15906   0.19346
     Eigenvalues ---    0.19602   0.20671   0.22612   0.24922   0.25000
     Eigenvalues ---    0.25014   0.25200   0.27706   0.28443   0.29728
     Eigenvalues ---    0.36846   0.40692   0.53200   0.54626   0.55021
     Eigenvalues ---    0.55021   0.55021   0.55073   0.55246   0.55476
     Eigenvalues ---    0.57859
 RFO step:  Lambda=-1.14333292D-03 EMin= 2.17341117D-03
 Quartic linear search produced a step of  0.17954.
 Iteration  1 RMS(Cart)=  0.06079317 RMS(Int)=  0.00228675
 Iteration  2 RMS(Cart)=  0.00257620 RMS(Int)=  0.00009325
 Iteration  3 RMS(Cart)=  0.00000635 RMS(Int)=  0.00009315
 Iteration  4 RMS(Cart)=  0.00000000 RMS(Int)=  0.00009315
 Variable       Old X    -DE/DX   Delta X   Delta X   Delta X     New X
                                 (Linear)    (Quad)   (Total)
    R1        2.47871  -0.00015   0.00318  -0.00293   0.00025   2.47896
    R2        2.48943   0.00029   0.00340  -0.00186   0.00154   2.49097
    R3        2.86477   0.00057   0.00617  -0.00136   0.00481   2.86958
    R4        2.53926  -0.00281  -0.00014  -0.00477  -0.00490   2.53435
    R5        2.54275  -0.00127   0.00035  -0.00217  -0.00182   2.54093
    R6        2.93544   0.00256   0.00105   0.00424   0.00529   2.94074
    R7        2.94478   0.00025   0.00053  -0.00419  -0.00366   2.94111
    R8        2.60281  -0.00274   0.00044  -0.00403  -0.00359   2.59922
    R9        2.50092   0.00030   0.00070   0.00066   0.00136   2.50227
   R10        2.50515   0.00051   0.00064   0.00098   0.00163   2.50677
   R11        2.51186   0.00095   0.00055   0.00244   0.00299   2.51485
   R12        2.56385  -0.00100   0.00124  -0.00466  -0.00343   2.56042
   R13        1.81613  -0.00062  -0.00018  -0.00109  -0.00127   1.81486
    A1        1.94006   0.00319   0.01136   0.00238   0.01333   1.95339
    A2        2.06523  -0.00489   0.00233  -0.02178  -0.01975   2.04548
    A3        2.02007   0.00023   0.00202  -0.00022   0.00150   2.02157
    A4        1.89804   0.00004  -0.00103  -0.00233  -0.00336   1.89468
    A5        1.86492   0.00106   0.00014   0.00891   0.00908   1.87399
    A6        1.90415  -0.00300   0.00075  -0.01603  -0.01528   1.88887
    A7        1.87911  -0.00136   0.00022  -0.00182  -0.00162   1.87749
    A8        1.89315  -0.00001   0.00146   0.00394   0.00538   1.89853
    A9        2.02144   0.00318  -0.00160   0.00700   0.00539   2.02684
   A10        1.94290   0.00236   0.00133   0.00246   0.00378   1.94668
   A11        1.92945   0.00158   0.00132   0.00080   0.00210   1.93155
   A12        1.88334   0.00262   0.00069   0.00699   0.00767   1.89100
   A13        1.90859  -0.00179  -0.00039  -0.00367  -0.00407   1.90452
   A14        1.89778  -0.00275  -0.00169  -0.00489  -0.00660   1.89118
   A15        1.90094  -0.00215  -0.00134  -0.00174  -0.00310   1.89784
   A16        1.98549  -0.00168   0.00032  -0.01167  -0.01131   1.97418
   A17        1.85358  -0.00107  -0.00218  -0.00972  -0.01185   1.84173
   A18        1.95344  -0.00151  -0.00073  -0.00784  -0.00853   1.94491
   A19        1.85187   0.00180   0.00104   0.01182   0.01272   1.86458
   A20        1.87015   0.00259   0.00208   0.01159   0.01355   1.88371
   A21        1.94804  -0.00002  -0.00047   0.00690   0.00617   1.95421
   A22        1.93749  -0.00334  -0.00006  -0.01918  -0.01923   1.91825
    D1       -0.99346   0.00002  -0.04268  -0.09168  -0.13445  -1.12792
    D2        1.03686   0.00062  -0.04262  -0.08976  -0.13245   0.90440
    D3       -3.11641  -0.00101  -0.04511  -0.09232  -0.13751   3.02927
    D4        1.37415  -0.00040  -0.01969  -0.11499  -0.13461   1.23954
    D5       -2.87871   0.00021  -0.01963  -0.11307  -0.13261  -3.01132
    D6       -0.74879  -0.00142  -0.02212  -0.11562  -0.13766  -0.88646
    D7       -3.01271   0.00022   0.00889   0.07302   0.08192  -2.93079
    D8        1.14551  -0.00021   0.00759   0.07546   0.08306   1.22857
    D9       -0.93161  -0.00011   0.00804   0.07287   0.08091  -0.85069
   D10       -0.97634   0.00013   0.00788   0.07394   0.08182  -0.89452
   D11       -3.10130  -0.00030   0.00658   0.07638   0.08296  -3.01834
   D12        1.10477  -0.00020   0.00702   0.07379   0.08081   1.18558
   D13        1.14534   0.00120   0.00887   0.08236   0.09122   1.23657
   D14       -0.97962   0.00077   0.00756   0.08481   0.09237  -0.88725
   D15       -3.05674   0.00088   0.00801   0.08222   0.09022  -2.96652
   D16        1.13334  -0.00097   0.01250  -0.00755   0.00496   1.13830
   D17       -0.89798   0.00011   0.01432   0.00311   0.01752  -0.88046
   D18       -2.98127  -0.00211   0.01331  -0.01686  -0.00362  -2.98489
   D19       -0.93161   0.00069   0.01248   0.00206   0.01453  -0.91707
   D20       -2.96293   0.00176   0.01430   0.01272   0.02710  -2.93584
   D21        1.23696  -0.00045   0.01329  -0.00726   0.00596   1.24292
   D22       -3.04577   0.00030   0.01216  -0.00337   0.00876  -3.03701
   D23        1.20609   0.00138   0.01398   0.00729   0.02133   1.22742
   D24       -0.87720  -0.00084   0.01297  -0.01269   0.00019  -0.87701
   D25       -0.89608   0.00089   0.00874   0.03998   0.04870  -0.84738
   D26       -3.08407   0.00217   0.00734   0.05171   0.05910  -3.02498
   D27        1.17879  -0.00151   0.00513   0.02700   0.03209   1.21089
         Item               Value     Threshold  Converged?
 Maximum Force            0.004890     0.000450     NO 
 RMS     Force            0.001641     0.000300     NO 
 Maximum Displacement     0.193116     0.001800     NO 
 RMS     Displacement     0.060633     0.001200     NO 
 Predicted change in Energy=-6.581081D-04
 GradGradGradGradGradGradGradGradGradGradGradGradGradGradGradGradGradGrad

                          Input orientation:                          
 ---------------------------------------------------------------------
 Center     Atomic      Atomic             Coordinates (Angstroms)
 Number     Number       Type             X           Y           Z
 ---------------------------------------------------------------------
      1          9           0       -2.471776   -0.069668    1.018289
      2          6           0       -2.037664   -0.383510   -0.179162
      3          9           0       -2.469571    0.459566   -1.095804
      4          6           0        0.415429    0.331645    0.054224
      5          9           0        0.269835    0.626382    1.354432
      6          9           0        0.105387    1.421937   -0.669029
      7          9           0       -0.409436   -1.798079    0.635456
      8          6           0        1.921254    0.021088   -0.186012
      9          9           0        2.207095   -0.029265   -1.477958
     10          9           0        2.257602   -1.131165    0.378664
     11          9           0        2.642748    0.994013    0.365250
     12          6           0       -0.584462   -0.806682   -0.301752
     13          8           0       -0.297996   -1.236899   -1.554209
     14          1           0       -0.962440   -1.867121   -1.843475
 ---------------------------------------------------------------------
                    Distance matrix (angstroms):
                    1          2          3          4          5
     1  F    0.000000
     2  C    1.311808   0.000000
     3  F    2.179331   1.318163   0.000000
     4  C    3.070249   2.565849   3.108401   0.000000
     5  F    2.848493   2.948957   3.679107   1.341122   0.000000
     6  F    3.422528   2.844693   2.781853   1.344603   2.180446
     7  F    2.717943   2.305587   3.512603   2.356684   2.618463
     8  C    4.556017   3.979545   4.505478   1.556171   2.338062
     9  F    5.303274   4.453127   4.717648   2.384932   3.493606
    10  F    4.889061   4.395391   5.201023   2.374589   2.827068
    11  F    5.264621   4.909196   5.343792   2.344444   2.596988
    12  C    2.418192   1.518518   2.405730   1.556371   2.350839
    13  O    3.564477   2.376020   2.793541   2.357193   3.500634
    14  H    3.701166   2.475307   2.871224   3.214709   4.238238
                    6          7          8          9         10
     6  F    0.000000
     7  F    3.512154   0.000000
     8  C    2.343727   3.068599   0.000000
     9  F    2.679091   3.800192   1.324147   0.000000
    10  F    3.499717   2.761124   1.326528   2.159579   0.000000
    11  F    2.773274   4.145433   1.330799   2.152744   2.159838
    12  C    2.361678   1.375450   2.641442   3.127400   2.940337
    13  O    2.831196   2.263178   2.894748   2.782027   3.205972
    14  H    3.652051   2.540803   3.824683   3.682019   3.980979
                   11         12         13         14
    11  F    0.000000
    12  C    3.755300   0.000000
    13  O    4.160440   1.354916   0.000000
    14  H    5.105088   1.909007   0.960385   0.000000
 Stoichiometry    C4HF8O(2)
 Framework group  C1[X(C4HF8O)]
 Deg. of freedom    36
 Full point group                 C1      NOp   1
 Largest Abelian subgroup         C1      NOp   1
 Largest concise Abelian subgroup C1      NOp   1
                         Standard orientation:                         
 ---------------------------------------------------------------------
 Center     Atomic      Atomic             Coordinates (Angstroms)
 Number     Number       Type             X           Y           Z
 ---------------------------------------------------------------------
      1          9           0        2.607410   -0.757466    0.857615
      2          6           0        2.184891    0.131061   -0.010047
      3          9           0        2.546611   -0.172238   -1.240788
      4          6           0       -0.310440   -0.464895   -0.051769
      5          9           0       -0.173317   -1.371160    0.927256
      6          9           0       -0.085946   -1.071263   -1.230700
      7          9           0        0.669598    1.048772    1.465563
      8          6           0       -1.792655    0.009036   -0.041938
      9          9           0       -2.086971    0.707181   -1.127911
     10          9           0       -2.040548    0.748992    1.030764
     11          9           0       -2.576055   -1.066271   -0.009887
     12          6           0        0.764343    0.641586    0.155187
     13          8           0        0.496824    1.649837   -0.709487
     14          1           0        1.201530    2.301645   -0.679906
 ---------------------------------------------------------------------
 Rotational constants (GHZ):           1.3641218           0.6014778           0.5958385
 Standard basis: 6-311+G(2d,2p) (5D, 7F)
 There are   386 symmetry adapted cartesian basis functions of A   symmetry.
 There are   360 symmetry adapted basis functions of A   symmetry.
   360 basis functions,   557 primitive gaussians,   386 cartesian basis functions
    53 alpha electrons       52 beta electrons
       nuclear repulsion energy      1020.5980695933 Hartrees.
 NAtoms=   14 NActive=   14 NUniq=   14 SFac= 1.00D+00 NAtFMM=   60 NAOKFM=F Big=F
 Integral buffers will be    131072 words long.
 Raffenetti 2 integral format.
 Two-electron integral symmetry is turned on.
 Nuclear repulsion after empirical dispersion term =     1020.5901917508 Hartrees.
 One-electron integrals computed using PRISM.
 NBasis=   360 RedAO= T EigKep=  1.00D-05  NBF=   360
 NBsUse=   360 1.00D-06 EigRej= -1.00D+00 NBFU=   360
 Initial guess from the checkpoint file:  "butene_2OH.chk"
 B after Tr=     0.000000    0.000000    0.000000
         Rot=    0.993399    0.114436   -0.007681   -0.001747 Ang=  13.17 deg.
 Initial guess <Sx>= 0.0000 <Sy>= 0.0000 <Sz>= 0.5000 <S**2>= 0.7530 S= 0.5015
 ExpMin= 4.38D-02 ExpMax= 1.14D+04 ExpMxC= 1.72D+03 IAcc=2 IRadAn=         4 AccDes= 0.00D+00
 Harris functional with IExCor= 4639 and IRadAn=       4 diagonalized for initial guess.
 HarFok:  IExCor= 4639 AccDes= 0.00D+00 IRadAn=         4 IDoV= 1 UseB2=F ITyADJ=14
 ICtDFT=  3500011 ScaDFX=  1.000000  1.000000  1.000000  1.000000
 FoFCou: FMM=F IPFlag=           0 FMFlag=      100000 FMFlg1=           0
         NFxFlg=           0 DoJE=T BraDBF=F KetDBF=T FulRan=T
         wScrn=  0.000000 ICntrl=       500 IOpCl=  0 I1Cent=   200000004 NGrid=           0
         NMat0=    1 NMatS0=      1 NMatT0=    0 NMatD0=    1 NMtDS0=    0 NMtDT0=    0
 Petite list used in FoFCou.
 Requested convergence on RMS density matrix=1.00D-08 within  32 cycles.
 Requested convergence on MAX density matrix=1.00D-06.
 Requested convergence on             energy=1.00D-06.
 No special actions if energy rises.
 SCF Done:  E(UwB97XD) =  -1026.97036016     A.U. after   12 cycles
            NFock= 12  Conv=0.72D-08     -V/T= 2.0026
 <Sx>= 0.0000 <Sy>= 0.0000 <Sz>= 0.5000 <S**2>= 0.7529 S= 0.5014
 <L.S>= 0.000000000000E+00
 Annihilation of the first spin contaminant:
 S**2 before annihilation     0.7529,   after     0.7500
 QCSCF skips out because SCF is already converged.
 Calling FoFJK, ICntrl=      2127 FMM=F ISym2X=0 I1Cent= 0 IOpClX= 1 NMat=1 NMatS=1 NMatT=0.
 ***** Axes restored to original set *****
 -------------------------------------------------------------------
 Center     Atomic                   Forces (Hartrees/Bohr)
 Number     Number              X              Y              Z
 -------------------------------------------------------------------
      1        9           0.000319089    0.000362575   -0.000451442
      2        6          -0.001803493    0.000335664   -0.001331992
      3        9          -0.000058438   -0.000893687    0.001430527
      4        6          -0.000232845    0.000912580   -0.000520248
      5        9          -0.000309155    0.000115216   -0.000466266
      6        9           0.000705686   -0.000501356    0.000525624
      7        9          -0.000624277    0.001590130   -0.002216501
      8        6          -0.000025677    0.000446139    0.000349455
      9        9          -0.000890553   -0.000037535   -0.000056219
     10        9           0.000544044    0.000009225    0.000149922
     11        9           0.000210474   -0.000621016   -0.000222866
     12        6           0.001189723   -0.001241088    0.004434236
     13        8           0.001480435   -0.000619996   -0.001286734
     14        1          -0.000505012    0.000143149   -0.000337495
 -------------------------------------------------------------------
 Cartesian Forces:  Max     0.004434236 RMS     0.001068184

 GradGradGradGradGradGradGradGradGradGradGradGradGradGradGradGradGradGrad
 Berny optimization.
 Using GEDIIS/GDIIS optimizer.
 FormGI is forming the generalized inverse of G from B-inverse, IUseBI=4.
 Internal  Forces:  Max     0.002734436 RMS     0.000736572
 Search for a local minimum.
 Step number   6 out of a maximum of   72
 All quantities printed in internal units (Hartrees-Bohrs-Radians)
 Mixed Optimization -- En-DIIS/RFO-DIIS
 Update second derivatives using D2CorX and points    5    6
 DE= -5.43D-04 DEPred=-6.58D-04 R= 8.25D-01
 TightC=F SS=  1.41D+00  RLast= 4.31D-01 DXNew= 2.4000D+00 1.2922D+00
 Trust test= 8.25D-01 RLast= 4.31D-01 DXMaxT set to 1.43D+00
 ITU=  1  1  0  1  1  0
 Use linear search instead of GDIIS.
     Eigenvalues ---    0.00237   0.00250   0.00306   0.01172   0.04923
     Eigenvalues ---    0.04960   0.05682   0.07295   0.08072   0.08619
     Eigenvalues ---    0.08896   0.11210   0.13897   0.15511   0.18638
     Eigenvalues ---    0.19614   0.20875   0.22520   0.24246   0.24995
     Eigenvalues ---    0.25017   0.25607   0.27903   0.28431   0.30302
     Eigenvalues ---    0.37045   0.41450   0.52646   0.54320   0.55004
     Eigenvalues ---    0.55021   0.55021   0.55064   0.55294   0.55625
     Eigenvalues ---    0.58116
 RFO step:  Lambda=-1.47965346D-04 EMin= 2.36730870D-03
 Quartic linear search produced a step of -0.10556.
 Iteration  1 RMS(Cart)=  0.01579337 RMS(Int)=  0.00015781
 Iteration  2 RMS(Cart)=  0.00016868 RMS(Int)=  0.00000817
 Iteration  3 RMS(Cart)=  0.00000002 RMS(Int)=  0.00000817
 Variable       Old X    -DE/DX   Delta X   Delta X   Delta X     New X
                                 (Linear)    (Quad)   (Total)
    R1        2.47896  -0.00043  -0.00003  -0.00016  -0.00019   2.47877
    R2        2.49097  -0.00155  -0.00016  -0.00174  -0.00191   2.48906
    R3        2.86958   0.00139  -0.00051   0.00598   0.00547   2.87506
    R4        2.53435  -0.00039   0.00052  -0.00182  -0.00130   2.53305
    R5        2.54093  -0.00085   0.00019  -0.00184  -0.00165   2.53928
    R6        2.94074  -0.00015  -0.00056   0.00113   0.00057   2.94130
    R7        2.94111   0.00018   0.00039   0.00008   0.00046   2.94158
    R8        2.59922  -0.00273   0.00038  -0.00556  -0.00518   2.59404
    R9        2.50227  -0.00013  -0.00014   0.00023   0.00009   2.50237
   R10        2.50677   0.00019  -0.00017   0.00082   0.00065   2.50742
   R11        2.51485  -0.00043  -0.00032   0.00006  -0.00025   2.51459
   R12        2.56042   0.00185   0.00036   0.00382   0.00418   2.56460
   R13        1.81486   0.00036   0.00013   0.00026   0.00039   1.81526
    A1        1.95339  -0.00061  -0.00141   0.00096  -0.00045   1.95294
    A2        2.04548  -0.00057   0.00209  -0.00701  -0.00493   2.04055
    A3        2.02157   0.00120  -0.00016   0.00436   0.00420   2.02577
    A4        1.89468  -0.00032   0.00035  -0.00178  -0.00142   1.89325
    A5        1.87399   0.00087  -0.00096   0.00692   0.00596   1.87995
    A6        1.88887   0.00026   0.00161  -0.00104   0.00057   1.88944
    A7        1.87749  -0.00018   0.00017  -0.00363  -0.00346   1.87403
    A8        1.89853   0.00081  -0.00057   0.00291   0.00233   1.90086
    A9        2.02684  -0.00142  -0.00057  -0.00335  -0.00393   2.02291
   A10        1.94668  -0.00184  -0.00040  -0.00572  -0.00611   1.94057
   A11        1.93155   0.00094  -0.00022   0.00445   0.00422   1.93577
   A12        1.89100   0.00109  -0.00081   0.00647   0.00565   1.89666
   A13        1.90452   0.00028   0.00043  -0.00104  -0.00061   1.90391
   A14        1.89118   0.00031   0.00070  -0.00123  -0.00052   1.89066
   A15        1.89784  -0.00078   0.00033  -0.00298  -0.00267   1.89517
   A16        1.97418   0.00103   0.00119   0.00241   0.00360   1.97778
   A17        1.84173  -0.00059   0.00125  -0.00444  -0.00321   1.83852
   A18        1.94491   0.00019   0.00090  -0.00237  -0.00147   1.94343
   A19        1.86458   0.00045  -0.00134   0.00695   0.00562   1.87020
   A20        1.88371  -0.00105  -0.00143  -0.00122  -0.00264   1.88107
   A21        1.95421   0.00002  -0.00065  -0.00094  -0.00157   1.95264
   A22        1.91825   0.00007   0.00203  -0.00464  -0.00261   1.91565
    D1       -1.12792  -0.00016   0.01419   0.01282   0.02702  -1.10090
    D2        0.90440   0.00057   0.01398   0.01973   0.03371   0.93811
    D3        3.02927   0.00033   0.01452   0.01443   0.02895   3.05822
    D4        1.23954  -0.00037   0.01421   0.01122   0.02544   1.26498
    D5       -3.01132   0.00035   0.01400   0.01813   0.03212  -2.97920
    D6       -0.88646   0.00011   0.01453   0.01283   0.02737  -0.85909
    D7       -2.93079  -0.00013  -0.00865  -0.00825  -0.01690  -2.94769
    D8        1.22857   0.00011  -0.00877  -0.00609  -0.01486   1.21371
    D9       -0.85069  -0.00017  -0.00854  -0.00907  -0.01762  -0.86832
   D10       -0.89452  -0.00016  -0.00864  -0.00864  -0.01728  -0.91180
   D11       -3.01834   0.00009  -0.00876  -0.00648  -0.01524  -3.03358
   D12        1.18558  -0.00019  -0.00853  -0.00946  -0.01801   1.16757
   D13        1.23657  -0.00020  -0.00963  -0.00995  -0.01957   1.21699
   D14       -0.88725   0.00005  -0.00975  -0.00779  -0.01753  -0.90479
   D15       -2.96652  -0.00023  -0.00952  -0.01077  -0.02030  -2.98682
   D16        1.13830  -0.00007  -0.00052   0.00311   0.00260   1.14090
   D17       -0.88046  -0.00019  -0.00185   0.00290   0.00104  -0.87943
   D18       -2.98489   0.00011   0.00038   0.00082   0.00121  -2.98368
   D19       -0.91707  -0.00028  -0.00153   0.00422   0.00269  -0.91439
   D20       -2.93584  -0.00040  -0.00286   0.00400   0.00113  -2.93471
   D21        1.24292  -0.00010  -0.00063   0.00192   0.00130   1.24422
   D22       -3.03701   0.00031  -0.00092   0.00906   0.00814  -3.02887
   D23        1.22742   0.00018  -0.00225   0.00884   0.00658   1.23400
   D24       -0.87701   0.00048  -0.00002   0.00676   0.00676  -0.87026
   D25       -0.84738   0.00072  -0.00514   0.03322   0.02808  -0.81929
   D26       -3.02498   0.00003  -0.00624   0.03261   0.02637  -2.99861
   D27        1.21089   0.00012  -0.00339   0.02542   0.02204   1.23293
         Item               Value     Threshold  Converged?
 Maximum Force            0.002734     0.000450     NO 
 RMS     Force            0.000737     0.000300     NO 
 Maximum Displacement     0.054819     0.001800     NO 
 RMS     Displacement     0.015817     0.001200     NO 
 Predicted change in Energy=-8.351808D-05
 GradGradGradGradGradGradGradGradGradGradGradGradGradGradGradGradGradGrad

                          Input orientation:                          
 ---------------------------------------------------------------------
 Center     Atomic      Atomic             Coordinates (Angstroms)
 Number     Number       Type             X           Y           Z
 ---------------------------------------------------------------------
      1          9           0       -2.466382   -0.049777    1.013450
      2          6           0       -2.039941   -0.388591   -0.179837
      3          9           0       -2.483726    0.430557   -1.110937
      4          6           0        0.416651    0.331214    0.064471
      5          9           0        0.269553    0.621586    1.364781
      6          9           0        0.109172    1.424670   -0.653456
      7          9           0       -0.414059   -1.803104    0.632346
      8          6           0        1.921321    0.020034   -0.184003
      9          9           0        2.189250   -0.043957   -1.479229
     10          9           0        2.268748   -1.125671    0.388048
     11          9           0        2.651752    0.997605    0.346560
     12          6           0       -0.581868   -0.806908   -0.297040
     13          8           0       -0.289101   -1.231780   -1.552257
     14          1           0       -0.965366   -1.843636   -1.853984
 ---------------------------------------------------------------------
                    Distance matrix (angstroms):
                    1          2          3          4          5
     1  F    0.000000
     2  C    1.311709   0.000000
     3  F    2.178082   1.317155   0.000000
     4  C    3.059018   2.571507   3.131077   0.000000
     5  F    2.838926   2.956360   3.707589   1.340433   0.000000
     6  F    3.403828   2.851476   2.814369   1.343730   2.178060
     7  F    2.726064   2.303037   3.508817   2.359634   2.623530
     8  C    4.548703   3.982284   4.520197   1.556471   2.342847
     9  F    5.280946   4.437707   4.711423   2.380309   3.495222
    10  F    4.895930   4.408013   5.220614   2.378546   2.829081
    11  F    5.266597   4.920428   5.368331   2.349325   2.617831
    12  C    2.417028   1.521414   2.410563   1.556616   2.350992
    13  O    3.566586   2.379063   2.788280   2.356872   3.500882
    14  H    3.700426   2.464677   2.833635   3.212539   4.238253
                    6          7          8          9         10
     6  F    0.000000
     7  F    3.513628   0.000000
     8  C    2.340357   3.073151   0.000000
     9  F    2.676844   3.785573   1.324195   0.000000
    10  F    3.500391   2.777778   1.326872   2.159433   0.000000
    11  F    2.765344   4.162312   1.330665   2.152270   2.157942
    12  C    2.363157   1.372707   2.638668   3.107855   2.949062
    13  O    2.832524   2.261529   2.885329   2.749269   3.212263
    14  H    3.643861   2.547041   3.820348   3.651148   4.000209
                   11         12         13         14
    11  F    0.000000
    12  C    3.758562   0.000000
    13  O    4.150214   1.357129   0.000000
    14  H    5.098880   1.909437   0.960593   0.000000
 Stoichiometry    C4HF8O(2)
 Framework group  C1[X(C4HF8O)]
 Deg. of freedom    36
 Full point group                 C1      NOp   1
 Largest Abelian subgroup         C1      NOp   1
 Largest concise Abelian subgroup C1      NOp   1
                         Standard orientation:                         
 ---------------------------------------------------------------------
 Center     Atomic      Atomic             Coordinates (Angstroms)
 Number     Number       Type             X           Y           Z
 ---------------------------------------------------------------------
      1          9           0        2.597385   -0.830748    0.796555
      2          6           0        2.187710    0.131012    0.004238
      3          9           0        2.565254   -0.065193   -1.242302
      4          6           0       -0.312182   -0.466434   -0.074819
      5          9           0       -0.176910   -1.431031    0.846058
      6          9           0       -0.088649   -1.000849   -1.287272
      7          9           0        0.672754    0.954795    1.530760
      8          6           0       -1.792542    0.013352   -0.044124
      9          9           0       -2.064452    0.793146   -1.079247
     10          9           0       -2.053231    0.673690    1.076850
     11          9           0       -2.587071   -1.052443   -0.103062
     12          6           0        0.762409    0.625415    0.201175
     13          8           0        0.491764    1.685496   -0.601805
     14          1           0        1.207799    2.323690   -0.549449
 ---------------------------------------------------------------------
 Rotational constants (GHZ):           1.3646524           0.6005436           0.5950620
 Standard basis: 6-311+G(2d,2p) (5D, 7F)
 There are   386 symmetry adapted cartesian basis functions of A   symmetry.
 There are   360 symmetry adapted basis functions of A   symmetry.
   360 basis functions,   557 primitive gaussians,   386 cartesian basis functions
    53 alpha electrons       52 beta electrons
       nuclear repulsion energy      1020.3107172151 Hartrees.
 NAtoms=   14 NActive=   14 NUniq=   14 SFac= 1.00D+00 NAtFMM=   60 NAOKFM=F Big=F
 Integral buffers will be    131072 words long.
 Raffenetti 2 integral format.
 Two-electron integral symmetry is turned on.
 Nuclear repulsion after empirical dispersion term =     1020.3028254595 Hartrees.
 One-electron integrals computed using PRISM.
 NBasis=   360 RedAO= T EigKep=  1.02D-05  NBF=   360
 NBsUse=   360 1.00D-06 EigRej= -1.00D+00 NBFU=   360
 Initial guess from the checkpoint file:  "butene_2OH.chk"
 B after Tr=     0.000000   -0.000000    0.000000
         Rot=    0.999429   -0.033768    0.001381    0.000668 Ang=  -3.87 deg.
 Initial guess <Sx>= 0.0000 <Sy>= 0.0000 <Sz>= 0.5000 <S**2>= 0.7529 S= 0.5014
 ExpMin= 4.38D-02 ExpMax= 1.14D+04 ExpMxC= 1.72D+03 IAcc=2 IRadAn=         4 AccDes= 0.00D+00
 Harris functional with IExCor= 4639 and IRadAn=       4 diagonalized for initial guess.
 HarFok:  IExCor= 4639 AccDes= 0.00D+00 IRadAn=         4 IDoV= 1 UseB2=F ITyADJ=14
 ICtDFT=  3500011 ScaDFX=  1.000000  1.000000  1.000000  1.000000
 FoFCou: FMM=F IPFlag=           0 FMFlag=      100000 FMFlg1=           0
         NFxFlg=           0 DoJE=T BraDBF=F KetDBF=T FulRan=T
         wScrn=  0.000000 ICntrl=       500 IOpCl=  0 I1Cent=   200000004 NGrid=           0
         NMat0=    1 NMatS0=      1 NMatT0=    0 NMatD0=    1 NMtDS0=    0 NMtDT0=    0
 Petite list used in FoFCou.
 Requested convergence on RMS density matrix=1.00D-08 within  32 cycles.
 Requested convergence on MAX density matrix=1.00D-06.
 Requested convergence on             energy=1.00D-06.
 No special actions if energy rises.
 SCF Done:  E(UwB97XD) =  -1026.97043403     A.U. after   10 cycles
            NFock= 10  Conv=0.93D-08     -V/T= 2.0026
 <Sx>= 0.0000 <Sy>= 0.0000 <Sz>= 0.5000 <S**2>= 0.7529 S= 0.5014
 <L.S>= 0.000000000000E+00
 Annihilation of the first spin contaminant:
 S**2 before annihilation     0.7529,   after     0.7500
 QCSCF skips out because SCF is already converged.
 Calling FoFJK, ICntrl=      2127 FMM=F ISym2X=0 I1Cent= 0 IOpClX= 1 NMat=1 NMatS=1 NMatT=0.
 ***** Axes restored to original set *****
 -------------------------------------------------------------------
 Center     Atomic                   Forces (Hartrees/Bohr)
 Number     Number              X              Y              Z
 -------------------------------------------------------------------
      1        9          -0.000112066    0.000278793   -0.000182464
      2        6           0.000028972    0.000019584   -0.000685956
      3        9           0.000171423   -0.000170569    0.000772852
      4        6           0.000132934    0.000189693    0.000079446
      5        9           0.000335122    0.000005027    0.000121167
      6        9          -0.000141932   -0.000233064   -0.000134211
      7        9           0.000346559    0.001080383   -0.000820026
      8        6           0.000692726    0.000027507    0.000096621
      9        9          -0.000299675    0.000089847   -0.000199094
     10        9          -0.000299145    0.000024276    0.000198503
     11        9          -0.000556658   -0.000218138    0.000099912
     12        6          -0.000384449   -0.000740343    0.001242494
     13        8           0.000187328   -0.000428161   -0.000182699
     14        1          -0.000101139    0.000075164   -0.000406545
 -------------------------------------------------------------------
 Cartesian Forces:  Max     0.001242494 RMS     0.000416544

 GradGradGradGradGradGradGradGradGradGradGradGradGradGradGradGradGradGrad
 Berny optimization.
 Using GEDIIS/GDIIS optimizer.
 FormGI is forming the generalized inverse of G from B-inverse, IUseBI=4.
 Internal  Forces:  Max     0.001296267 RMS     0.000313780
 Search for a local minimum.
 Step number   7 out of a maximum of   72
 All quantities printed in internal units (Hartrees-Bohrs-Radians)
 Mixed Optimization -- En-DIIS/RFO-DIIS
 Swapping is turned off.
 Update second derivatives using D2CorX and points    5    6    7
 DE= -7.39D-05 DEPred=-8.35D-05 R= 8.85D-01
 TightC=F SS=  1.41D+00  RLast= 1.02D-01 DXNew= 2.4000D+00 3.0618D-01
 Trust test= 8.85D-01 RLast= 1.02D-01 DXMaxT set to 1.43D+00
 ITU=  1  1  1  0  1  1  0
     Eigenvalues ---    0.00237   0.00250   0.00329   0.00975   0.04907
     Eigenvalues ---    0.05008   0.05599   0.07303   0.08035   0.08716
     Eigenvalues ---    0.08970   0.11853   0.13886   0.16000   0.19435
     Eigenvalues ---    0.20017   0.21295   0.22608   0.23862   0.24998
     Eigenvalues ---    0.25028   0.27408   0.28030   0.28537   0.30185
     Eigenvalues ---    0.38017   0.39651   0.49929   0.53509   0.55005
     Eigenvalues ---    0.55021   0.55033   0.55082   0.55423   0.55524
     Eigenvalues ---    0.57740
 En-DIIS/RFO-DIIS/Sim-DIIS IScMMF=       -3 using points:     7    6
 RFO step:  Lambda=-3.03806142D-05.
 DidBck=F Rises=F RFO-DIIS coefs:    0.83638    0.16362
 Iteration  1 RMS(Cart)=  0.00525757 RMS(Int)=  0.00002793
 Iteration  2 RMS(Cart)=  0.00003115 RMS(Int)=  0.00000152
 Iteration  3 RMS(Cart)=  0.00000000 RMS(Int)=  0.00000152
 Variable       Old X    -DE/DX   Delta X   Delta X   Delta X     New X
                                 (Linear)    (Quad)   (Total)
    R1        2.47877  -0.00006   0.00003   0.00016   0.00019   2.47896
    R2        2.48906  -0.00071   0.00031  -0.00159  -0.00128   2.48778
    R3        2.87506  -0.00006  -0.00090   0.00270   0.00180   2.87686
    R4        2.53305   0.00008   0.00021  -0.00042  -0.00021   2.53284
    R5        2.53928  -0.00009   0.00027  -0.00076  -0.00049   2.53879
    R6        2.94130  -0.00047  -0.00009  -0.00093  -0.00102   2.94028
    R7        2.94158  -0.00011  -0.00008   0.00020   0.00012   2.94170
    R8        2.59404  -0.00130   0.00085  -0.00408  -0.00323   2.59081
    R9        2.50237   0.00013  -0.00001   0.00021   0.00020   2.50257
   R10        2.50742  -0.00002  -0.00011   0.00017   0.00007   2.50749
   R11        2.51459  -0.00042   0.00004  -0.00090  -0.00086   2.51373
   R12        2.56460   0.00067  -0.00068   0.00305   0.00236   2.56696
   R13        1.81526   0.00015  -0.00006   0.00039   0.00032   1.81558
    A1        1.95294  -0.00043   0.00007  -0.00238  -0.00231   1.95062
    A2        2.04055   0.00022   0.00081  -0.00236  -0.00156   2.03899
    A3        2.02577   0.00013  -0.00069   0.00052  -0.00017   2.02560
    A4        1.89325   0.00009   0.00023   0.00042   0.00065   1.89391
    A5        1.87995  -0.00033  -0.00098   0.00019  -0.00079   1.87917
    A6        1.88944   0.00033  -0.00009   0.00176   0.00166   1.89110
    A7        1.87403   0.00025   0.00057  -0.00030   0.00026   1.87429
    A8        1.90086  -0.00025  -0.00038  -0.00029  -0.00067   1.90020
    A9        2.02291  -0.00008   0.00064  -0.00167  -0.00103   2.02188
   A10        1.94057  -0.00036   0.00100  -0.00271  -0.00172   1.93886
   A11        1.93577  -0.00041  -0.00069   0.00037  -0.00031   1.93546
   A12        1.89666  -0.00055  -0.00093  -0.00009  -0.00102   1.89564
   A13        1.90391   0.00049   0.00010   0.00195   0.00204   1.90596
   A14        1.89066   0.00051   0.00009   0.00140   0.00148   1.89214
   A15        1.89517   0.00036   0.00044  -0.00087  -0.00043   1.89473
   A16        1.97778  -0.00019  -0.00059   0.00056  -0.00003   1.97775
   A17        1.83852   0.00036   0.00053   0.00104   0.00156   1.84009
   A18        1.94343   0.00004   0.00024  -0.00036  -0.00012   1.94332
   A19        1.87020  -0.00029  -0.00092   0.00029  -0.00063   1.86957
   A20        1.88107   0.00007   0.00043  -0.00104  -0.00061   1.88046
   A21        1.95264  -0.00001   0.00026  -0.00042  -0.00016   1.95248
   A22        1.91565   0.00054   0.00043   0.00218   0.00261   1.91826
    D1       -1.10090   0.00018  -0.00442  -0.00281  -0.00724  -1.10813
    D2        0.93811  -0.00004  -0.00552  -0.00152  -0.00704   0.93107
    D3        3.05822   0.00019  -0.00474  -0.00158  -0.00632   3.05190
    D4        1.26498  -0.00010  -0.00416  -0.00899  -0.01315   1.25183
    D5       -2.97920  -0.00032  -0.00526  -0.00770  -0.01295  -2.99215
    D6       -0.85909  -0.00009  -0.00448  -0.00776  -0.01224  -0.87133
    D7       -2.94769   0.00005   0.00276   0.00621   0.00898  -2.93871
    D8        1.21371  -0.00004   0.00243   0.00534   0.00777   1.22148
    D9       -0.86832   0.00011   0.00288   0.00624   0.00913  -0.85919
   D10       -0.91180   0.00012   0.00283   0.00664   0.00947  -0.90233
   D11       -3.03358   0.00003   0.00249   0.00577   0.00827  -3.02532
   D12        1.16757   0.00018   0.00295   0.00667   0.00962   1.17720
   D13        1.21699  -0.00007   0.00320   0.00491   0.00811   1.22511
   D14       -0.90479  -0.00016   0.00287   0.00404   0.00691  -0.89788
   D15       -2.98682  -0.00000   0.00332   0.00494   0.00827  -2.97855
   D16        1.14090   0.00018  -0.00042   0.00050   0.00007   1.14097
   D17       -0.87943   0.00002  -0.00017  -0.00126  -0.00142  -0.88085
   D18       -2.98368   0.00016  -0.00020  -0.00035  -0.00055  -2.98423
   D19       -0.91439   0.00002  -0.00044  -0.00083  -0.00127  -0.91566
   D20       -2.93471  -0.00013  -0.00018  -0.00258  -0.00277  -2.93748
   D21        1.24422   0.00000  -0.00021  -0.00168  -0.00189   1.24233
   D22       -3.02887  -0.00005  -0.00133   0.00095  -0.00038  -3.02925
   D23        1.23400  -0.00021  -0.00108  -0.00080  -0.00188   1.23212
   D24       -0.87026  -0.00008  -0.00111   0.00011  -0.00100  -0.87126
   D25       -0.81929  -0.00006  -0.00460   0.02119   0.01659  -0.80270
   D26       -2.99861   0.00010  -0.00431   0.02145   0.01714  -2.98147
   D27        1.23293   0.00041  -0.00361   0.02199   0.01838   1.25131
         Item               Value     Threshold  Converged?
 Maximum Force            0.001296     0.000450     NO 
 RMS     Force            0.000314     0.000300     NO 
 Maximum Displacement     0.014412     0.001800     NO 
 RMS     Displacement     0.005259     0.001200     NO 
 Predicted change in Energy=-1.522642D-05
 GradGradGradGradGradGradGradGradGradGradGradGradGradGradGradGradGradGrad

                          Input orientation:                          
 ---------------------------------------------------------------------
 Center     Atomic      Atomic             Coordinates (Angstroms)
 Number     Number       Type             X           Y           Z
 ---------------------------------------------------------------------
      1          9           0       -2.467993   -0.056170    1.013802
      2          6           0       -2.040217   -0.390780   -0.180303
      3          9           0       -2.479590    0.436155   -1.105636
      4          6           0        0.416521    0.331936    0.062606
      5          9           0        0.270064    0.628601    1.361453
      6          9           0        0.108838    1.421211   -0.661082
      7          9           0       -0.410854   -1.800132    0.636216
      8          6           0        1.920745    0.019633   -0.183761
      9          9           0        2.189165   -0.039501   -1.479225
     10          9           0        2.265307   -1.128027    0.386183
     11          9           0        2.650072    0.994376    0.352348
     12          6           0       -0.580795   -0.808514   -0.295151
     13          8           0       -0.286531   -1.237205   -1.550072
     14          1           0       -0.968729   -1.839342   -1.858465
 ---------------------------------------------------------------------
                    Distance matrix (angstroms):
                    1          2          3          4          5
     1  F    0.000000
     2  C    1.311809   0.000000
     3  F    2.175899   1.316477   0.000000
     4  C    3.061996   2.572331   3.124598   0.000000
     5  F    2.843717   2.958639   3.699210   1.340322   0.000000
     6  F    3.409978   2.851823   2.804981   1.343471   2.178273
     7  F    2.723195   2.303866   3.509230   2.357815   2.624568
     8  C    4.549827   3.982169   4.515118   1.555930   2.341640
     9  F    5.282478   4.438272   4.707769   2.378544   3.492672
    10  F    4.893558   4.404767   5.214042   2.377857   2.831588
    11  F    5.266475   4.919470   5.361974   2.347664   2.610847
    12  C    2.416794   1.522368   2.410707   1.556681   2.352359
    13  O    3.567501   2.380780   2.794130   2.357374   3.502571
    14  H    3.698298   2.462244   2.833256   3.213079   4.241841
                    6          7          8          9         10
     6  F    0.000000
     7  F    3.511426   0.000000
     8  C    2.339928   3.069244   0.000000
     9  F    2.670355   3.786160   1.324301   0.000000
    10  F    3.499391   2.770574   1.326907   2.161119   0.000000
    11  F    2.768953   4.154411   1.330209   2.153137   2.157264
    12  C    2.362450   1.370996   2.637411   3.109033   2.943909
    13  O    2.830864   2.261017   2.884183   2.751106   3.205133
    14  H    3.636767   2.556598   3.822235   3.654523   4.000424
                   11         12         13         14
    11  F    0.000000
    12  C    3.756085   0.000000
    13  O    4.150036   1.358379   0.000000
    14  H    5.100331   1.912341   0.960764   0.000000
 Stoichiometry    C4HF8O(2)
 Framework group  C1[X(C4HF8O)]
 Deg. of freedom    36
 Full point group                 C1      NOp   1
 Largest Abelian subgroup         C1      NOp   1
 Largest concise Abelian subgroup C1      NOp   1
                         Standard orientation:                         
 ---------------------------------------------------------------------
 Center     Atomic      Atomic             Coordinates (Angstroms)
 Number     Number       Type             X           Y           Z
 ---------------------------------------------------------------------
      1          9           0        2.600354   -0.814201    0.809367
      2          6           0        2.188315    0.133769    0.001642
      3          9           0        2.560303   -0.088341   -1.241501
      4          6           0       -0.311810   -0.467076   -0.070760
      5          9           0       -0.176840   -1.423735    0.858244
      6          9           0       -0.088345   -1.010944   -1.278727
      7          9           0        0.670170    0.970928    1.518942
      8          6           0       -1.791752    0.012442   -0.043271
      9          9           0       -2.065309    0.774354   -1.091331
     10          9           0       -2.049023    0.690214    1.068088
     11          9           0       -2.584657   -1.054940   -0.081399
     12          6           0        0.761612    0.628667    0.194507
     13          8           0        0.488988    1.681004   -0.620022
     14          1           0        1.210038    2.315125   -0.587684
 ---------------------------------------------------------------------
 Rotational constants (GHZ):           1.3648247           0.6011381           0.5956497
 Standard basis: 6-311+G(2d,2p) (5D, 7F)
 There are   386 symmetry adapted cartesian basis functions of A   symmetry.
 There are   360 symmetry adapted basis functions of A   symmetry.
   360 basis functions,   557 primitive gaussians,   386 cartesian basis functions
    53 alpha electrons       52 beta electrons
       nuclear repulsion energy      1020.5824653376 Hartrees.
 NAtoms=   14 NActive=   14 NUniq=   14 SFac= 1.00D+00 NAtFMM=   60 NAOKFM=F Big=F
 Integral buffers will be    131072 words long.
 Raffenetti 2 integral format.
 Two-electron integral symmetry is turned on.
 Nuclear repulsion after empirical dispersion term =     1020.5745748094 Hartrees.
 One-electron integrals computed using PRISM.
 NBasis=   360 RedAO= T EigKep=  1.02D-05  NBF=   360
 NBsUse=   360 1.00D-06 EigRej= -1.00D+00 NBFU=   360
 Initial guess from the checkpoint file:  "butene_2OH.chk"
 B after Tr=     0.000000    0.000000   -0.000000
         Rot=    0.999980    0.006380   -0.000239   -0.000204 Ang=   0.73 deg.
 Initial guess <Sx>= 0.0000 <Sy>= 0.0000 <Sz>= 0.5000 <S**2>= 0.7529 S= 0.5014
 Requested convergence on RMS density matrix=1.00D-08 within  32 cycles.
 Requested convergence on MAX density matrix=1.00D-06.
 Requested convergence on             energy=1.00D-06.
 No special actions if energy rises.
 SCF Done:  E(UwB97XD) =  -1026.97045087     A.U. after   10 cycles
            NFock= 10  Conv=0.38D-08     -V/T= 2.0026
 <Sx>= 0.0000 <Sy>= 0.0000 <Sz>= 0.5000 <S**2>= 0.7529 S= 0.5014
 <L.S>= 0.000000000000E+00
 Annihilation of the first spin contaminant:
 S**2 before annihilation     0.7529,   after     0.7500
 QCSCF skips out because SCF is already converged.
 Calling FoFJK, ICntrl=      2127 FMM=F ISym2X=0 I1Cent= 0 IOpClX= 1 NMat=1 NMatS=1 NMatT=0.
 ***** Axes restored to original set *****
 -------------------------------------------------------------------
 Center     Atomic                   Forces (Hartrees/Bohr)
 Number     Number              X              Y              Z
 -------------------------------------------------------------------
      1        9          -0.000091049    0.000025772    0.000053331
      2        6           0.000560189    0.000101846   -0.000174616
      3        9          -0.000012483   -0.000060459    0.000046080
      4        6          -0.000033431    0.000021074   -0.000177098
      5        9           0.000016376   -0.000056967    0.000163987
      6        9          -0.000115635    0.000080018   -0.000065986
      7        9           0.000143206    0.000405616   -0.000281147
      8        6           0.000203206    0.000030931    0.000170195
      9        9           0.000075006   -0.000110569    0.000083931
     10        9          -0.000087916   -0.000010012   -0.000153388
     11        9          -0.000095367    0.000019754   -0.000075160
     12        6          -0.000550924   -0.000626885    0.000188508
     13        8          -0.000031149   -0.000006423    0.000245936
     14        1           0.000019971    0.000186305   -0.000024573
 -------------------------------------------------------------------
 Cartesian Forces:  Max     0.000626885 RMS     0.000200938

 GradGradGradGradGradGradGradGradGradGradGradGradGradGradGradGradGradGrad
 Berny optimization.
 Using GEDIIS/GDIIS optimizer.
 FormGI is forming the generalized inverse of G from B-inverse, IUseBI=4.
 Internal  Forces:  Max     0.000465514 RMS     0.000118468
 Search for a local minimum.
 Step number   8 out of a maximum of   72
 All quantities printed in internal units (Hartrees-Bohrs-Radians)
 Mixed Optimization -- En-DIIS/RFO-DIIS
 Swapping is turned off.
 Update second derivatives using D2CorX and points    5    6    7    8
 DE= -1.68D-05 DEPred=-1.52D-05 R= 1.11D+00
 TightC=F SS=  1.41D+00  RLast= 4.77D-02 DXNew= 2.4000D+00 1.4303D-01
 Trust test= 1.11D+00 RLast= 4.77D-02 DXMaxT set to 1.43D+00
 ITU=  1  1  1  1  0  1  1  0
     Eigenvalues ---    0.00237   0.00250   0.00352   0.00728   0.05005
     Eigenvalues ---    0.05348   0.05480   0.07307   0.08042   0.08762
     Eigenvalues ---    0.09134   0.11861   0.13868   0.15955   0.19419
     Eigenvalues ---    0.19947   0.20951   0.22606   0.24424   0.25010
     Eigenvalues ---    0.25379   0.27274   0.28022   0.28544   0.31325
     Eigenvalues ---    0.37747   0.42187   0.46743   0.53489   0.55005
     Eigenvalues ---    0.55027   0.55075   0.55107   0.55244   0.56021
     Eigenvalues ---    0.58222
 En-DIIS/RFO-DIIS/Sim-DIIS IScMMF=       -3 using points:     8    7    6
 RFO step:  Lambda=-6.73986845D-06.
 DidBck=F Rises=F RFO-DIIS coefs:    1.30440   -0.13950   -0.16491
 Iteration  1 RMS(Cart)=  0.00272694 RMS(Int)=  0.00001083
 Iteration  2 RMS(Cart)=  0.00001021 RMS(Int)=  0.00000101
 Iteration  3 RMS(Cart)=  0.00000000 RMS(Int)=  0.00000101
 Variable       Old X    -DE/DX   Delta X   Delta X   Delta X     New X
                                 (Linear)    (Quad)   (Total)
    R1        2.47896   0.00009   0.00003   0.00014   0.00016   2.47912
    R2        2.48778  -0.00007  -0.00070   0.00019  -0.00052   2.48726
    R3        2.87686  -0.00043   0.00145  -0.00247  -0.00102   2.87584
    R4        2.53284   0.00014  -0.00028   0.00039   0.00011   2.53295
    R5        2.53879   0.00013  -0.00042   0.00042   0.00000   2.53879
    R6        2.94028   0.00010  -0.00022   0.00051   0.00029   2.94058
    R7        2.94170  -0.00005   0.00011  -0.00016  -0.00004   2.94166
    R8        2.59081  -0.00047  -0.00184  -0.00006  -0.00190   2.58891
    R9        2.50257  -0.00006   0.00008  -0.00013  -0.00005   2.50252
   R10        2.50749  -0.00008   0.00013  -0.00021  -0.00009   2.50741
   R11        2.51373  -0.00007  -0.00030   0.00001  -0.00030   2.51343
   R12        2.56696  -0.00026   0.00141  -0.00125   0.00016   2.56712
   R13        1.81558  -0.00012   0.00016  -0.00031  -0.00014   1.81544
    A1        1.95062  -0.00007  -0.00078   0.00053  -0.00025   1.95037
    A2        2.03899   0.00011  -0.00129   0.00149   0.00020   2.03919
    A3        2.02560   0.00003   0.00064   0.00019   0.00083   2.02643
    A4        1.89391   0.00003  -0.00004   0.00038   0.00035   1.89425
    A5        1.87917  -0.00007   0.00074  -0.00124  -0.00050   1.87867
    A6        1.89110  -0.00002   0.00060  -0.00101  -0.00041   1.89070
    A7        1.87429   0.00010  -0.00049   0.00130   0.00081   1.87510
    A8        1.90020  -0.00008   0.00018  -0.00042  -0.00025   1.89995
    A9        2.02188   0.00003  -0.00096   0.00100   0.00003   2.02191
   A10        1.93886   0.00019  -0.00153   0.00165   0.00012   1.93898
   A11        1.93546  -0.00008   0.00060  -0.00069  -0.00009   1.93537
   A12        1.89564  -0.00011   0.00062  -0.00060   0.00003   1.89567
   A13        1.90596  -0.00013   0.00052  -0.00118  -0.00066   1.90530
   A14        1.89214  -0.00002   0.00037  -0.00025   0.00012   1.89226
   A15        1.89473   0.00015  -0.00057   0.00108   0.00050   1.89524
   A16        1.97775  -0.00011   0.00058  -0.00147  -0.00088   1.97686
   A17        1.84009   0.00016  -0.00005   0.00175   0.00169   1.84178
   A18        1.94332   0.00002  -0.00028  -0.00014  -0.00042   1.94289
   A19        1.86957  -0.00010   0.00073  -0.00091  -0.00017   1.86940
   A20        1.88046  -0.00002  -0.00062  -0.00011  -0.00073   1.87973
   A21        1.95248   0.00004  -0.00031   0.00089   0.00059   1.95307
   A22        1.91826   0.00002   0.00036  -0.00014   0.00022   1.91848
    D1       -1.10813  -0.00003   0.00225  -0.00238  -0.00013  -1.10826
    D2        0.93107  -0.00010   0.00342  -0.00316   0.00025   0.93132
    D3        3.05190   0.00006   0.00285  -0.00107   0.00178   3.05368
    D4        1.25183   0.00003   0.00019   0.00052   0.00071   1.25254
    D5       -2.99215  -0.00004   0.00135  -0.00027   0.00109  -2.99106
    D6       -0.87133   0.00012   0.00079   0.00183   0.00262  -0.86871
    D7       -2.93871  -0.00008  -0.00005  -0.00203  -0.00208  -2.94079
    D8        1.22148   0.00001  -0.00008  -0.00119  -0.00127   1.22021
    D9       -0.85919  -0.00006  -0.00013  -0.00172  -0.00185  -0.86103
   D10       -0.90233  -0.00002   0.00003  -0.00155  -0.00152  -0.90384
   D11       -3.02532   0.00007   0.00000  -0.00071  -0.00071  -3.02602
   D12        1.17720   0.00000  -0.00004  -0.00124  -0.00128   1.17591
   D13        1.22511  -0.00003  -0.00076  -0.00044  -0.00120   1.22391
   D14       -0.89788   0.00006  -0.00079   0.00040  -0.00038  -0.89826
   D15       -2.97855  -0.00001  -0.00083  -0.00013  -0.00096  -2.97951
   D16        1.14097   0.00007   0.00045  -0.00011   0.00035   1.14131
   D17       -0.88085  -0.00001  -0.00026  -0.00086  -0.00112  -0.88197
   D18       -2.98423   0.00000   0.00003  -0.00136  -0.00132  -2.98555
   D19       -0.91566   0.00008   0.00006   0.00024   0.00030  -0.91536
   D20       -2.93748   0.00000  -0.00066  -0.00051  -0.00117  -2.93865
   D21        1.24233   0.00002  -0.00036  -0.00101  -0.00137   1.24096
   D22       -3.02925  -0.00001   0.00123  -0.00182  -0.00059  -3.02984
   D23        1.23212  -0.00009   0.00051  -0.00257  -0.00206   1.23006
   D24       -0.87126  -0.00007   0.00081  -0.00307  -0.00226  -0.87352
   D25       -0.80270  -0.00005   0.00968  -0.00049   0.00919  -0.79351
   D26       -2.98147   0.00009   0.00956   0.00153   0.01110  -2.97038
   D27        1.25131   0.00020   0.00923   0.00220   0.01143   1.26273
         Item               Value     Threshold  Converged?
 Maximum Force            0.000466     0.000450     NO 
 RMS     Force            0.000118     0.000300     YES
 Maximum Displacement     0.012938     0.001800     NO 
 RMS     Displacement     0.002727     0.001200     NO 
 Predicted change in Energy=-3.332625D-06
 GradGradGradGradGradGradGradGradGradGradGradGradGradGradGradGradGradGrad

                          Input orientation:                          
 ---------------------------------------------------------------------
 Center     Atomic      Atomic             Coordinates (Angstroms)
 Number     Number       Type             X           Y           Z
 ---------------------------------------------------------------------
      1          9           0       -2.466850   -0.055711    1.014092
      2          6           0       -2.039088   -0.391597   -0.179753
      3          9           0       -2.479485    0.433712   -1.105661
      4          6           0        0.416334    0.331565    0.062263
      5          9           0        0.269530    0.628813    1.360995
      6          9           0        0.107648    1.419890   -0.662429
      7          9           0       -0.408565   -1.800299    0.636303
      8          6           0        1.920969    0.019526   -0.182904
      9          9           0        2.189947   -0.042785   -1.478076
     10          9           0        2.265706   -1.126932    0.389245
     11          9           0        2.649502    0.995803    0.351101
     12          6           0       -0.580336   -0.809761   -0.294400
     13          8           0       -0.286363   -1.237489   -1.549809
     14          1           0       -0.972945   -1.832495   -1.862055
 ---------------------------------------------------------------------
                    Distance matrix (angstroms):
                    1          2          3          4          5
     1  F    0.000000
     2  C    1.311895   0.000000
     3  F    2.175557   1.316203   0.000000
     4  C    3.060836   2.571115   3.124140   0.000000
     5  F    2.841952   2.957171   3.698587   1.340378   0.000000
     6  F    3.408250   2.850077   2.803973   1.343472   2.178590
     7  F    2.724491   2.304126   3.509125   2.356868   2.624038
     8  C    4.548782   3.981341   4.515200   1.556085   2.341390
     9  F    5.281745   4.437572   4.708432   2.378756   3.492759
    10  F    4.892345   4.404058   5.214134   2.377879   2.830487
    11  F    5.265197   4.918288   5.361400   2.347696   2.611289
    12  C    2.416543   1.521828   2.410630   1.556658   2.352041
    13  O    3.567172   2.380048   2.792842   2.356797   3.502125
    14  H    3.696071   2.458249   2.824445   3.211892   4.241443
                    6          7          8          9         10
     6  F    0.000000
     7  F    3.510385   0.000000
     8  C    2.340747   3.067505   0.000000
     9  F    2.672202   3.783083   1.324274   0.000000
    10  F    3.499933   2.768788   1.326862   2.160556   0.000000
    11  F    2.769135   4.153468   1.330052   2.153078   2.157489
    12  C    2.362226   1.369993   2.637550   3.108666   2.944133
    13  O    2.829197   2.260702   2.884585   2.750377   3.207057
    14  H    3.631088   2.561515   3.824169   3.654366   4.006874
                   11         12         13         14
    11  F    0.000000
    12  C    3.756139   0.000000
    13  O    4.149742   1.358464   0.000000
    14  H    5.100927   1.912504   0.960689   0.000000
 Stoichiometry    C4HF8O(2)
 Framework group  C1[X(C4HF8O)]
 Deg. of freedom    36
 Full point group                 C1      NOp   1
 Largest Abelian subgroup         C1      NOp   1
 Largest concise Abelian subgroup C1      NOp   1
                         Standard orientation:                         
 ---------------------------------------------------------------------
 Center     Atomic      Atomic             Coordinates (Angstroms)
 Number     Number       Type             X           Y           Z
 ---------------------------------------------------------------------
      1          9           0        2.599110   -0.818842    0.806052
      2          6           0        2.187506    0.133675    0.003330
      3          9           0        2.560931   -0.081355   -1.240336
      4          6           0       -0.311398   -0.466505   -0.073445
      5          9           0       -0.176486   -1.427732    0.850923
      6          9           0       -0.086618   -1.003761   -1.284125
      7          9           0        0.667851    0.964061    1.523233
      8          6           0       -1.791709    0.012218   -0.043339
      9          9           0       -2.065225    0.781335   -1.086101
     10          9           0       -2.049438    0.682899    1.072154
     11          9           0       -2.584065   -1.055079   -0.089037
     12          6           0        0.761511    0.628101    0.198379
     13          8           0        0.489449    1.683509   -0.612497
     14          1           0        1.214402    2.313255   -0.584447
 ---------------------------------------------------------------------
 Rotational constants (GHZ):           1.3651808           0.6012953           0.5958337
 Standard basis: 6-311+G(2d,2p) (5D, 7F)
 There are   386 symmetry adapted cartesian basis functions of A   symmetry.
 There are   360 symmetry adapted basis functions of A   symmetry.
   360 basis functions,   557 primitive gaussians,   386 cartesian basis functions
    53 alpha electrons       52 beta electrons
       nuclear repulsion energy      1020.7071824322 Hartrees.
 NAtoms=   14 NActive=   14 NUniq=   14 SFac= 1.00D+00 NAtFMM=   60 NAOKFM=F Big=F
 Integral buffers will be    131072 words long.
 Raffenetti 2 integral format.
 Two-electron integral symmetry is turned on.
 Nuclear repulsion after empirical dispersion term =     1020.6992916196 Hartrees.
 One-electron integrals computed using PRISM.
 NBasis=   360 RedAO= T EigKep=  1.02D-05  NBF=   360
 NBsUse=   360 1.00D-06 EigRej= -1.00D+00 NBFU=   360
 Initial guess from the checkpoint file:  "butene_2OH.chk"
 B after Tr=    -0.000000    0.000000    0.000000
         Rot=    0.999997   -0.002612    0.000187   -0.000062 Ang=  -0.30 deg.
 Initial guess <Sx>= 0.0000 <Sy>= 0.0000 <Sz>= 0.5000 <S**2>= 0.7529 S= 0.5014
 Requested convergence on RMS density matrix=1.00D-08 within  32 cycles.
 Requested convergence on MAX density matrix=1.00D-06.
 Requested convergence on             energy=1.00D-06.
 No special actions if energy rises.
 SCF Done:  E(UwB97XD) =  -1026.97045448     A.U. after    9 cycles
            NFock=  9  Conv=0.56D-08     -V/T= 2.0026
 <Sx>= 0.0000 <Sy>= 0.0000 <Sz>= 0.5000 <S**2>= 0.7529 S= 0.5014
 <L.S>= 0.000000000000E+00
 Annihilation of the first spin contaminant:
 S**2 before annihilation     0.7529,   after     0.7500
 QCSCF skips out because SCF is already converged.
 Calling FoFJK, ICntrl=      2127 FMM=F ISym2X=0 I1Cent= 0 IOpClX= 1 NMat=1 NMatS=1 NMatT=0.
 ***** Axes restored to original set *****
 -------------------------------------------------------------------
 Center     Atomic                   Forces (Hartrees/Bohr)
 Number     Number              X              Y              Z
 -------------------------------------------------------------------
      1        9          -0.000049909   -0.000017583    0.000043681
      2        6           0.000259626   -0.000078708    0.000157547
      3        9          -0.000016443    0.000068859   -0.000152057
      4        6           0.000024450   -0.000080468   -0.000094630
      5        9           0.000026005    0.000054294    0.000184994
      6        9           0.000000663    0.000067420   -0.000006544
      7        9           0.000030434    0.000000292    0.000034700
      8        6           0.000028029   -0.000011121    0.000000628
      9        9           0.000075185   -0.000019140   -0.000010673
     10        9          -0.000058045    0.000009397   -0.000018926
     11        9          -0.000025246    0.000050146   -0.000006560
     12        6          -0.000238464   -0.000062100   -0.000275533
     13        8          -0.000085582   -0.000062803    0.000182124
     14        1           0.000029297    0.000081514   -0.000038752
 -------------------------------------------------------------------
 Cartesian Forces:  Max     0.000275533 RMS     0.000097100

 GradGradGradGradGradGradGradGradGradGradGradGradGradGradGradGradGradGrad
 Berny optimization.
 Using GEDIIS/GDIIS optimizer.
 FormGI is forming the generalized inverse of G from B-inverse, IUseBI=4.
 Internal  Forces:  Max     0.000190545 RMS     0.000062200
 Search for a local minimum.
 Step number   9 out of a maximum of   72
 All quantities printed in internal units (Hartrees-Bohrs-Radians)
 Mixed Optimization -- En-DIIS/RFO-DIIS
 Swapping is turned off.
 Update second derivatives using D2CorX and points    5    6    7    8    9
 DE= -3.61D-06 DEPred=-3.33D-06 R= 1.08D+00
 TightC=F SS=  1.41D+00  RLast= 1.99D-02 DXNew= 2.4000D+00 5.9639D-02
 Trust test= 1.08D+00 RLast= 1.99D-02 DXMaxT set to 1.43D+00
 ITU=  1  1  1  1  1  0  1  1  0
     Eigenvalues ---    0.00236   0.00251   0.00354   0.00563   0.05004
     Eigenvalues ---    0.05321   0.05749   0.07323   0.08046   0.08778
     Eigenvalues ---    0.09232   0.11816   0.14162   0.16017   0.19307
     Eigenvalues ---    0.19913   0.21213   0.22494   0.24517   0.25057
     Eigenvalues ---    0.25166   0.26964   0.28004   0.28811   0.30781
     Eigenvalues ---    0.38076   0.42947   0.48495   0.53715   0.54783
     Eigenvalues ---    0.55031   0.55077   0.55231   0.55901   0.55970
     Eigenvalues ---    0.58700
 En-DIIS/RFO-DIIS/Sim-DIIS IScMMF=       -3 using points:     9    8    7    6
 RFO step:  Lambda=-1.51376264D-06.
 DidBck=F Rises=F RFO-DIIS coefs:    1.42538   -0.39778   -0.00163   -0.02597
 Iteration  1 RMS(Cart)=  0.00154542 RMS(Int)=  0.00000359
 Iteration  2 RMS(Cart)=  0.00000346 RMS(Int)=  0.00000018
 Iteration  3 RMS(Cart)=  0.00000000 RMS(Int)=  0.00000018
 Variable       Old X    -DE/DX   Delta X   Delta X   Delta X     New X
                                 (Linear)    (Quad)   (Total)
    R1        2.47912   0.00005   0.00007   0.00001   0.00008   2.47920
    R2        2.48726   0.00015  -0.00030   0.00040   0.00010   2.48736
    R3        2.87584  -0.00019  -0.00024  -0.00058  -0.00082   2.87502
    R4        2.53295   0.00019   0.00001   0.00038   0.00038   2.53333
    R5        2.53879   0.00006  -0.00006   0.00013   0.00007   2.53886
    R6        2.94058   0.00002   0.00011  -0.00008   0.00003   2.94060
    R7        2.94166   0.00011  -0.00000   0.00045   0.00045   2.94210
    R8        2.58891   0.00003  -0.00103   0.00058  -0.00045   2.58846
    R9        2.50252   0.00003  -0.00001   0.00007   0.00006   2.50257
   R10        2.50741  -0.00003  -0.00002  -0.00006  -0.00007   2.50733
   R11        2.51343   0.00002  -0.00016   0.00010  -0.00005   2.51338
   R12        2.56712  -0.00015   0.00024  -0.00046  -0.00022   2.56691
   R13        1.81544  -0.00006  -0.00004  -0.00007  -0.00011   1.81533
    A1        1.95037   0.00003  -0.00018   0.00031   0.00013   1.95050
    A2        2.03919   0.00009  -0.00008   0.00049   0.00041   2.03960
    A3        2.02643  -0.00010   0.00046  -0.00057  -0.00011   2.02632
    A4        1.89425   0.00000   0.00013  -0.00024  -0.00011   1.89414
    A5        1.87867  -0.00007  -0.00008  -0.00045  -0.00053   1.87814
    A6        1.89070   0.00002  -0.00011   0.00027   0.00016   1.89086
    A7        1.87510  -0.00002   0.00026  -0.00025   0.00001   1.87511
    A8        1.89995  -0.00001  -0.00006   0.00017   0.00011   1.90006
    A9        2.02191   0.00008  -0.00012   0.00044   0.00032   2.02224
   A10        1.93898   0.00015  -0.00015   0.00067   0.00052   1.93950
   A11        1.93537  -0.00009   0.00006  -0.00049  -0.00043   1.93494
   A12        1.89567  -0.00009   0.00013  -0.00053  -0.00040   1.89527
   A13        1.90530  -0.00003  -0.00024   0.00019  -0.00005   1.90525
   A14        1.89226  -0.00003   0.00008  -0.00006   0.00002   1.89228
   A15        1.89524   0.00008   0.00013   0.00021   0.00034   1.89557
   A16        1.97686  -0.00004  -0.00028  -0.00002  -0.00030   1.97656
   A17        1.84178   0.00002   0.00068  -0.00035   0.00033   1.84211
   A18        1.94289   0.00000  -0.00022   0.00023   0.00000   1.94289
   A19        1.86940  -0.00002   0.00006  -0.00027  -0.00022   1.86918
   A20        1.87973   0.00003  -0.00040   0.00042   0.00002   1.87975
   A21        1.95307   0.00000   0.00020  -0.00004   0.00016   1.95323
   A22        1.91848   0.00007   0.00010   0.00059   0.00069   1.91917
    D1       -1.10826  -0.00001   0.00045  -0.00064  -0.00019  -1.10845
    D2        0.93132  -0.00004   0.00079  -0.00119  -0.00041   0.93092
    D3        3.05368  -0.00002   0.00134  -0.00133   0.00000   3.05369
    D4        1.25254   0.00004   0.00060  -0.00021   0.00039   1.25292
    D5       -2.99106   0.00001   0.00094  -0.00077   0.00017  -2.99090
    D6       -0.86871   0.00002   0.00149  -0.00091   0.00058  -0.86813
    D7       -2.94079   0.00002  -0.00108  -0.00041  -0.00149  -2.94228
    D8        1.22021   0.00001  -0.00071  -0.00078  -0.00149   1.21872
    D9       -0.86103   0.00002  -0.00099  -0.00041  -0.00140  -0.86244
   D10       -0.90384  -0.00003  -0.00083  -0.00105  -0.00188  -0.90572
   D11       -3.02602  -0.00003  -0.00047  -0.00141  -0.00188  -3.02790
   D12        1.17591  -0.00002  -0.00075  -0.00104  -0.00179   1.17412
   D13        1.22391  -0.00000  -0.00079  -0.00072  -0.00151   1.22240
   D14       -0.89826  -0.00001  -0.00043  -0.00109  -0.00151  -0.89978
   D15       -2.97951   0.00000  -0.00071  -0.00072  -0.00143  -2.98094
   D16        1.14131   0.00001   0.00022   0.00010   0.00031   1.14163
   D17       -0.88197   0.00002  -0.00049   0.00070   0.00021  -0.88176
   D18       -2.98555   0.00001  -0.00055   0.00067   0.00013  -2.98542
   D19       -0.91536   0.00000   0.00016   0.00013   0.00029  -0.91507
   D20       -2.93865   0.00001  -0.00054   0.00074   0.00019  -2.93845
   D21        1.24096   0.00000  -0.00060   0.00071   0.00011   1.24107
   D22       -3.02984  -0.00001  -0.00005   0.00002  -0.00003  -3.02987
   D23        1.23006  -0.00001  -0.00076   0.00063  -0.00013   1.22993
   D24       -0.87352  -0.00002  -0.00081   0.00060  -0.00021  -0.87373
   D25       -0.79351   0.00002   0.00510   0.00044   0.00554  -0.78797
   D26       -2.97038   0.00004   0.00588   0.00003   0.00590  -2.96447
   D27        1.26273   0.00005   0.00594   0.00012   0.00606   1.26880
         Item               Value     Threshold  Converged?
 Maximum Force            0.000191     0.000450     YES
 RMS     Force            0.000062     0.000300     YES
 Maximum Displacement     0.006266     0.001800     NO 
 RMS     Displacement     0.001545     0.001200     NO 
 Predicted change in Energy=-7.552042D-07
 GradGradGradGradGradGradGradGradGradGradGradGradGradGradGradGradGradGrad

                          Input orientation:                          
 ---------------------------------------------------------------------
 Center     Atomic      Atomic             Coordinates (Angstroms)
 Number     Number       Type             X           Y           Z
 ---------------------------------------------------------------------
      1          9           0       -2.466677   -0.055947    1.014168
      2          6           0       -2.038576   -0.392041   -0.179546
      3          9           0       -2.478896    0.432887   -1.105902
      4          6           0        0.416416    0.331167    0.062224
      5          9           0        0.270044    0.628561    1.361181
      6          9           0        0.107520    1.419565   -0.662337
      7          9           0       -0.408228   -1.800535    0.636508
      8          6           0        1.921200    0.019607   -0.182729
      9          9           0        2.190628   -0.044797   -1.477737
     10          9           0        2.266182   -1.125741    0.391398
     11          9           0        2.648810    0.997350    0.349780
     12          6           0       -0.580355   -0.810450   -0.294260
     13          8           0       -0.286595   -1.238206   -1.549584
     14          1           0       -0.975469   -1.829179   -1.864251
 ---------------------------------------------------------------------
                    Distance matrix (angstroms):
                    1          2          3          4          5
     1  F    0.000000
     2  C    1.311938   0.000000
     3  F    2.175731   1.316253   0.000000
     4  C    3.060765   2.570694   3.123731   0.000000
     5  F    2.842290   2.957228   3.698846   1.340582   0.000000
     6  F    3.407976   2.849690   2.803539   1.343509   2.178699
     7  F    2.724596   2.303873   3.508821   2.356691   2.624064
     8  C    4.548817   3.981117   4.514852   1.556100   2.341111
     9  F    5.282064   4.437572   4.708597   2.379213   3.493066
    10  F    4.892060   4.404002   5.214114   2.377513   2.828890
    11  F    5.264889   4.917539   5.360131   2.347355   2.611028
    12  C    2.416500   1.521392   2.410209   1.556894   2.352534
    13  O    3.566976   2.379588   2.792058   2.356922   3.502460
    14  H    3.695044   2.456379   2.819987   3.211813   4.242075
                    6          7          8          9         10
     6  F    0.000000
     7  F    3.510276   0.000000
     8  C    2.340799   3.067621   0.000000
     9  F    2.673681   3.782419   1.324305   0.000000
    10  F    3.499823   2.769096   1.326822   2.160513   0.000000
    11  F    2.767815   4.154017   1.330024   2.153096   2.157696
    12  C    2.362545   1.369754   2.638031   3.108888   2.944878
    13  O    2.829537   2.260532   2.885264   2.750640   3.208852
    14  H    3.629298   2.564445   3.825731   3.654802   4.011368
                   11         12         13         14
    11  F    0.000000
    12  C    3.756386   0.000000
    13  O    4.149928   1.358348   0.000000
    14  H    5.101627   1.912798   0.960630   0.000000
 Stoichiometry    C4HF8O(2)
 Framework group  C1[X(C4HF8O)]
 Deg. of freedom    36
 Full point group                 C1      NOp   1
 Largest Abelian subgroup         C1      NOp   1
 Largest concise Abelian subgroup C1      NOp   1
                         Standard orientation:                         
 ---------------------------------------------------------------------
 Center     Atomic      Atomic             Coordinates (Angstroms)
 Number     Number       Type             X           Y           Z
 ---------------------------------------------------------------------
      1          9           0        2.598925   -0.820968    0.804371
      2          6           0        2.187218    0.133305    0.003720
      3          9           0        2.560502   -0.078875   -1.240531
      4          6           0       -0.311416   -0.466024   -0.074386
      5          9           0       -0.177162   -1.429269    0.848270
      6          9           0       -0.086598   -1.001168   -1.286035
      7          9           0        0.667972    0.960988    1.525123
      8          6           0       -1.791786    0.012504   -0.043401
      9          9           0       -2.065433    0.785369   -1.083392
     10          9           0       -2.049626    0.679128    1.074449
     11          9           0       -2.583609   -1.054970   -0.093206
     12          6           0        0.761899    0.627930    0.199802
     13          8           0        0.490297    1.684919   -0.608972
     14          1           0        1.217389    2.312237   -0.584058
 ---------------------------------------------------------------------
 Rotational constants (GHZ):           1.3651008           0.6013205           0.5958641
 Standard basis: 6-311+G(2d,2p) (5D, 7F)
 There are   386 symmetry adapted cartesian basis functions of A   symmetry.
 There are   360 symmetry adapted basis functions of A   symmetry.
   360 basis functions,   557 primitive gaussians,   386 cartesian basis functions
    53 alpha electrons       52 beta electrons
       nuclear repulsion energy      1020.7130591697 Hartrees.
 NAtoms=   14 NActive=   14 NUniq=   14 SFac= 1.00D+00 NAtFMM=   60 NAOKFM=F Big=F
 Integral buffers will be    131072 words long.
 Raffenetti 2 integral format.
 Two-electron integral symmetry is turned on.
 Nuclear repulsion after empirical dispersion term =     1020.7051681706 Hartrees.
 One-electron integrals computed using PRISM.
 NBasis=   360 RedAO= T EigKep=  1.02D-05  NBF=   360
 NBsUse=   360 1.00D-06 EigRej= -1.00D+00 NBFU=   360
 Initial guess from the checkpoint file:  "butene_2OH.chk"
 B after Tr=     0.000000   -0.000000   -0.000000
         Rot=    0.999999   -0.001165    0.000015    0.000058 Ang=  -0.13 deg.
 Initial guess <Sx>= 0.0000 <Sy>= 0.0000 <Sz>= 0.5000 <S**2>= 0.7529 S= 0.5014
 Requested convergence on RMS density matrix=1.00D-08 within  32 cycles.
 Requested convergence on MAX density matrix=1.00D-06.
 Requested convergence on             energy=1.00D-06.
 No special actions if energy rises.
 SCF Done:  E(UwB97XD) =  -1026.97045537     A.U. after    8 cycles
            NFock=  8  Conv=0.52D-08     -V/T= 2.0026
 <Sx>= 0.0000 <Sy>= 0.0000 <Sz>= 0.5000 <S**2>= 0.7529 S= 0.5014
 <L.S>= 0.000000000000E+00
 Annihilation of the first spin contaminant:
 S**2 before annihilation     0.7529,   after     0.7500
 QCSCF skips out because SCF is already converged.
 Calling FoFJK, ICntrl=      2127 FMM=F ISym2X=0 I1Cent= 0 IOpClX= 1 NMat=1 NMatS=1 NMatT=0.
 ***** Axes restored to original set *****
 -------------------------------------------------------------------
 Center     Atomic                   Forces (Hartrees/Bohr)
 Number     Number              X              Y              Z
 -------------------------------------------------------------------
      1        9          -0.000006868   -0.000022854   -0.000026372
      2        6           0.000036339   -0.000043126    0.000184005
      3        9          -0.000032546    0.000073506   -0.000120959
      4        6           0.000050065   -0.000039195   -0.000045325
      5        9          -0.000012965    0.000004169    0.000051040
      6        9          -0.000007735    0.000013144   -0.000001378
      7        9           0.000028806   -0.000126419    0.000126144
      8        6          -0.000076707   -0.000013032   -0.000018372
      9        9           0.000037988   -0.000000933    0.000018725
     10        9           0.000007285   -0.000000390    0.000000251
     11        9           0.000036326    0.000021383   -0.000002034
     12        6          -0.000057861    0.000119552   -0.000240186
     13        8          -0.000000599   -0.000016197    0.000076245
     14        1          -0.000001529    0.000030391   -0.000001785
 -------------------------------------------------------------------
 Cartesian Forces:  Max     0.000240186 RMS     0.000067893

 GradGradGradGradGradGradGradGradGradGradGradGradGradGradGradGradGradGrad
 Berny optimization.
 Using GEDIIS/GDIIS optimizer.
 FormGI is forming the generalized inverse of G from B-inverse, IUseBI=4.
 Internal  Forces:  Max     0.000181563 RMS     0.000035676
 Search for a local minimum.
 Step number  10 out of a maximum of   72
 All quantities printed in internal units (Hartrees-Bohrs-Radians)
 Mixed Optimization -- En-DIIS/RFO-DIIS
 Swapping is turned off.
 Update second derivatives using D2CorX and points    5    6    7    8    9
                                                     10
 DE= -8.86D-07 DEPred=-7.55D-07 R= 1.17D+00
 Trust test= 1.17D+00 RLast= 1.14D-02 DXMaxT set to 1.43D+00
 ITU=  0  1  1  1  1  1  0  1  1  0
     Eigenvalues ---    0.00230   0.00251   0.00351   0.00481   0.05000
     Eigenvalues ---    0.05262   0.05785   0.07313   0.08057   0.08782
     Eigenvalues ---    0.09253   0.11788   0.14389   0.16096   0.19199
     Eigenvalues ---    0.19945   0.21390   0.22212   0.23637   0.25025
     Eigenvalues ---    0.25281   0.27314   0.28144   0.29043   0.31463
     Eigenvalues ---    0.38175   0.41666   0.51961   0.53647   0.54027
     Eigenvalues ---    0.55048   0.55111   0.55303   0.55952   0.57494
     Eigenvalues ---    0.57857
 En-DIIS/RFO-DIIS/Sim-DIIS IScMMF=       -3 using points:    10    9    8    7    6
 RFO step:  Lambda=-3.22800637D-07.
 DidBck=F Rises=F RFO-DIIS coefs:    1.40524   -0.30264   -0.14759    0.02862    0.01638
 Iteration  1 RMS(Cart)=  0.00081817 RMS(Int)=  0.00000059
 Iteration  2 RMS(Cart)=  0.00000057 RMS(Int)=  0.00000007
 Variable       Old X    -DE/DX   Delta X   Delta X   Delta X     New X
                                 (Linear)    (Quad)   (Total)
    R1        2.47920  -0.00003   0.00004  -0.00011  -0.00006   2.47914
    R2        2.48736   0.00014   0.00007   0.00017   0.00025   2.48761
    R3        2.87502   0.00001  -0.00061   0.00045  -0.00016   2.87486
    R4        2.53333   0.00005   0.00020  -0.00003   0.00017   2.53350
    R5        2.53886   0.00001   0.00008  -0.00003   0.00004   2.53891
    R6        2.94060   0.00000   0.00008  -0.00011  -0.00003   2.94057
    R7        2.94210   0.00002   0.00016  -0.00007   0.00010   2.94220
    R8        2.58846   0.00018  -0.00015   0.00041   0.00026   2.58872
    R9        2.50257  -0.00001   0.00001  -0.00002  -0.00001   2.50256
   R10        2.50733  -0.00000  -0.00005   0.00004  -0.00002   2.50731
   R11        2.51338   0.00004  -0.00001   0.00006   0.00005   2.51343
   R12        2.56691  -0.00007  -0.00025   0.00002  -0.00023   2.56668
   R13        1.81533  -0.00002  -0.00008   0.00003  -0.00005   1.81528
    A1        1.95050   0.00002   0.00014  -0.00002   0.00012   1.95062
    A2        2.03960   0.00004   0.00034  -0.00004   0.00030   2.03990
    A3        2.02632  -0.00004  -0.00002  -0.00011  -0.00013   2.02618
    A4        1.89414   0.00001  -0.00002  -0.00000  -0.00002   1.89412
    A5        1.87814  -0.00001  -0.00033   0.00018  -0.00015   1.87800
    A6        1.89086  -0.00002  -0.00006  -0.00004  -0.00010   1.89076
    A7        1.87511  -0.00001   0.00013  -0.00005   0.00009   1.87520
    A8        1.90006  -0.00002   0.00001  -0.00006  -0.00005   1.90001
    A9        2.02224   0.00004   0.00025  -0.00003   0.00021   2.02245
   A10        1.93950   0.00006   0.00040  -0.00008   0.00032   1.93982
   A11        1.93494   0.00000  -0.00024   0.00013  -0.00011   1.93484
   A12        1.89527   0.00002  -0.00020   0.00016  -0.00004   1.89523
   A13        1.90525  -0.00003  -0.00017   0.00011  -0.00006   1.90519
   A14        1.89228  -0.00004  -0.00004  -0.00011  -0.00015   1.89213
   A15        1.89557  -0.00001   0.00025  -0.00022   0.00003   1.89561
   A16        1.97656   0.00000  -0.00027   0.00025  -0.00002   1.97654
   A17        1.84211  -0.00000   0.00029  -0.00024   0.00005   1.84216
   A18        1.94289   0.00001  -0.00001   0.00018   0.00016   1.94306
   A19        1.86918  -0.00001  -0.00017  -0.00004  -0.00021   1.86897
   A20        1.87975  -0.00000   0.00000  -0.00001  -0.00001   1.87974
   A21        1.95323  -0.00000   0.00016  -0.00016   0.00000   1.95323
   A22        1.91917  -0.00000   0.00023  -0.00007   0.00015   1.91932
    D1       -1.10845  -0.00001  -0.00021   0.00009  -0.00012  -1.10856
    D2        0.93092  -0.00002  -0.00037   0.00003  -0.00034   0.93057
    D3        3.05369  -0.00001  -0.00001  -0.00021  -0.00021   3.05347
    D4        1.25292   0.00002   0.00040  -0.00012   0.00028   1.25321
    D5       -2.99090   0.00001   0.00024  -0.00018   0.00005  -2.99084
    D6       -0.86813   0.00001   0.00060  -0.00042   0.00018  -0.86795
    D7       -2.94228   0.00000  -0.00094  -0.00009  -0.00104  -2.94332
    D8        1.21872  -0.00001  -0.00084  -0.00026  -0.00110   1.21762
    D9       -0.86244  -0.00000  -0.00088  -0.00018  -0.00106  -0.86349
   D10       -0.90572   0.00000  -0.00106  -0.00003  -0.00109  -0.90681
   D11       -3.02790  -0.00001  -0.00096  -0.00020  -0.00115  -3.02906
   D12        1.17412  -0.00000  -0.00100  -0.00011  -0.00111   1.17301
   D13        1.22240   0.00001  -0.00078  -0.00016  -0.00094   1.22146
   D14       -0.89978  -0.00000  -0.00068  -0.00033  -0.00100  -0.90078
   D15       -2.98094   0.00000  -0.00072  -0.00024  -0.00096  -2.98190
   D16        1.14163  -0.00001   0.00012  -0.00050  -0.00039   1.14124
   D17       -0.88176  -0.00001   0.00002  -0.00033  -0.00031  -0.88207
   D18       -2.98542   0.00000  -0.00008  -0.00012  -0.00020  -2.98562
   D19       -0.91507   0.00000   0.00016  -0.00045  -0.00028  -0.91535
   D20       -2.93845   0.00001   0.00006  -0.00027  -0.00020  -2.93866
   D21        1.24107   0.00001  -0.00003  -0.00006  -0.00009   1.24098
   D22       -3.02987  -0.00001  -0.00019  -0.00032  -0.00051  -3.03038
   D23        1.22993  -0.00000  -0.00029  -0.00014  -0.00043   1.22949
   D24       -0.87373   0.00000  -0.00038   0.00007  -0.00032  -0.87405
   D25       -0.78797   0.00002   0.00198   0.00021   0.00219  -0.78578
   D26       -2.96447   0.00001   0.00233  -0.00021   0.00212  -2.96235
   D27        1.26880   0.00002   0.00244  -0.00007   0.00237   1.27117
         Item               Value     Threshold  Converged?
 Maximum Force            0.000182     0.000450     YES
 RMS     Force            0.000036     0.000300     YES
 Maximum Displacement     0.002869     0.001800     NO 
 RMS     Displacement     0.000818     0.001200     YES
 Predicted change in Energy=-1.607820D-07
 GradGradGradGradGradGradGradGradGradGradGradGradGradGradGradGradGradGrad

                          Input orientation:                          
 ---------------------------------------------------------------------
 Center     Atomic      Atomic             Coordinates (Angstroms)
 Number     Number       Type             X           Y           Z
 ---------------------------------------------------------------------
      1          9           0       -2.466674   -0.056410    1.014437
      2          6           0       -2.038490   -0.392212   -0.179292
      3          9           0       -2.479010    0.432716   -1.105739
      4          6           0        0.416491    0.331020    0.062039
      5          9           0        0.269973    0.628427    1.361070
      6          9           0        0.107572    1.419427   -0.662544
      7          9           0       -0.407867   -1.800743    0.636383
      8          6           0        1.921343    0.019585   -0.182554
      9          9           0        2.191219   -0.046163   -1.477395
     10          9           0        2.266482   -1.125055    0.392869
     11          9           0        2.648664    0.998112    0.348975
     12          6           0       -0.580378   -0.810583   -0.294435
     13          8           0       -0.286774   -1.238220   -1.549705
     14          1           0       -0.976547   -1.827661   -1.865196
 ---------------------------------------------------------------------
                    Distance matrix (angstroms):
                    1          2          3          4          5
     1  F    0.000000
     2  C    1.311905   0.000000
     3  F    2.175901   1.316385   0.000000
     4  C    3.061014   2.570649   3.123775   0.000000
     5  F    2.842251   2.956927   3.698696   1.340671   0.000000
     6  F    3.408387   2.849763   2.803645   1.343533   2.178776
     7  F    2.724758   2.303956   3.508983   2.356661   2.624024
     8  C    4.548985   3.981189   4.515092   1.556085   2.341044
     9  F    5.282547   4.437934   4.709405   2.379451   3.493299
    10  F    4.891943   4.404226   5.214611   2.377408   2.828102
    11  F    5.265125   4.917467   5.359935   2.347327   2.611355
    12  C    2.416617   1.521309   2.410147   1.556945   2.352561
    13  O    3.566996   2.379553   2.791959   2.356865   3.502420
    14  H    3.694604   2.455710   2.818418   3.211650   4.242048
                    6          7          8          9         10
     6  F    0.000000
     7  F    3.510325   0.000000
     8  C    2.340879   3.067487   0.000000
     9  F    2.674607   3.781780   1.324299   0.000000
    10  F    3.499882   2.769114   1.326814   2.160454   0.000000
    11  F    2.767278   4.154344   1.330050   2.152996   2.157737
    12  C    2.362566   1.369891   2.638239   3.108936   2.945486
    13  O    2.829425   2.260548   2.885646   2.750759   3.210220
    14  H    3.628397   2.565545   3.826405   3.654978   4.013695
                   11         12         13         14
    11  F    0.000000
    12  C    3.756603   0.000000
    13  O    4.150055   1.358226   0.000000
    14  H    5.101931   1.912770   0.960606   0.000000
 Stoichiometry    C4HF8O(2)
 Framework group  C1[X(C4HF8O)]
 Deg. of freedom    36
 Full point group                 C1      NOp   1
 Largest Abelian subgroup         C1      NOp   1
 Largest concise Abelian subgroup C1      NOp   1
                         Standard orientation:                         
 ---------------------------------------------------------------------
 Center     Atomic      Atomic             Coordinates (Angstroms)
 Number     Number       Type             X           Y           Z
 ---------------------------------------------------------------------
      1          9           0        2.598975   -0.821302    0.804354
      2          6           0        2.187223    0.133120    0.003959
      3          9           0        2.560686   -0.078499   -1.240474
      4          6           0       -0.311444   -0.465795   -0.074780
      5          9           0       -0.177103   -1.429514    0.847497
      6          9           0       -0.086645   -1.000415   -1.286690
      7          9           0        0.667765    0.960483    1.525449
      8          6           0       -1.791858    0.012521   -0.043339
      9          9           0       -2.065809    0.786922   -1.082099
     10          9           0       -2.049846    0.677380    1.075517
     11          9           0       -2.583526   -1.055019   -0.094872
     12          6           0        0.762041    0.627947    0.199880
     13          8           0        0.490650    1.685171   -0.608452
     14          1           0        1.218564    2.311546   -0.584828
 ---------------------------------------------------------------------
 Rotational constants (GHZ):           1.3651109           0.6012644           0.5958223
 Standard basis: 6-311+G(2d,2p) (5D, 7F)
 There are   386 symmetry adapted cartesian basis functions of A   symmetry.
 There are   360 symmetry adapted basis functions of A   symmetry.
   360 basis functions,   557 primitive gaussians,   386 cartesian basis functions
    53 alpha electrons       52 beta electrons
       nuclear repulsion energy      1020.6909932268 Hartrees.
 NAtoms=   14 NActive=   14 NUniq=   14 SFac= 1.00D+00 NAtFMM=   60 NAOKFM=F Big=F
 Integral buffers will be    131072 words long.
 Raffenetti 2 integral format.
 Two-electron integral symmetry is turned on.
 Nuclear repulsion after empirical dispersion term =     1020.6831021456 Hartrees.
 One-electron integrals computed using PRISM.
 NBasis=   360 RedAO= T EigKep=  1.01D-05  NBF=   360
 NBsUse=   360 1.00D-06 EigRej= -1.00D+00 NBFU=   360
 Initial guess from the checkpoint file:  "butene_2OH.chk"
 B after Tr=    -0.000000    0.000000   -0.000000
         Rot=    1.000000   -0.000317    0.000011    0.000002 Ang=  -0.04 deg.
 Initial guess <Sx>= 0.0000 <Sy>= 0.0000 <Sz>= 0.5000 <S**2>= 0.7529 S= 0.5014
 Requested convergence on RMS density matrix=1.00D-08 within  32 cycles.
 Requested convergence on MAX density matrix=1.00D-06.
 Requested convergence on             energy=1.00D-06.
 No special actions if energy rises.
 SCF Done:  E(UwB97XD) =  -1026.97045557     A.U. after    8 cycles
            NFock=  8  Conv=0.46D-08     -V/T= 2.0026
 <Sx>= 0.0000 <Sy>= 0.0000 <Sz>= 0.5000 <S**2>= 0.7529 S= 0.5014
 <L.S>= 0.000000000000E+00
 Annihilation of the first spin contaminant:
 S**2 before annihilation     0.7529,   after     0.7500
 QCSCF skips out because SCF is already converged.
 Calling FoFJK, ICntrl=      2127 FMM=F ISym2X=0 I1Cent= 0 IOpClX= 1 NMat=1 NMatS=1 NMatT=0.
 ***** Axes restored to original set *****
 -------------------------------------------------------------------
 Center     Atomic                   Forces (Hartrees/Bohr)
 Number     Number              X              Y              Z
 -------------------------------------------------------------------
      1        9           0.000011774   -0.000013436   -0.000048364
      2        6          -0.000023299   -0.000018278    0.000101976
      3        9          -0.000010286    0.000028777   -0.000039228
      4        6           0.000009866   -0.000013044   -0.000004616
      5        9          -0.000002058    0.000003485   -0.000003346
      6        9           0.000008558   -0.000010493    0.000005834
      7        9          -0.000002576   -0.000086546    0.000075680
      8        6          -0.000035260   -0.000008478   -0.000013339
      9        9          -0.000004970    0.000000024    0.000004433
     10        9           0.000007571   -0.000003002    0.000007868
     11        9           0.000020407    0.000012540    0.000013536
     12        6           0.000029665    0.000116548   -0.000111763
     13        8           0.000001742   -0.000012550    0.000015782
     14        1          -0.000011134    0.000004454   -0.000004453
 -------------------------------------------------------------------
 Cartesian Forces:  Max     0.000116548 RMS     0.000037833

 GradGradGradGradGradGradGradGradGradGradGradGradGradGradGradGradGradGrad
 Berny optimization.
 Using GEDIIS/GDIIS optimizer.
 FormGI is forming the generalized inverse of G from B-inverse, IUseBI=4.
 Internal  Forces:  Max     0.000114476 RMS     0.000018869
 Search for a local minimum.
 Step number  11 out of a maximum of   72
 All quantities printed in internal units (Hartrees-Bohrs-Radians)
 Mixed Optimization -- En-DIIS/RFO-DIIS
 Swapping is turned off.
 Update second derivatives using D2CorX and points    5    6    7    8    9
                                                     10   11
 DE= -2.00D-07 DEPred=-1.61D-07 R= 1.25D+00
 Trust test= 1.25D+00 RLast= 5.18D-03 DXMaxT set to 1.43D+00
 ITU=  0  0  1  1  1  1  1  0  1  1  0
     Eigenvalues ---    0.00216   0.00253   0.00350   0.00452   0.05030
     Eigenvalues ---    0.05201   0.05668   0.07316   0.08083   0.08796
     Eigenvalues ---    0.09301   0.12787   0.14649   0.16046   0.19088
     Eigenvalues ---    0.19881   0.21081   0.21845   0.23346   0.25131
     Eigenvalues ---    0.25892   0.27248   0.27911   0.29247   0.32030
     Eigenvalues ---    0.37950   0.38296   0.48351   0.53555   0.54110
     Eigenvalues ---    0.55065   0.55098   0.55286   0.55898   0.56444
     Eigenvalues ---    0.61158
 En-DIIS/RFO-DIIS/Sim-DIIS IScMMF=       -3 using points:    11   10    9    8    7    6
 RFO step:  Lambda=-9.24277055D-08.
 DIIS inversion failure, remove point   6.
 DIIS inversion failure, remove point   5.
 RFO-DIIS uses    4 points instead of    6
 DidBck=F Rises=F RFO-DIIS coefs:    1.77030   -0.92012    0.18664   -0.03681    0.00000
                  RFO-DIIS coefs:    0.00000
 Iteration  1 RMS(Cart)=  0.00060468 RMS(Int)=  0.00000021
 Iteration  2 RMS(Cart)=  0.00000022 RMS(Int)=  0.00000002
 Variable       Old X    -DE/DX   Delta X   Delta X   Delta X     New X
                                 (Linear)    (Quad)   (Total)
    R1        2.47914  -0.00005  -0.00006  -0.00008  -0.00013   2.47901
    R2        2.48761   0.00005   0.00016  -0.00001   0.00015   2.48776
    R3        2.87486   0.00002  -0.00004   0.00001  -0.00002   2.87483
    R4        2.53350  -0.00000   0.00008  -0.00003   0.00004   2.53354
    R5        2.53891  -0.00001   0.00002  -0.00003  -0.00001   2.53890
    R6        2.94057  -0.00002  -0.00001  -0.00007  -0.00008   2.94049
    R7        2.94220  -0.00000   0.00001  -0.00001  -0.00001   2.94219
    R8        2.58872   0.00011   0.00020   0.00011   0.00031   2.58902
    R9        2.50256  -0.00000  -0.00002   0.00001  -0.00001   2.50255
   R10        2.50731   0.00001  -0.00000   0.00001   0.00000   2.50732
   R11        2.51343   0.00003   0.00003   0.00004   0.00007   2.51350
   R12        2.56668  -0.00001  -0.00014   0.00002  -0.00011   2.56656
   R13        1.81528   0.00001  -0.00002   0.00002  -0.00000   1.81528
    A1        1.95062   0.00000   0.00006   0.00002   0.00008   1.95070
    A2        2.03990   0.00001   0.00017  -0.00001   0.00016   2.04006
    A3        2.02618  -0.00001  -0.00005  -0.00003  -0.00009   2.02610
    A4        1.89412   0.00000   0.00002  -0.00004  -0.00002   1.89410
    A5        1.87800  -0.00000  -0.00005   0.00001  -0.00004   1.87795
    A6        1.89076  -0.00000  -0.00012   0.00014   0.00002   1.89077
    A7        1.87520  -0.00001   0.00009  -0.00013  -0.00004   1.87516
    A8        1.90001  -0.00000  -0.00006   0.00001  -0.00005   1.89996
    A9        2.02245   0.00002   0.00012   0.00001   0.00013   2.02258
   A10        1.93982  -0.00001   0.00017  -0.00016   0.00001   1.93983
   A11        1.93484   0.00001  -0.00002   0.00002  -0.00000   1.93483
   A12        1.89523   0.00001   0.00003  -0.00005  -0.00002   1.89521
   A13        1.90519   0.00000  -0.00006   0.00006   0.00000   1.90519
   A14        1.89213   0.00000  -0.00011   0.00012   0.00001   1.89213
   A15        1.89561  -0.00001  -0.00001   0.00001   0.00000   1.89561
   A16        1.97654   0.00001  -0.00000   0.00004   0.00004   1.97658
   A17        1.84216  -0.00001   0.00005  -0.00022  -0.00017   1.84199
   A18        1.94306  -0.00000   0.00011  -0.00009   0.00002   1.94308
   A19        1.86897   0.00001  -0.00013   0.00012  -0.00001   1.86896
   A20        1.87974   0.00001  -0.00003   0.00018   0.00015   1.87989
   A21        1.95323  -0.00000  -0.00000  -0.00003  -0.00003   1.95320
   A22        1.91932  -0.00000   0.00002   0.00003   0.00005   1.91937
    D1       -1.10856   0.00000  -0.00007  -0.00004  -0.00011  -1.10867
    D2        0.93057   0.00000  -0.00020  -0.00001  -0.00020   0.93037
    D3        3.05347  -0.00001  -0.00010  -0.00024  -0.00034   3.05313
    D4        1.25321   0.00001   0.00018  -0.00007   0.00011   1.25332
    D5       -2.99084   0.00001   0.00005  -0.00004   0.00002  -2.99083
    D6       -0.86795  -0.00001   0.00015  -0.00027  -0.00012  -0.86807
    D7       -2.94332   0.00000  -0.00065   0.00012  -0.00053  -2.94385
    D8        1.21762   0.00000  -0.00067   0.00013  -0.00054   1.21708
    D9       -0.86349   0.00000  -0.00067   0.00014  -0.00053  -0.86402
   D10       -0.90681  -0.00000  -0.00061   0.00001  -0.00060  -0.90742
   D11       -3.02906  -0.00000  -0.00063   0.00002  -0.00061  -3.02967
   D12        1.17301  -0.00000  -0.00063   0.00003  -0.00060   1.17241
   D13        1.22146  -0.00000  -0.00054  -0.00007  -0.00061   1.22085
   D14       -0.90078  -0.00000  -0.00056  -0.00006  -0.00062  -0.90140
   D15       -2.98190  -0.00000  -0.00056  -0.00005  -0.00061  -2.98250
   D16        1.14124  -0.00001  -0.00033  -0.00031  -0.00064   1.14060
   D17       -0.88207   0.00000  -0.00031  -0.00014  -0.00045  -0.88252
   D18       -2.98562  -0.00000  -0.00022  -0.00027  -0.00049  -2.98610
   D19       -0.91535  -0.00001  -0.00025  -0.00035  -0.00060  -0.91595
   D20       -2.93866   0.00000  -0.00023  -0.00018  -0.00041  -2.93907
   D21        1.24098  -0.00000  -0.00014  -0.00031  -0.00044   1.24054
   D22       -3.03038  -0.00000  -0.00041  -0.00019  -0.00060  -3.03098
   D23        1.22949   0.00001  -0.00039  -0.00002  -0.00041   1.22909
   D24       -0.87405   0.00000  -0.00030  -0.00015  -0.00044  -0.87450
   D25       -0.78578   0.00002   0.00120   0.00015   0.00135  -0.78442
   D26       -2.96235   0.00001   0.00116   0.00004   0.00119  -2.96116
   D27        1.27117  -0.00001   0.00134  -0.00021   0.00113   1.27230
         Item               Value     Threshold  Converged?
 Maximum Force            0.000114     0.000450     YES
 RMS     Force            0.000019     0.000300     YES
 Maximum Displacement     0.002107     0.001800     NO 
 RMS     Displacement     0.000605     0.001200     YES
 Predicted change in Energy=-4.577892D-08
 GradGradGradGradGradGradGradGradGradGradGradGradGradGradGradGradGradGrad

                          Input orientation:                          
 ---------------------------------------------------------------------
 Center     Atomic      Atomic             Coordinates (Angstroms)
 Number     Number       Type             X           Y           Z
 ---------------------------------------------------------------------
      1          9           0       -2.466555   -0.057000    1.014708
      2          6           0       -2.038415   -0.392377   -0.179078
      3          9           0       -2.479181    0.432683   -1.105407
      4          6           0        0.416587    0.330976    0.061856
      5          9           0        0.269811    0.628639    1.360822
      6          9           0        0.107860    1.419270   -0.662968
      7          9           0       -0.407666   -1.800968    0.636144
      8          6           0        1.921468    0.019568   -0.182319
      9          9           0        2.191531   -0.047083   -1.477068
     10          9           0        2.266679   -1.124609    0.393984
     11          9           0        2.648593    0.998611    0.348622
     12          6           0       -0.580305   -0.810588   -0.294656
     13          8           0       -0.287014   -1.238159   -1.549956
     14          1           0       -0.977388   -1.826722   -1.865772
 ---------------------------------------------------------------------
                    Distance matrix (angstroms):
                    1          2          3          4          5
     1  F    0.000000
     2  C    1.311834   0.000000
     3  F    2.175968   1.316466   0.000000
     4  C    3.061203   2.570667   3.123831   0.000000
     5  F    2.842111   2.956633   3.698330   1.340694   0.000000
     6  F    3.409045   2.850038   2.803906   1.343527   2.178774
     7  F    2.724658   2.303922   3.509041   2.356774   2.624333
     8  C    4.549009   3.981254   4.515359   1.556040   2.340988
     9  F    5.282690   4.438068   4.709974   2.379420   3.493312
    10  F    4.891686   4.404362   5.215028   2.377368   2.827744
    11  F    5.265238   4.917455   5.359902   2.347301   2.611519
    12  C    2.416665   1.521297   2.410139   1.556941   2.352590
    13  O    3.566937   2.379508   2.791940   2.356942   3.502516
    14  H    3.694144   2.455210   2.817525   3.211631   4.242076
                    6          7          8          9         10
     6  F    0.000000
     7  F    3.510469   0.000000
     8  C    2.340804   3.067425   0.000000
     9  F    2.674815   3.781216   1.324293   0.000000
    10  F    3.499853   2.769156   1.326815   2.160450   0.000000
    11  F    2.766874   4.154639   1.330088   2.153027   2.157772
    12  C    2.362519   1.370052   2.638304   3.108715   2.945871
    13  O    2.829241   2.260606   2.886122   2.750847   3.211408
    14  H    3.627805   2.566092   3.827031   3.655168   4.015399
                   11         12         13         14
    11  F    0.000000
    12  C    3.756700   0.000000
    13  O    4.150365   1.358166   0.000000
    14  H    5.102331   1.912748   0.960605   0.000000
 Stoichiometry    C4HF8O(2)
 Framework group  C1[X(C4HF8O)]
 Deg. of freedom    36
 Full point group                 C1      NOp   1
 Largest Abelian subgroup         C1      NOp   1
 Largest concise Abelian subgroup C1      NOp   1
                         Standard orientation:                         
 ---------------------------------------------------------------------
 Center     Atomic      Atomic             Coordinates (Angstroms)
 Number     Number       Type             X           Y           Z
 ---------------------------------------------------------------------
      1          9           0        2.598882   -0.821210    0.804823
      2          6           0        2.187225    0.132910    0.004135
      3          9           0        2.560895   -0.078951   -1.240280
      4          6           0       -0.311532   -0.465658   -0.074972
      5          9           0       -0.177033   -1.429569    0.847117
      6          9           0       -0.086977   -1.000084   -1.287007
      7          9           0        0.667731    0.960742    1.525282
      8          6           0       -1.791928    0.012545   -0.043188
      9          9           0       -2.065937    0.787672   -1.081384
     10          9           0       -2.049945    0.676585    1.076149
     11          9           0       -2.583541   -1.055045   -0.095479
     12          6           0        0.762077    0.627975    0.199609
     13          8           0        0.491085    1.685154   -0.608814
     14          1           0        1.219591    2.310869   -0.585981
 ---------------------------------------------------------------------
 Rotational constants (GHZ):           1.3651101           0.6012317           0.5957926
 Standard basis: 6-311+G(2d,2p) (5D, 7F)
 There are   386 symmetry adapted cartesian basis functions of A   symmetry.
 There are   360 symmetry adapted basis functions of A   symmetry.
   360 basis functions,   557 primitive gaussians,   386 cartesian basis functions
    53 alpha electrons       52 beta electrons
       nuclear repulsion energy      1020.6762831982 Hartrees.
 NAtoms=   14 NActive=   14 NUniq=   14 SFac= 1.00D+00 NAtFMM=   60 NAOKFM=F Big=F
 Integral buffers will be    131072 words long.
 Raffenetti 2 integral format.
 Two-electron integral symmetry is turned on.
 Nuclear repulsion after empirical dispersion term =     1020.6683921761 Hartrees.
 One-electron integrals computed using PRISM.
 NBasis=   360 RedAO= T EigKep=  1.01D-05  NBF=   360
 NBsUse=   360 1.00D-06 EigRej= -1.00D+00 NBFU=   360
 Initial guess from the checkpoint file:  "butene_2OH.chk"
 B after Tr=     0.000000   -0.000000    0.000000
         Rot=    1.000000   -0.000053    0.000004    0.000023 Ang=  -0.01 deg.
 Initial guess <Sx>= 0.0000 <Sy>= 0.0000 <Sz>= 0.5000 <S**2>= 0.7529 S= 0.5014
 Requested convergence on RMS density matrix=1.00D-08 within  32 cycles.
 Requested convergence on MAX density matrix=1.00D-06.
 Requested convergence on             energy=1.00D-06.
 No special actions if energy rises.
 SCF Done:  E(UwB97XD) =  -1026.97045564     A.U. after    8 cycles
            NFock=  8  Conv=0.37D-08     -V/T= 2.0026
 <Sx>= 0.0000 <Sy>= 0.0000 <Sz>= 0.5000 <S**2>= 0.7529 S= 0.5014
 <L.S>= 0.000000000000E+00
 Annihilation of the first spin contaminant:
 S**2 before annihilation     0.7529,   after     0.7500
 QCSCF skips out because SCF is already converged.
 Calling FoFJK, ICntrl=      2127 FMM=F ISym2X=0 I1Cent= 0 IOpClX= 1 NMat=1 NMatS=1 NMatT=0.
 ***** Axes restored to original set *****
 -------------------------------------------------------------------
 Center     Atomic                   Forces (Hartrees/Bohr)
 Number     Number              X              Y              Z
 -------------------------------------------------------------------
      1        9           0.000005141    0.000003155   -0.000024797
      2        6          -0.000025657   -0.000003073    0.000020811
      3        9           0.000000450    0.000006971    0.000005430
      4        6           0.000001396   -0.000004968    0.000008554
      5        9          -0.000005098   -0.000005095   -0.000013575
      6        9           0.000000927   -0.000007970   -0.000000461
      7        9           0.000002270   -0.000024653    0.000023858
      8        6          -0.000011121   -0.000007896    0.000000740
      9        9          -0.000004239    0.000001122    0.000001148
     10        9           0.000007667    0.000002896    0.000004862
     11        9           0.000005478   -0.000009451    0.000001964
     12        6           0.000016559    0.000052071   -0.000023708
     13        8           0.000013410   -0.000002425   -0.000004735
     14        1          -0.000007183   -0.000000684   -0.000000090
 -------------------------------------------------------------------
 Cartesian Forces:  Max     0.000052071 RMS     0.000013489

 GradGradGradGradGradGradGradGradGradGradGradGradGradGradGradGradGradGrad
 Berny optimization.
 Using GEDIIS/GDIIS optimizer.
 FormGI is forming the generalized inverse of G from B-inverse, IUseBI=4.
 Internal  Forces:  Max     0.000035130 RMS     0.000008093
 Search for a local minimum.
 Step number  12 out of a maximum of   72
 All quantities printed in internal units (Hartrees-Bohrs-Radians)
 Mixed Optimization -- En-DIIS/RFO-DIIS
 Swapping is turned off.
 Update second derivatives using D2CorX and points    5    6    7    8    9
                                                     10   11   12
 DE= -6.49D-08 DEPred=-4.58D-08 R= 1.42D+00
 Trust test= 1.42D+00 RLast= 3.22D-03 DXMaxT set to 1.43D+00
 ITU=  0  0  0  1  1  1  1  1  0  1  1  0
     Eigenvalues ---    0.00193   0.00254   0.00358   0.00456   0.05021
     Eigenvalues ---    0.05194   0.05540   0.07332   0.08088   0.08809
     Eigenvalues ---    0.09351   0.12037   0.14730   0.16384   0.19035
     Eigenvalues ---    0.19863   0.21150   0.21515   0.23372   0.25115
     Eigenvalues ---    0.25508   0.27409   0.27626   0.30677   0.31371
     Eigenvalues ---    0.36562   0.38812   0.45729   0.53823   0.54335
     Eigenvalues ---    0.54999   0.55112   0.55326   0.55791   0.56169
     Eigenvalues ---    0.60903
 En-DIIS/RFO-DIIS/Sim-DIIS IScMMF=       -3 using points:    12   11   10    9    8    7    6
 RFO step:  Lambda=-1.19591844D-08.
 DIIS inversion failure, remove point   7.
 DIIS inversion failure, remove point   6.
 DIIS inversion failure, remove point   5.
 DIIS inversion failure, remove point   4.
 DIIS inversion failure, remove point   3.
 RFO-DIIS uses    2 points instead of    7
 DidBck=F Rises=F RFO-DIIS coefs:    1.33685   -0.33685    0.00000    0.00000    0.00000
                  RFO-DIIS coefs:    0.00000    0.00000
 Iteration  1 RMS(Cart)=  0.00024529 RMS(Int)=  0.00000004
 Iteration  2 RMS(Cart)=  0.00000004 RMS(Int)=  0.00000000
 Variable       Old X    -DE/DX   Delta X   Delta X   Delta X     New X
                                 (Linear)    (Quad)   (Total)
    R1        2.47901  -0.00002  -0.00004  -0.00001  -0.00006   2.47895
    R2        2.48776  -0.00000   0.00005  -0.00002   0.00003   2.48779
    R3        2.87483   0.00002  -0.00001   0.00007   0.00006   2.87490
    R4        2.53354  -0.00001   0.00001  -0.00003  -0.00001   2.53353
    R5        2.53890  -0.00001  -0.00000  -0.00000  -0.00001   2.53889
    R6        2.94049  -0.00000  -0.00003   0.00002  -0.00001   2.94048
    R7        2.94219  -0.00002  -0.00000  -0.00007  -0.00007   2.94212
    R8        2.58902   0.00004   0.00010   0.00003   0.00013   2.58915
    R9        2.50255  -0.00000  -0.00000  -0.00000  -0.00001   2.50254
   R10        2.50732  -0.00000   0.00000  -0.00001  -0.00001   2.50731
   R11        2.51350  -0.00000   0.00002  -0.00002   0.00001   2.51351
   R12        2.56656   0.00001  -0.00004   0.00001  -0.00002   2.56654
   R13        1.81528   0.00001  -0.00000   0.00001   0.00001   1.81529
    A1        1.95070  -0.00001   0.00003  -0.00006  -0.00004   1.95067
    A2        2.04006   0.00000   0.00005  -0.00004   0.00002   2.04008
    A3        2.02610   0.00000  -0.00003  -0.00001  -0.00004   2.02606
    A4        1.89410   0.00000  -0.00001   0.00002   0.00001   1.89411
    A5        1.87795   0.00001  -0.00001   0.00006   0.00005   1.87800
    A6        1.89077  -0.00000   0.00001  -0.00002  -0.00002   1.89076
    A7        1.87516   0.00000  -0.00001   0.00000  -0.00001   1.87515
    A8        1.89996  -0.00000  -0.00002  -0.00003  -0.00005   1.89992
    A9        2.02258  -0.00000   0.00004  -0.00002   0.00002   2.02260
   A10        1.93983  -0.00001   0.00000  -0.00003  -0.00003   1.93980
   A11        1.93483   0.00001  -0.00000   0.00007   0.00007   1.93490
   A12        1.89521   0.00001  -0.00001   0.00003   0.00002   1.89523
   A13        1.90519   0.00000   0.00000   0.00001   0.00001   1.90521
   A14        1.89213  -0.00000   0.00000  -0.00002  -0.00002   1.89211
   A15        1.89561  -0.00001   0.00000  -0.00006  -0.00006   1.89556
   A16        1.97658   0.00001   0.00001   0.00004   0.00005   1.97662
   A17        1.84199  -0.00000  -0.00006  -0.00001  -0.00007   1.84192
   A18        1.94308   0.00000   0.00001   0.00004   0.00005   1.94312
   A19        1.86896  -0.00000  -0.00000  -0.00003  -0.00003   1.86893
   A20        1.87989  -0.00000   0.00005  -0.00002   0.00003   1.87992
   A21        1.95320  -0.00000  -0.00001  -0.00001  -0.00003   1.95317
   A22        1.91937  -0.00001   0.00002  -0.00005  -0.00003   1.91934
    D1       -1.10867   0.00000  -0.00004  -0.00019  -0.00023  -1.10890
    D2        0.93037   0.00000  -0.00007  -0.00022  -0.00029   0.93008
    D3        3.05313   0.00000  -0.00011  -0.00022  -0.00033   3.05280
    D4        1.25332  -0.00000   0.00004  -0.00036  -0.00032   1.25300
    D5       -2.99083  -0.00000   0.00001  -0.00038  -0.00038  -2.99120
    D6       -0.86807  -0.00000  -0.00004  -0.00038  -0.00042  -0.86849
    D7       -2.94385  -0.00000  -0.00018  -0.00007  -0.00025  -2.94410
    D8        1.21708  -0.00000  -0.00018  -0.00011  -0.00030   1.21678
    D9       -0.86402  -0.00000  -0.00018  -0.00010  -0.00028  -0.86430
   D10       -0.90742   0.00000  -0.00020  -0.00002  -0.00022  -0.90764
   D11       -3.02967   0.00000  -0.00021  -0.00006  -0.00027  -3.02993
   D12        1.17241   0.00000  -0.00020  -0.00005  -0.00025   1.17217
   D13        1.22085   0.00000  -0.00021  -0.00008  -0.00028   1.22057
   D14       -0.90140  -0.00000  -0.00021  -0.00012  -0.00033  -0.90172
   D15       -2.98250  -0.00000  -0.00020  -0.00010  -0.00031  -2.98281
   D16        1.14060  -0.00001  -0.00022  -0.00002  -0.00024   1.14036
   D17       -0.88252  -0.00000  -0.00015  -0.00000  -0.00016  -0.88268
   D18       -2.98610  -0.00000  -0.00016   0.00004  -0.00012  -2.98623
   D19       -0.91595  -0.00000  -0.00020  -0.00001  -0.00021  -0.91616
   D20       -2.93907  -0.00000  -0.00014   0.00001  -0.00013  -2.93920
   D21        1.24054   0.00000  -0.00015   0.00005  -0.00010   1.24044
   D22       -3.03098  -0.00000  -0.00020   0.00003  -0.00017  -3.03115
   D23        1.22909   0.00000  -0.00014   0.00005  -0.00009   1.22900
   D24       -0.87450   0.00000  -0.00015   0.00009  -0.00006  -0.87455
   D25       -0.78442   0.00000   0.00046  -0.00010   0.00036  -0.78407
   D26       -2.96116  -0.00000   0.00040  -0.00015   0.00025  -2.96092
   D27        1.27230   0.00000   0.00038  -0.00010   0.00028   1.27258
         Item               Value     Threshold  Converged?
 Maximum Force            0.000035     0.000450     YES
 RMS     Force            0.000008     0.000300     YES
 Maximum Displacement     0.000807     0.001800     YES
 RMS     Displacement     0.000245     0.001200     YES
 Predicted change in Energy=-9.407849D-09
 Optimization completed.
    -- Stationary point found.
                           ----------------------------
                           !   Optimized Parameters   !
                           ! (Angstroms and Degrees)  !
 --------------------------                            --------------------------
 ! Name  Definition              Value          Derivative Info.                !
 --------------------------------------------------------------------------------
 ! R1    R(1,2)                  1.3118         -DE/DX =    0.0                 !
 ! R2    R(2,3)                  1.3165         -DE/DX =    0.0                 !
 ! R3    R(2,12)                 1.5213         -DE/DX =    0.0                 !
 ! R4    R(4,5)                  1.3407         -DE/DX =    0.0                 !
 ! R5    R(4,6)                  1.3435         -DE/DX =    0.0                 !
 ! R6    R(4,8)                  1.556          -DE/DX =    0.0                 !
 ! R7    R(4,12)                 1.5569         -DE/DX =    0.0                 !
 ! R8    R(7,12)                 1.3701         -DE/DX =    0.0                 !
 ! R9    R(8,9)                  1.3243         -DE/DX =    0.0                 !
 ! R10   R(8,10)                 1.3268         -DE/DX =    0.0                 !
 ! R11   R(8,11)                 1.3301         -DE/DX =    0.0                 !
 ! R12   R(12,13)                1.3582         -DE/DX =    0.0                 !
 ! R13   R(13,14)                0.9606         -DE/DX =    0.0                 !
 ! A1    A(1,2,3)              111.767          -DE/DX =    0.0                 !
 ! A2    A(1,2,12)             116.8868         -DE/DX =    0.0                 !
 ! A3    A(3,2,12)             116.0869         -DE/DX =    0.0                 !
 ! A4    A(5,4,6)              108.524          -DE/DX =    0.0                 !
 ! A5    A(5,4,8)              107.5987         -DE/DX =    0.0                 !
 ! A6    A(5,4,12)             108.3334         -DE/DX =    0.0                 !
 ! A7    A(6,4,8)              107.4387         -DE/DX =    0.0                 !
 ! A8    A(6,4,12)             108.8599         -DE/DX =    0.0                 !
 ! A9    A(8,4,12)             115.8852         -DE/DX =    0.0                 !
 ! A10   A(4,8,9)              111.1442         -DE/DX =    0.0                 !
 ! A11   A(4,8,10)             110.8577         -DE/DX =    0.0                 !
 ! A12   A(4,8,11)             108.5875         -DE/DX =    0.0                 !
 ! A13   A(9,8,10)             109.1596         -DE/DX =    0.0                 !
 ! A14   A(9,8,11)             108.4113         -DE/DX =    0.0                 !
 ! A15   A(10,8,11)            108.6106         -DE/DX =    0.0                 !
 ! A16   A(2,12,4)             113.2495         -DE/DX =    0.0                 !
 ! A17   A(2,12,7)             105.5383         -DE/DX =    0.0                 !
 ! A18   A(2,12,13)            111.3301         -DE/DX =    0.0                 !
 ! A19   A(4,12,7)             107.0838         -DE/DX =    0.0                 !
 ! A20   A(4,12,13)            107.7098         -DE/DX =    0.0                 !
 ! A21   A(7,12,13)            111.91           -DE/DX =    0.0                 !
 ! A22   A(12,13,14)           109.9717         -DE/DX =    0.0                 !
 ! D1    D(1,2,12,4)           -63.5219         -DE/DX =    0.0                 !
 ! D2    D(1,2,12,7)            53.3064         -DE/DX =    0.0                 !
 ! D3    D(1,2,12,13)          174.9315         -DE/DX =    0.0                 !
 ! D4    D(3,2,12,4)            71.81           -DE/DX =    0.0                 !
 ! D5    D(3,2,12,7)          -171.3618         -DE/DX =    0.0                 !
 ! D6    D(3,2,12,13)          -49.7366         -DE/DX =    0.0                 !
 ! D7    D(5,4,8,9)           -168.6704         -DE/DX =    0.0                 !
 ! D8    D(5,4,8,10)            69.7335         -DE/DX =    0.0                 !
 ! D9    D(5,4,8,11)           -49.5049         -DE/DX =    0.0                 !
 ! D10   D(6,4,8,9)            -51.9911         -DE/DX =    0.0                 !
 ! D11   D(6,4,8,10)          -173.5872         -DE/DX =    0.0                 !
 ! D12   D(6,4,8,11)            67.1744         -DE/DX =    0.0                 !
 ! D13   D(12,4,8,9)            69.9498         -DE/DX =    0.0                 !
 ! D14   D(12,4,8,10)          -51.6464         -DE/DX =    0.0                 !
 ! D15   D(12,4,8,11)         -170.8847         -DE/DX =    0.0                 !
 ! D16   D(5,4,12,2)            65.3513         -DE/DX =    0.0                 !
 ! D17   D(5,4,12,7)           -50.5647         -DE/DX =    0.0                 !
 ! D18   D(5,4,12,13)         -171.0911         -DE/DX =    0.0                 !
 ! D19   D(6,4,12,2)           -52.48           -DE/DX =    0.0                 !
 ! D20   D(6,4,12,7)          -168.3961         -DE/DX =    0.0                 !
 ! D21   D(6,4,12,13)           71.0775         -DE/DX =    0.0                 !
 ! D22   D(8,4,12,2)          -173.6625         -DE/DX =    0.0                 !
 ! D23   D(8,4,12,7)            70.4215         -DE/DX =    0.0                 !
 ! D24   D(8,4,12,13)          -50.1049         -DE/DX =    0.0                 !
 ! D25   D(2,12,13,14)         -44.9441         -DE/DX =    0.0                 !
 ! D26   D(4,12,13,14)        -169.6622         -DE/DX =    0.0                 !
 ! D27   D(7,12,13,14)          72.8972         -DE/DX =    0.0                 !
 --------------------------------------------------------------------------------
 GradGradGradGradGradGradGradGradGradGradGradGradGradGradGradGradGradGrad

                          Input orientation:                          
 ---------------------------------------------------------------------
 Center     Atomic      Atomic             Coordinates (Angstroms)
 Number     Number       Type             X           Y           Z
 ---------------------------------------------------------------------
      1          9           0       -2.466555   -0.057000    1.014708
      2          6           0       -2.038415   -0.392377   -0.179078
      3          9           0       -2.479181    0.432683   -1.105407
      4          6           0        0.416587    0.330976    0.061856
      5          9           0        0.269811    0.628639    1.360822
      6          9           0        0.107860    1.419270   -0.662968
      7          9           0       -0.407666   -1.800968    0.636144
      8          6           0        1.921468    0.019568   -0.182319
      9          9           0        2.191531   -0.047083   -1.477068
     10          9           0        2.266679   -1.124609    0.393984
     11          9           0        2.648593    0.998611    0.348622
     12          6           0       -0.580305   -0.810588   -0.294656
     13          8           0       -0.287014   -1.238159   -1.549956
     14          1           0       -0.977388   -1.826722   -1.865772
 ---------------------------------------------------------------------
                    Distance matrix (angstroms):
                    1          2          3          4          5
     1  F    0.000000
     2  C    1.311834   0.000000
     3  F    2.175968   1.316466   0.000000
     4  C    3.061203   2.570667   3.123831   0.000000
     5  F    2.842111   2.956633   3.698330   1.340694   0.000000
     6  F    3.409045   2.850038   2.803906   1.343527   2.178774
     7  F    2.724658   2.303922   3.509041   2.356774   2.624333
     8  C    4.549009   3.981254   4.515359   1.556040   2.340988
     9  F    5.282690   4.438068   4.709974   2.379420   3.493312
    10  F    4.891686   4.404362   5.215028   2.377368   2.827744
    11  F    5.265238   4.917455   5.359902   2.347301   2.611519
    12  C    2.416665   1.521297   2.410139   1.556941   2.352590
    13  O    3.566937   2.379508   2.791940   2.356942   3.502516
    14  H    3.694144   2.455210   2.817525   3.211631   4.242076
                    6          7          8          9         10
     6  F    0.000000
     7  F    3.510469   0.000000
     8  C    2.340804   3.067425   0.000000
     9  F    2.674815   3.781216   1.324293   0.000000
    10  F    3.499853   2.769156   1.326815   2.160450   0.000000
    11  F    2.766874   4.154639   1.330088   2.153027   2.157772
    12  C    2.362519   1.370052   2.638304   3.108715   2.945871
    13  O    2.829241   2.260606   2.886122   2.750847   3.211408
    14  H    3.627805   2.566092   3.827031   3.655168   4.015399
                   11         12         13         14
    11  F    0.000000
    12  C    3.756700   0.000000
    13  O    4.150365   1.358166   0.000000
    14  H    5.102331   1.912748   0.960605   0.000000
 Stoichiometry    C4HF8O(2)
 Framework group  C1[X(C4HF8O)]
 Deg. of freedom    36
 Full point group                 C1      NOp   1
 Largest Abelian subgroup         C1      NOp   1
 Largest concise Abelian subgroup C1      NOp   1
                         Standard orientation:                         
 ---------------------------------------------------------------------
 Center     Atomic      Atomic             Coordinates (Angstroms)
 Number     Number       Type             X           Y           Z
 ---------------------------------------------------------------------
      1          9           0        2.598882   -0.821210    0.804823
      2          6           0        2.187225    0.132910    0.004135
      3          9           0        2.560895   -0.078951   -1.240280
      4          6           0       -0.311532   -0.465658   -0.074972
      5          9           0       -0.177033   -1.429569    0.847117
      6          9           0       -0.086977   -1.000084   -1.287007
      7          9           0        0.667731    0.960742    1.525282
      8          6           0       -1.791928    0.012545   -0.043188
      9          9           0       -2.065937    0.787672   -1.081384
     10          9           0       -2.049945    0.676585    1.076149
     11          9           0       -2.583541   -1.055045   -0.095479
     12          6           0        0.762077    0.627975    0.199609
     13          8           0        0.491085    1.685154   -0.608814
     14          1           0        1.219591    2.310869   -0.585981
 ---------------------------------------------------------------------
 Rotational constants (GHZ):           1.3651101           0.6012317           0.5957926

 **********************************************************************

            Population analysis using the SCF density.

 **********************************************************************

 Orbital symmetries:
 Alpha Orbitals:
       Occupied  (A) (A) (A) (A) (A) (A) (A) (A) (A) (A) (A) (A)
                 (A) (A) (A) (A) (A) (A) (A) (A) (A) (A) (A) (A)
                 (A) (A) (A) (A) (A) (A) (A) (A) (A) (A) (A) (A)
                 (A) (A) (A) (A) (A) (A) (A) (A) (A) (A) (A) (A)
                 (A) (A) (A) (A) (A)
       Virtual   (A) (A) (A) (A) (A) (A) (A) (A) (A) (A) (A) (A)
                 (A) (A) (A) (A) (A) (A) (A) (A) (A) (A) (A) (A)
                 (A) (A) (A) (A) (A) (A) (A) (A) (A) (A) (A) (A)
                 (A) (A) (A) (A) (A) (A) (A) (A) (A) (A) (A) (A)
                 (A) (A) (A) (A) (A) (A) (A) (A) (A) (A) (A) (A)
                 (A) (A) (A) (A) (A) (A) (A) (A) (A) (A) (A) (A)
                 (A) (A) (A) (A) (A) (A) (A) (A) (A) (A) (A) (A)
                 (A) (A) (A) (A) (A) (A) (A) (A) (A) (A) (A) (A)
                 (A) (A) (A) (A) (A) (A) (A) (A) (A) (A) (A) (A)
                 (A) (A) (A) (A) (A) (A) (A) (A) (A) (A) (A) (A)
                 (A) (A) (A) (A) (A) (A) (A) (A) (A) (A) (A) (A)
                 (A) (A) (A) (A) (A) (A) (A) (A) (A) (A) (A) (A)
                 (A) (A) (A) (A) (A) (A) (A) (A) (A) (A) (A) (A)
                 (A) (A) (A) (A) (A) (A) (A) (A) (A) (A) (A) (A)
                 (A) (A) (A) (A) (A) (A) (A) (A) (A) (A) (A) (A)
                 (A) (A) (A) (A) (A) (A) (A) (A) (A) (A) (A) (A)
                 (A) (A) (A) (A) (A) (A) (A) (A) (A) (A) (A) (A)
                 (A) (A) (A) (A) (A) (A) (A) (A) (A) (A) (A) (A)
                 (A) (A) (A) (A) (A) (A) (A) (A) (A) (A) (A) (A)
                 (A) (A) (A) (A) (A) (A) (A) (A) (A) (A) (A) (A)
                 (A) (A) (A) (A) (A) (A) (A) (A) (A) (A) (A) (A)
                 (A) (A) (A) (A) (A) (A) (A) (A) (A) (A) (A) (A)
                 (A) (A) (A) (A) (A) (A) (A) (A) (A) (A) (A) (A)
                 (A) (A) (A) (A) (A) (A) (A) (A) (A) (A) (A) (A)
                 (A) (A) (A) (A) (A) (A) (A) (A) (A) (A) (A) (A)
                 (A) (A) (A) (A) (A) (A) (A)
 Beta  Orbitals:
       Occupied  (A) (A) (A) (A) (A) (A) (A) (A) (A) (A) (A) (A)
                 (A) (A) (A) (A) (A) (A) (A) (A) (A) (A) (A) (A)
                 (A) (A) (A) (A) (A) (A) (A) (A) (A) (A) (A) (A)
                 (A) (A) (A) (A) (A) (A) (A) (A) (A) (A) (A) (A)
                 (A) (A) (A) (A)
       Virtual   (A) (A) (A) (A) (A) (A) (A) (A) (A) (A) (A) (A)
                 (A) (A) (A) (A) (A) (A) (A) (A) (A) (A) (A) (A)
                 (A) (A) (A) (A) (A) (A) (A) (A) (A) (A) (A) (A)
                 (A) (A) (A) (A) (A) (A) (A) (A) (A) (A) (A) (A)
                 (A) (A) (A) (A) (A) (A) (A) (A) (A) (A) (A) (A)
                 (A) (A) (A) (A) (A) (A) (A) (A) (A) (A) (A) (A)
                 (A) (A) (A) (A) (A) (A) (A) (A) (A) (A) (A) (A)
                 (A) (A) (A) (A) (A) (A) (A) (A) (A) (A) (A) (A)
                 (A) (A) (A) (A) (A) (A) (A) (A) (A) (A) (A) (A)
                 (A) (A) (A) (A) (A) (A) (A) (A) (A) (A) (A) (A)
                 (A) (A) (A) (A) (A) (A) (A) (A) (A) (A) (A) (A)
                 (A) (A) (A) (A) (A) (A) (A) (A) (A) (A) (A) (A)
                 (A) (A) (A) (A) (A) (A) (A) (A) (A) (A) (A) (A)
                 (A) (A) (A) (A) (A) (A) (A) (A) (A) (A) (A) (A)
                 (A) (A) (A) (A) (A) (A) (A) (A) (A) (A) (A) (A)
                 (A) (A) (A) (A) (A) (A) (A) (A) (A) (A) (A) (A)
                 (A) (A) (A) (A) (A) (A) (A) (A) (A) (A) (A) (A)
                 (A) (A) (A) (A) (A) (A) (A) (A) (A) (A) (A) (A)
                 (A) (A) (A) (A) (A) (A) (A) (A) (A) (A) (A) (A)
                 (A) (A) (A) (A) (A) (A) (A) (A) (A) (A) (A) (A)
                 (A) (A) (A) (A) (A) (A) (A) (A) (A) (A) (A) (A)
                 (A) (A) (A) (A) (A) (A) (A) (A) (A) (A) (A) (A)
                 (A) (A) (A) (A) (A) (A) (A) (A) (A) (A) (A) (A)
                 (A) (A) (A) (A) (A) (A) (A) (A) (A) (A) (A) (A)
                 (A) (A) (A) (A) (A) (A) (A) (A) (A) (A) (A) (A)
                 (A) (A) (A) (A) (A) (A) (A) (A)
 The electronic state is 2-A.
 Alpha  occ. eigenvalues --  -24.88493 -24.88394 -24.87069 -24.86953 -24.86895
 Alpha  occ. eigenvalues --  -24.86876 -24.86785 -24.84926 -19.32798 -10.57412
 Alpha  occ. eigenvalues --  -10.51640 -10.49689 -10.49663  -1.46372  -1.44065
 Alpha  occ. eigenvalues --   -1.42133  -1.38020  -1.37341  -1.36916  -1.36545
 Alpha  occ. eigenvalues --   -1.35701  -1.22160  -0.93852  -0.89167  -0.82362
 Alpha  occ. eigenvalues --   -0.78519  -0.74813  -0.73535  -0.73205  -0.71974
 Alpha  occ. eigenvalues --   -0.71270  -0.69731  -0.69706  -0.66955  -0.65957
 Alpha  occ. eigenvalues --   -0.60198  -0.59615  -0.59407  -0.59202  -0.58686
 Alpha  occ. eigenvalues --   -0.57848  -0.57093  -0.56093  -0.55741  -0.54997
 Alpha  occ. eigenvalues --   -0.54296  -0.53691  -0.52887  -0.52247  -0.50458
 Alpha  occ. eigenvalues --   -0.46836  -0.46249  -0.34916
 Alpha virt. eigenvalues --    0.05449   0.07782   0.08568   0.08784   0.11059
 Alpha virt. eigenvalues --    0.11438   0.11709   0.12874   0.13347   0.13957
 Alpha virt. eigenvalues --    0.14784   0.14976   0.15561   0.16568   0.18225
 Alpha virt. eigenvalues --    0.18705   0.19567   0.20369   0.22316   0.23131
 Alpha virt. eigenvalues --    0.24985   0.25322   0.27047   0.27462   0.29013
 Alpha virt. eigenvalues --    0.29237   0.29726   0.30616   0.32276   0.32394
 Alpha virt. eigenvalues --    0.32694   0.33731   0.34420   0.34775   0.35189
 Alpha virt. eigenvalues --    0.36276   0.36490   0.37155   0.38731   0.39278
 Alpha virt. eigenvalues --    0.39783   0.40249   0.41335   0.41578   0.42209
 Alpha virt. eigenvalues --    0.42396   0.43014   0.43964   0.44551   0.44686
 Alpha virt. eigenvalues --    0.45786   0.46440   0.46531   0.46929   0.47868
 Alpha virt. eigenvalues --    0.48558   0.49235   0.52303   0.52620   0.53584
 Alpha virt. eigenvalues --    0.55437   0.56234   0.58323   0.59726   0.60091
 Alpha virt. eigenvalues --    0.63285   0.63525   0.64343   0.67807   0.68403
 Alpha virt. eigenvalues --    0.70138   0.73284   0.74158   0.75736   0.77020
 Alpha virt. eigenvalues --    0.77851   0.80586   0.82243   0.85984   0.87676
 Alpha virt. eigenvalues --    0.89110   0.92283   0.94645   0.99422   1.02953
 Alpha virt. eigenvalues --    1.05757   1.06792   1.08313   1.12134   1.12902
 Alpha virt. eigenvalues --    1.14797   1.17107   1.17738   1.17886   1.20566
 Alpha virt. eigenvalues --    1.23320   1.27921   1.28512   1.31596   1.32519
 Alpha virt. eigenvalues --    1.32997   1.36027   1.38345   1.40356   1.40645
 Alpha virt. eigenvalues --    1.41958   1.43050   1.44101   1.44299   1.45012
 Alpha virt. eigenvalues --    1.46577   1.47071   1.47393   1.47625   1.48612
 Alpha virt. eigenvalues --    1.48867   1.51134   1.51320   1.51580   1.52638
 Alpha virt. eigenvalues --    1.53850   1.55378   1.55657   1.55992   1.58622
 Alpha virt. eigenvalues --    1.58809   1.60468   1.64500   1.67134   1.68126
 Alpha virt. eigenvalues --    1.72096   1.72124   1.79304   1.88630   1.92830
 Alpha virt. eigenvalues --    1.94573   1.94950   1.97575   1.99520   2.02461
 Alpha virt. eigenvalues --    2.03453   2.04142   2.07027   2.09799   2.09982
 Alpha virt. eigenvalues --    2.12150   2.12746   2.14573   2.15292   2.16185
 Alpha virt. eigenvalues --    2.18094   2.19011   2.22172   2.22712   2.24440
 Alpha virt. eigenvalues --    2.26417   2.28552   2.31723   2.32438   2.34272
 Alpha virt. eigenvalues --    2.36354   2.39545   2.40965   2.43183   2.46331
 Alpha virt. eigenvalues --    2.48312   2.50581   2.54142   2.55514   2.62244
 Alpha virt. eigenvalues --    2.67296   2.69233   2.70399   2.72414   2.75024
 Alpha virt. eigenvalues --    2.75226   2.78340   2.81026   2.81728   2.83847
 Alpha virt. eigenvalues --    2.90028   2.90802   2.92339   3.00787   3.04466
 Alpha virt. eigenvalues --    3.10110   3.18025   3.21163   3.24654   3.30287
 Alpha virt. eigenvalues --    3.39750   3.43360   3.45167   3.45996   3.49902
 Alpha virt. eigenvalues --    3.51107   3.52889   3.57102   3.58971   3.61431
 Alpha virt. eigenvalues --    3.62670   3.65903   3.67036   3.69480   3.72204
 Alpha virt. eigenvalues --    3.74447   3.77387   3.77956   3.84900   3.88214
 Alpha virt. eigenvalues --    3.98219   4.01563   4.12387   4.19527   4.25347
 Alpha virt. eigenvalues --    4.30597   4.32818   4.34263   4.37954   4.40291
 Alpha virt. eigenvalues --    4.45156   4.54024   5.21945   5.61760   6.12923
 Alpha virt. eigenvalues --    6.39390   6.40323   6.42266   6.44610   6.45064
 Alpha virt. eigenvalues --    6.46723   6.47064   6.48092   6.49105   6.50123
 Alpha virt. eigenvalues --    6.52590   6.52897   6.53709   6.54726   6.56496
 Alpha virt. eigenvalues --    6.60700   6.63480   6.64315   6.66689   6.78770
 Alpha virt. eigenvalues --    6.87215   6.90624   6.91845   6.95903   7.02965
 Alpha virt. eigenvalues --    7.15284   7.16746   7.30971   7.56638   9.08635
 Alpha virt. eigenvalues --    9.09877   9.11422   9.12042   9.13461   9.13924
 Alpha virt. eigenvalues --    9.15727   9.16387   9.17330   9.20338   9.20866
 Alpha virt. eigenvalues --    9.22232   9.22529   9.23751   9.24870   9.25242
 Alpha virt. eigenvalues --    9.25687   9.28397   9.29057   9.34591   9.35448
 Alpha virt. eigenvalues --    9.36223   9.40204   9.44690   9.46553   9.51644
 Alpha virt. eigenvalues --    9.54400   9.59206   9.66461   9.67859   9.69448
 Alpha virt. eigenvalues --    9.73732   9.76277   9.77003   9.78178   9.79044
 Alpha virt. eigenvalues --    9.82287   9.85739   9.90844   9.92787  23.93361
 Alpha virt. eigenvalues --   23.99154  24.00653  24.08040  50.12775  66.90864
 Alpha virt. eigenvalues --   66.94200  66.96221  66.96396  66.97254  66.99930
 Alpha virt. eigenvalues --   67.03330  67.05419
  Beta  occ. eigenvalues --  -24.88157 -24.88065 -24.87070 -24.86953 -24.86896
  Beta  occ. eigenvalues --  -24.86865 -24.86785 -24.84924 -19.32784 -10.57391
  Beta  occ. eigenvalues --  -10.51580 -10.49645 -10.48424  -1.46355  -1.43136
  Beta  occ. eigenvalues --   -1.42043  -1.37597  -1.36981  -1.36847  -1.36510
  Beta  occ. eigenvalues --   -1.35692  -1.22086  -0.93408  -0.88164  -0.81333
  Beta  occ. eigenvalues --   -0.78133  -0.74527  -0.73269  -0.73121  -0.71707
  Beta  occ. eigenvalues --   -0.70695  -0.69423  -0.69182  -0.66803  -0.62996
  Beta  occ. eigenvalues --   -0.60013  -0.59509  -0.59292  -0.58795  -0.58304
  Beta  occ. eigenvalues --   -0.57257  -0.56525  -0.55873  -0.55267  -0.54933
  Beta  occ. eigenvalues --   -0.54179  -0.53682  -0.52863  -0.52172  -0.50168
  Beta  occ. eigenvalues --   -0.46719  -0.45381
  Beta virt. eigenvalues --   -0.04534   0.06190   0.08039   0.08739   0.09189
  Beta virt. eigenvalues --    0.11168   0.11718   0.11890   0.13040   0.13572
  Beta virt. eigenvalues --    0.14681   0.14906   0.15277   0.16012   0.16750
  Beta virt. eigenvalues --    0.18716   0.18939   0.20010   0.20556   0.22509
  Beta virt. eigenvalues --    0.23502   0.25493   0.26284   0.27478   0.27659
  Beta virt. eigenvalues --    0.29132   0.29399   0.30173   0.30779   0.32437
  Beta virt. eigenvalues --    0.32523   0.33030   0.34487   0.34642   0.34827
  Beta virt. eigenvalues --    0.35384   0.36507   0.36703   0.37532   0.38907
  Beta virt. eigenvalues --    0.39418   0.39881   0.40329   0.41663   0.41770
  Beta virt. eigenvalues --    0.42314   0.42554   0.43058   0.44035   0.44717
  Beta virt. eigenvalues --    0.44769   0.45882   0.46501   0.46600   0.46957
  Beta virt. eigenvalues --    0.47914   0.48642   0.49336   0.52367   0.52672
  Beta virt. eigenvalues --    0.53642   0.55507   0.56349   0.58605   0.59802
  Beta virt. eigenvalues --    0.60360   0.63562   0.64121   0.64674   0.68294
  Beta virt. eigenvalues --    0.69102   0.70273   0.73439   0.74491   0.76118
  Beta virt. eigenvalues --    0.77082   0.78067   0.80934   0.82417   0.86318
  Beta virt. eigenvalues --    0.88012   0.89713   0.92527   0.95038   0.99970
  Beta virt. eigenvalues --    1.03293   1.06223   1.06952   1.08671   1.12844
  Beta virt. eigenvalues --    1.13089   1.15047   1.17473   1.17819   1.18294
  Beta virt. eigenvalues --    1.20760   1.23749   1.28377   1.28665   1.31742
  Beta virt. eigenvalues --    1.32766   1.33585   1.36266   1.38509   1.40445
  Beta virt. eigenvalues --    1.40790   1.42178   1.43222   1.44287   1.44506
  Beta virt. eigenvalues --    1.45181   1.46733   1.47269   1.47571   1.47714
  Beta virt. eigenvalues --    1.48702   1.48948   1.51186   1.51394   1.51659
  Beta virt. eigenvalues --    1.52711   1.53916   1.55527   1.55719   1.56110
  Beta virt. eigenvalues --    1.58719   1.58916   1.60621   1.64503   1.67303
  Beta virt. eigenvalues --    1.68337   1.72210   1.72282   1.79347   1.88721
  Beta virt. eigenvalues --    1.92983   1.94684   1.95087   1.97731   1.99633
  Beta virt. eigenvalues --    2.02597   2.03614   2.04281   2.07114   2.09928
  Beta virt. eigenvalues --    2.10328   2.12323   2.12822   2.14766   2.15427
  Beta virt. eigenvalues --    2.16484   2.18233   2.19191   2.22195   2.23018
  Beta virt. eigenvalues --    2.24692   2.26832   2.28690   2.31998   2.32567
  Beta virt. eigenvalues --    2.34400   2.36544   2.39799   2.41171   2.43300
  Beta virt. eigenvalues --    2.46903   2.48922   2.50892   2.54189   2.55701
  Beta virt. eigenvalues --    2.62610   2.67591   2.69371   2.70554   2.72691
  Beta virt. eigenvalues --    2.75402   2.75986   2.78509   2.81417   2.82220
  Beta virt. eigenvalues --    2.84716   2.90800   2.91215   2.92810   3.01838
  Beta virt. eigenvalues --    3.05760   3.10426   3.19564   3.22330   3.24750
  Beta virt. eigenvalues --    3.31708   3.41005   3.45046   3.47156   3.48808
  Beta virt. eigenvalues --    3.50272   3.51800   3.54093   3.58718   3.60177
  Beta virt. eigenvalues --    3.61946   3.62836   3.66814   3.67372   3.69842
  Beta virt. eigenvalues --    3.72730   3.75795   3.77612   3.78451   3.85130
  Beta virt. eigenvalues --    3.88379   3.98299   4.03224   4.12756   4.19799
  Beta virt. eigenvalues --    4.25964   4.31127   4.32863   4.34471   4.38164
  Beta virt. eigenvalues --    4.40514   4.45446   4.54726   5.21974   5.61823
  Beta virt. eigenvalues --    6.12953   6.40353   6.41340   6.42307   6.44742
  Beta virt. eigenvalues --    6.45233   6.46894   6.47401   6.48137   6.49237
  Beta virt. eigenvalues --    6.50156   6.52615   6.52942   6.53730   6.54747
  Beta virt. eigenvalues --    6.56531   6.60704   6.63646   6.64539   6.66755
  Beta virt. eigenvalues --    6.78827   6.87285   6.90883   6.91979   6.96054
  Beta virt. eigenvalues --    7.03028   7.15340   7.16802   7.30999   7.56677
  Beta virt. eigenvalues --    9.09467   9.09954   9.11454   9.12059   9.13762
  Beta virt. eigenvalues --    9.14843   9.16481   9.16781   9.18368   9.20391
  Beta virt. eigenvalues --    9.20972   9.22321   9.22610   9.24325   9.24919
  Beta virt. eigenvalues --    9.25272   9.25721   9.28422   9.29141   9.34974
  Beta virt. eigenvalues --    9.35870   9.36349   9.40540   9.44875   9.46944
  Beta virt. eigenvalues --    9.51706   9.54467   9.59363   9.66472   9.68158
  Beta virt. eigenvalues --    9.69462   9.74119   9.76422   9.77008   9.78297
  Beta virt. eigenvalues --    9.79061   9.82732   9.85747   9.90856   9.92789
  Beta virt. eigenvalues --   23.94056  24.00280  24.00718  24.08623  50.12787
  Beta virt. eigenvalues --   66.91095  66.94295  66.96227  66.96458  66.97316
  Beta virt. eigenvalues --   66.99954  67.03352  67.05425
          Condensed to atoms (all electrons):
               1          2          3          4          5          6
     1  F    9.082131   0.188494   0.014418  -0.010285   0.002008  -0.001398
     2  C    0.188494   6.438979   0.156845   0.917617   0.000988   0.035391
     3  F    0.014418   0.156845   9.089843  -0.003704  -0.002458   0.005580
     4  C   -0.010285   0.917617  -0.003704   8.784474   0.325304   0.330831
     5  F    0.002008   0.000988  -0.002458   0.325304   9.107825   0.012719
     6  F   -0.001398   0.035391   0.005580   0.330831   0.012719   9.126336
     7  F    0.015911  -0.198065   0.001790  -0.095139   0.017669  -0.001853
     8  C    0.006083  -0.485117  -0.002432  -1.568485  -0.155402  -0.158420
     9  F    0.000028  -0.011574  -0.000179  -0.095690  -0.001378   0.021322
    10  F   -0.000155   0.020179   0.000020  -0.079786   0.015342   0.000001
    11  F    0.000019   0.000519   0.000008  -0.131471   0.020636   0.018660
    12  C   -0.051288  -1.677729  -0.055687  -2.624738  -0.069976  -0.121596
    13  O   -0.003097  -0.002637   0.026364  -0.055629  -0.001215   0.012784
    14  H    0.000877  -0.055745  -0.002831  -0.031581   0.000254  -0.002152
               7          8          9         10         11         12
     1  F    0.015911   0.006083   0.000028  -0.000155   0.000019  -0.051288
     2  C   -0.198065  -0.485117  -0.011574   0.020179   0.000519  -1.677729
     3  F    0.001790  -0.002432  -0.000179   0.000020   0.000008  -0.055687
     4  C   -0.095139  -1.568485  -0.095690  -0.079786  -0.131471  -2.624738
     5  F    0.017669  -0.155402  -0.001378   0.015342   0.020636  -0.069976
     6  F   -0.001853  -0.158420   0.021322   0.000001   0.018660  -0.121596
     7  F    9.135924  -0.012823  -0.002844   0.002046  -0.001162   0.392302
     8  C   -0.012823   5.574706   0.297833   0.234274   0.246181   0.925141
     9  F   -0.002844   0.297833   9.042349   0.008554  -0.006173   0.014777
    10  F    0.002046   0.234274   0.008554   9.085643   0.000403  -0.000601
    11  F   -0.001162   0.246181  -0.006173   0.000403   9.116749   0.035257
    12  C    0.392302   0.925141   0.014777  -0.000601   0.035257   8.806325
    13  O    0.011909  -0.015881   0.002991   0.004129  -0.000622   0.186008
    14  H   -0.008642   0.016478   0.001417   0.000060  -0.000135   0.104174
              13         14
     1  F   -0.003097   0.000877
     2  C   -0.002637  -0.055745
     3  F    0.026364  -0.002831
     4  C   -0.055629  -0.031581
     5  F   -0.001215   0.000254
     6  F    0.012784  -0.002152
     7  F    0.011909  -0.008642
     8  C   -0.015881   0.016478
     9  F    0.002991   0.001417
    10  F    0.004129   0.000060
    11  F   -0.000622  -0.000135
    12  C    0.186008   0.104174
    13  O    8.014481   0.202676
    14  H    0.202676   0.499244
          Atomic-Atomic Spin Densities.
               1          2          3          4          5          6
     1  F    0.148791  -0.109509   0.011305   0.001808  -0.000510   0.000396
     2  C   -0.109509   1.177186  -0.133040   0.019642  -0.000806  -0.001095
     3  F    0.011305  -0.133040   0.160941  -0.000389   0.000106  -0.000352
     4  C    0.001808   0.019642  -0.000389   0.058542  -0.000655  -0.001317
     5  F   -0.000510  -0.000806   0.000106  -0.000655  -0.000023   0.000590
     6  F    0.000396  -0.001095  -0.000352  -0.001317   0.000590   0.000434
     7  F   -0.000173  -0.014797   0.000769  -0.005062   0.000151  -0.000331
     8  C    0.000961   0.006207  -0.000005  -0.008363  -0.000161   0.001229
     9  F    0.000013   0.000141   0.000026  -0.000080   0.000034   0.000223
    10  F    0.000020   0.000097   0.000002   0.000364   0.000038  -0.000009
    11  F    0.000023   0.000058   0.000014  -0.001600   0.000456   0.000416
    12  C   -0.000843  -0.087477   0.007549  -0.033518   0.001225  -0.001065
    13  O    0.000218  -0.014550   0.000167  -0.004746  -0.000190  -0.000061
    14  H   -0.000165   0.008353  -0.000964   0.002100  -0.000005   0.000016
               7          8          9         10         11         12
     1  F   -0.000173   0.000961   0.000013   0.000020   0.000023  -0.000843
     2  C   -0.014797   0.006207   0.000141   0.000097   0.000058  -0.087477
     3  F    0.000769  -0.000005   0.000026   0.000002   0.000014   0.007549
     4  C   -0.005062  -0.008363  -0.000080   0.000364  -0.001600  -0.033518
     5  F    0.000151  -0.000161   0.000034   0.000038   0.000456   0.001225
     6  F   -0.000331   0.001229   0.000223  -0.000009   0.000416  -0.001065
     7  F    0.005487  -0.002228  -0.000086  -0.000234  -0.000050   0.010490
     8  C   -0.002228   0.022162   0.000527   0.000125  -0.002054  -0.006164
     9  F   -0.000086   0.000527   0.000134  -0.000039   0.000184  -0.000661
    10  F   -0.000234   0.000125  -0.000039  -0.000348   0.000129   0.000170
    11  F   -0.000050  -0.002054   0.000184   0.000129   0.004852  -0.000294
    12  C    0.010490  -0.006164  -0.000661   0.000170  -0.000294   0.111557
    13  O    0.004103  -0.002540  -0.000136  -0.000080  -0.000033   0.012370
    14  H   -0.000485   0.000266   0.000044   0.000017   0.000005  -0.004870
              13         14
     1  F    0.000218  -0.000165
     2  C   -0.014550   0.008353
     3  F    0.000167  -0.000964
     4  C   -0.004746   0.002100
     5  F   -0.000190  -0.000005
     6  F   -0.000061   0.000016
     7  F    0.004103  -0.000485
     8  C   -0.002540   0.000266
     9  F   -0.000136   0.000044
    10  F   -0.000080   0.000017
    11  F   -0.000033   0.000005
    12  C    0.012370  -0.004870
    13  O    0.010023  -0.000345
    14  H   -0.000345  -0.001753
 Mulliken charges and spin densities:
               1          2
     1  F   -0.243745   0.052334
     2  C    0.671855   0.850410
     3  F   -0.227577   0.046129
     4  C    0.338281   0.026724
     5  F   -0.272316   0.000247
     6  F   -0.278205  -0.000928
     7  F   -0.257024  -0.002447
     8  C    1.097864   0.009964
     9  F   -0.271431   0.000326
    10  F   -0.290109   0.000252
    11  F   -0.298869   0.002104
    12  C    0.137630   0.008471
    13  O   -0.382260   0.004200
    14  H    0.275905   0.002213
 Sum of Mulliken charges =  -0.00000   1.00000
 Mulliken charges and spin densities with hydrogens summed into heavy atoms:
               1          2
     1  F   -0.243745   0.052334
     2  C    0.671855   0.850410
     3  F   -0.227577   0.046129
     4  C    0.338281   0.026724
     5  F   -0.272316   0.000247
     6  F   -0.278205  -0.000928
     7  F   -0.257024  -0.002447
     8  C    1.097864   0.009964
     9  F   -0.271431   0.000326
    10  F   -0.290109   0.000252
    11  F   -0.298869   0.002104
    12  C    0.137630   0.008471
    13  O   -0.106354   0.006413
 Electronic spatial extent (au):  <R**2>=           1923.4287
 Charge=              0.0000 electrons
 Dipole moment (field-independent basis, Debye):
    X=              1.6188    Y=              1.7424    Z=             -0.4790  Tot=              2.4261
 Quadrupole moment (field-independent basis, Debye-Ang):
   XX=            -67.9820   YY=            -65.0888   ZZ=            -72.0250
   XY=              4.4319   XZ=             -0.9103   YZ=             -1.1931
 Traceless Quadrupole moment (field-independent basis, Debye-Ang):
   XX=              0.3832   YY=              3.2765   ZZ=             -3.6597
   XY=              4.4319   XZ=             -0.9103   YZ=             -1.1931
 Octapole moment (field-independent basis, Debye-Ang**2):
  XXX=             -2.2033  YYY=              7.5825  ZZZ=              0.4876  XYY=              9.5789
  XXY=              5.9654  XXZ=             -0.0425  XZZ=             -3.7869  YZZ=             -3.8346
  YYZ=             -3.7754  XYZ=             -2.3769
 Hexadecapole moment (field-independent basis, Debye-Ang**3):
 XXXX=          -1213.5844 YYYY=           -341.0072 ZZZZ=           -338.0774 XXXY=             -0.2002
 XXXZ=             -0.7732 YYYX=             16.9006 YYYZ=             -8.6372 ZZZX=             -1.9484
 ZZZY=             -0.5838 XXYY=           -253.0520 XXZZ=           -264.4907 YYZZ=           -120.3425
 XXYZ=             -1.9770 YYXZ=             -8.1372 ZZXY=             -1.9209
 N-N= 1.020668392176D+03 E-N=-4.480300112299D+03  KE= 1.024333267839D+03
                          Isotropic Fermi Contact Couplings
        Atom                 a.u.       MegaHertz       Gauss      10(-4) cm-1
     1  F(19)              0.04939     207.81628      74.15402      69.32005
     2  C(13)              0.30271     340.30876     121.43063     113.51478
     3  F(19)              0.05109     214.95199      76.70022      71.70027
     4  C(13)              0.01996      22.43486       8.00531       7.48346
     5  F(19)             -0.00025      -1.03117      -0.36795      -0.34396
     6  F(19)             -0.00060      -2.50596      -0.89419      -0.83590
     7  F(19)              0.00582      24.48300       8.73614       8.16665
     8  C(13)              0.01038      11.67385       4.16552       3.89398
     9  F(19)             -0.00016      -0.69100      -0.24657      -0.23049
    10  F(19)             -0.00037      -1.56463      -0.55830      -0.52190
    11  F(19)              0.00231       9.69942       3.46099       3.23538
    12  C(13)              0.00222       2.49982       0.89200       0.83385
    13  O(17)              0.00980      -5.94147      -2.12006      -1.98186
    14  H(1)              -0.00027      -1.22872      -0.43844      -0.40986
 --------------------------------------------------------
       Center         ----  Spin Dipole Couplings  ----
                      3XX-RR        3YY-RR        3ZZ-RR
 --------------------------------------------------------
     1   Atom        0.022822      0.362086     -0.384908
     2   Atom        0.046838      0.375624     -0.422462
     3   Atom        0.012892      0.280171     -0.293062
     4   Atom        0.013074      0.011886     -0.024959
     5   Atom        0.003885     -0.003074     -0.000811
     6   Atom        0.004084     -0.002469     -0.001615
     7   Atom       -0.009025     -0.010027      0.019052
     8   Atom        0.013662     -0.004890     -0.008772
     9   Atom        0.001424      0.001242     -0.002666
    10   Atom        0.001821      0.000148     -0.001969
    11   Atom        0.026039     -0.013127     -0.012912
    12   Atom        0.056506     -0.024241     -0.032265
    13   Atom       -0.006372     -0.016063      0.022434
    14   Atom       -0.000027      0.008224     -0.008197
 --------------------------------------------------------
                        XY            XZ            YZ
 --------------------------------------------------------
     1   Atom        0.591096      0.108210      0.196147
     2   Atom        0.718264      0.247278      0.311187
     3   Atom        0.536041      0.283995      0.330696
     4   Atom        0.039285      0.009804      0.010532
     5   Atom        0.009052      0.006513      0.007266
     6   Atom        0.006650     -0.002107     -0.006503
     7   Atom        0.005521     -0.008012     -0.010597
     8   Atom       -0.008804     -0.000945      0.000542
     9   Atom       -0.002103      0.000046      0.000957
    10   Atom        0.000150     -0.000080     -0.000926
    11   Atom        0.004992     -0.001141     -0.000130
    12   Atom       -0.050206     -0.030325      0.009913
    13   Atom        0.001776      0.025689      0.001142
    14   Atom       -0.010805      0.004113     -0.007521
 --------------------------------------------------------


 ---------------------------------------------------------------------------------
              Anisotropic Spin Dipole Couplings in Principal Axis System
 ---------------------------------------------------------------------------------

       Atom             a.u.   MegaHertz   Gauss  10(-4) cm-1        Axes

              Baa    -0.4548  -228.410   -81.502   -76.189  0.4793 -0.5171  0.7092
     1 F(19)  Bbb    -0.3926  -197.150   -70.348   -65.762 -0.6510  0.3325  0.6824
              Bcc     0.8473   425.560   151.850   141.952  0.5887  0.7887  0.1772
 
              Baa    -0.5295   -71.050   -25.352   -23.700 -0.0495 -0.2894  0.9559
     2 C(13)  Bbb    -0.5255   -70.521   -25.164   -23.523  0.7971 -0.5881 -0.1368
              Bcc     1.0550   141.570    50.516    47.223  0.6018  0.7552  0.2598
 
              Baa    -0.4633  -232.681   -83.026   -77.614 -0.4517 -0.0699  0.8894
     3 F(19)  Bbb    -0.3997  -200.756   -71.635   -66.965  0.6774 -0.6756  0.2910
              Bcc     0.8630   433.436   154.661   144.579  0.5805  0.7339  0.3526
 
              Baa    -0.0279    -3.745    -1.336    -1.249  0.2322 -0.4566  0.8588
     4 C(13)  Bbb    -0.0265    -3.552    -1.267    -1.185  0.6753 -0.5598 -0.4802
              Bcc     0.0544     7.297     2.604     2.434  0.7001  0.6915  0.1783
 
              Baa    -0.0103    -5.187    -1.851    -1.730 -0.3531  0.8443 -0.4030
     5 F(19)  Bbb    -0.0053    -2.669    -0.952    -0.890 -0.6376  0.0981  0.7641
              Bcc     0.0156     7.855     2.803     2.620  0.6847  0.5268  0.5037
 
              Baa    -0.0096    -4.827    -1.722    -1.610 -0.2924  0.7782  0.5558
     6 F(19)  Bbb    -0.0011    -0.530    -0.189    -0.177  0.6432 -0.2701  0.7165
              Bcc     0.0107     5.357     1.912     1.787  0.7077  0.5670 -0.4216
 
              Baa    -0.0154    -7.720    -2.755    -2.575 -0.5589  0.8201  0.1224
     7 F(19)  Bbb    -0.0097    -4.871    -1.738    -1.625  0.7856  0.4766  0.3946
              Bcc     0.0251    12.591     4.493     4.200 -0.2653 -0.3167  0.9107
 
              Baa    -0.0089    -1.190    -0.425    -0.397 -0.0796 -0.3056  0.9488
     8 C(13)  Bbb    -0.0084    -1.121    -0.400    -0.374  0.3642  0.8771  0.3131
              Bcc     0.0172     2.311     0.825     0.771  0.9279 -0.3705 -0.0415
 
              Baa    -0.0030    -1.490    -0.532    -0.497 -0.1485 -0.2893  0.9456
     9 F(19)  Bbb    -0.0005    -0.270    -0.096    -0.090  0.6924  0.6523  0.3084
              Bcc     0.0035     1.760     0.628     0.587  0.7061 -0.7005 -0.1034
 
              Baa    -0.0023    -1.163    -0.415    -0.388  0.0055  0.3514  0.9362
    10 F(19)  Bbb     0.0005     0.238     0.085     0.079 -0.1241  0.9292 -0.3480
              Bcc     0.0018     0.925     0.330     0.309  0.9923  0.1143 -0.0487
 
              Baa    -0.0138    -6.907    -2.465    -2.304 -0.1249  0.9920 -0.0162
    11 F(19)  Bbb    -0.0129    -6.501    -2.320    -2.169  0.0267  0.0197  0.9994
              Bcc     0.0267    13.409     4.785     4.473  0.9918  0.1244 -0.0290
 
              Baa    -0.0500    -6.711    -2.395    -2.239  0.4807  0.7903  0.3799
    12 C(13)  Bbb    -0.0388    -5.209    -1.859    -1.738  0.0438 -0.4543  0.8898
              Bcc     0.0888    11.920     4.253     3.976  0.8758 -0.4111 -0.2530
 
              Baa    -0.0216     1.562     0.557     0.521  0.8527 -0.1723 -0.4931
    13 O(17)  Bbb    -0.0160     1.155     0.412     0.385  0.1312  0.9844 -0.1171
              Bcc     0.0375    -2.717    -0.969    -0.906  0.5056  0.0351  0.8620
 
              Baa    -0.0111    -5.934    -2.118    -1.980  0.0160  0.3700  0.9289
    14 H(1)   Bbb    -0.0073    -3.884    -1.386    -1.295  0.8469  0.4888 -0.2092
              Bcc     0.0184     9.818     3.503     3.275 -0.5314  0.7901 -0.3056
 

 ---------------------------------------------------------------------------------

 1\1\GINC-PURPLE\FOpt\UwB97XD\6-311+G(2d,2p)\C4H1F8O1(2)\RAPPE\03-Sep-2
 025\0\\# opt freq wb97xd/6-311+g(2d,2p) geom=connectivity scf=xqc\\Tit
 le Card Required\\0,2\F,-2.4665553041,-0.0569998236,1.0147080873\C,-2.
 038415364,-0.3923773595,-0.1790784676\F,-2.4791811143,0.4326825178,-1.
 1054069799\C,0.4165873557,0.3309761774,0.0618556168\F,0.269811071,0.62
 86386959,1.360822411\F,0.1078603216,1.4192704727,-0.6629679694\F,-0.40
 76661463,-1.8009675431,0.6361435924\C,1.9214680415,0.0195682501,-0.182
 3188893\F,2.191530586,-0.047083291,-1.4770677263\F,2.266679108,-1.1246
 091131,0.393983783\F,2.6485933714,0.998610587,0.3486222622\C,-0.580305
 1849,-0.8105883898,-0.2946560116\O,-0.2870140451,-1.2381589622,-1.5499
 559387\H,-0.9773881164,-1.8267219885,-1.8657715399\\Version=ES64L-G16R
 evA.03\State=2-A\HF=-1026.9704556\S2=0.752878\S2-1=0.\S2A=0.750006\RMS
 D=3.717e-09\RMSF=1.349e-05\Dipole=-0.6051798,-0.5175405,-0.5263255\Qua
 drupole=-0.0277887,0.4481684,-0.4203797,2.4074984,2.1551127,2.8603524\
 PG=C01 [X(C4H1F8O1)]\\@


 THE THINKER DIES, BUT HIS THOUGHTS ARE BEYOND THE 
 REACH OF DESTRUCTION.  MEN ARE MORTAL; BUT IDEAS 
 ARE IMMORTAL.
                              -- WALTER LIPPMANN
 Job cpu time:       0 days  9 hours 53 minutes 46.9 seconds.
 Elapsed time:       0 days  0 hours 10 minutes 41.7 seconds.
 File lengths (MBytes):  RWF=    144 Int=      0 D2E=      0 Chk=     13 Scr=      1
 Normal termination of Gaussian 16 at Wed Sep  3 09:22:06 2025.
 Link1:  Proceeding to internal job step number  2.
 ----------------------------------------------------------------------
 #N Geom=AllCheck Guess=TCheck SCRF=Check GenChk UwB97XD/6-311+G(2d,2p)
  Freq
 ----------------------------------------------------------------------
 1/10=4,29=7,30=1,38=1,40=1/1,3;
 2/12=2,40=1/2;
 3/5=4,6=6,7=212,11=2,14=-4,25=1,30=1,70=2,71=2,74=-58,116=2,140=1/1,2,3;
 4/5=101/1;
 5/5=2,8=3,13=1,38=6,98=1/2,8;
 8/6=4,10=90,11=11/1;
 11/6=1,8=1,9=11,15=111,16=1/1,2,10;
 10/6=1/2;
 6/7=2,8=2,9=2,10=2,28=1/1;
 7/8=1,10=1,25=1/1,2,3,16;
 1/10=4,30=1/3;
 99//99;
 Structure from the checkpoint file:  "butene_2OH.chk"
 -------------------
 Title Card Required
 -------------------
 Charge =  0 Multiplicity = 2
 Redundant internal coordinates found in file.  (old form).
 F,0,-2.4665553041,-0.0569998236,1.0147080873
 C,0,-2.038415364,-0.3923773595,-0.1790784676
 F,0,-2.4791811143,0.4326825178,-1.1054069799
 C,0,0.4165873557,0.3309761774,0.0618556168
 F,0,0.269811071,0.6286386959,1.360822411
 F,0,0.1078603216,1.4192704727,-0.6629679694
 F,0,-0.4076661463,-1.8009675431,0.6361435924
 C,0,1.9214680415,0.0195682501,-0.1823188893
 F,0,2.191530586,-0.047083291,-1.4770677263
 F,0,2.266679108,-1.1246091131,0.393983783
 F,0,2.6485933714,0.998610587,0.3486222622
 C,0,-0.5803051849,-0.8105883898,-0.2946560116
 O,0,-0.2870140451,-1.2381589622,-1.5499559387
 H,0,-0.9773881164,-1.8267219885,-1.8657715399
 Recover connectivity data from disk.

 GradGradGradGradGradGradGradGradGradGradGradGradGradGradGradGradGradGrad
 Berny optimization.
 Initialization pass.
                           ----------------------------
                           !    Initial Parameters    !
                           ! (Angstroms and Degrees)  !
 --------------------------                            --------------------------
 ! Name  Definition              Value          Derivative Info.                !
 --------------------------------------------------------------------------------
 ! R1    R(1,2)                  1.3118         calculate D2E/DX2 analytically  !
 ! R2    R(2,3)                  1.3165         calculate D2E/DX2 analytically  !
 ! R3    R(2,12)                 1.5213         calculate D2E/DX2 analytically  !
 ! R4    R(4,5)                  1.3407         calculate D2E/DX2 analytically  !
 ! R5    R(4,6)                  1.3435         calculate D2E/DX2 analytically  !
 ! R6    R(4,8)                  1.556          calculate D2E/DX2 analytically  !
 ! R7    R(4,12)                 1.5569         calculate D2E/DX2 analytically  !
 ! R8    R(7,12)                 1.3701         calculate D2E/DX2 analytically  !
 ! R9    R(8,9)                  1.3243         calculate D2E/DX2 analytically  !
 ! R10   R(8,10)                 1.3268         calculate D2E/DX2 analytically  !
 ! R11   R(8,11)                 1.3301         calculate D2E/DX2 analytically  !
 ! R12   R(12,13)                1.3582         calculate D2E/DX2 analytically  !
 ! R13   R(13,14)                0.9606         calculate D2E/DX2 analytically  !
 ! A1    A(1,2,3)              111.767          calculate D2E/DX2 analytically  !
 ! A2    A(1,2,12)             116.8868         calculate D2E/DX2 analytically  !
 ! A3    A(3,2,12)             116.0869         calculate D2E/DX2 analytically  !
 ! A4    A(5,4,6)              108.524          calculate D2E/DX2 analytically  !
 ! A5    A(5,4,8)              107.5987         calculate D2E/DX2 analytically  !
 ! A6    A(5,4,12)             108.3334         calculate D2E/DX2 analytically  !
 ! A7    A(6,4,8)              107.4387         calculate D2E/DX2 analytically  !
 ! A8    A(6,4,12)             108.8599         calculate D2E/DX2 analytically  !
 ! A9    A(8,4,12)             115.8852         calculate D2E/DX2 analytically  !
 ! A10   A(4,8,9)              111.1442         calculate D2E/DX2 analytically  !
 ! A11   A(4,8,10)             110.8577         calculate D2E/DX2 analytically  !
 ! A12   A(4,8,11)             108.5875         calculate D2E/DX2 analytically  !
 ! A13   A(9,8,10)             109.1596         calculate D2E/DX2 analytically  !
 ! A14   A(9,8,11)             108.4113         calculate D2E/DX2 analytically  !
 ! A15   A(10,8,11)            108.6106         calculate D2E/DX2 analytically  !
 ! A16   A(2,12,4)             113.2495         calculate D2E/DX2 analytically  !
 ! A17   A(2,12,7)             105.5383         calculate D2E/DX2 analytically  !
 ! A18   A(2,12,13)            111.3301         calculate D2E/DX2 analytically  !
 ! A19   A(4,12,7)             107.0838         calculate D2E/DX2 analytically  !
 ! A20   A(4,12,13)            107.7098         calculate D2E/DX2 analytically  !
 ! A21   A(7,12,13)            111.91           calculate D2E/DX2 analytically  !
 ! A22   A(12,13,14)           109.9717         calculate D2E/DX2 analytically  !
 ! D1    D(1,2,12,4)           -63.5219         calculate D2E/DX2 analytically  !
 ! D2    D(1,2,12,7)            53.3064         calculate D2E/DX2 analytically  !
 ! D3    D(1,2,12,13)          174.9315         calculate D2E/DX2 analytically  !
 ! D4    D(3,2,12,4)            71.81           calculate D2E/DX2 analytically  !
 ! D5    D(3,2,12,7)          -171.3618         calculate D2E/DX2 analytically  !
 ! D6    D(3,2,12,13)          -49.7366         calculate D2E/DX2 analytically  !
 ! D7    D(5,4,8,9)           -168.6704         calculate D2E/DX2 analytically  !
 ! D8    D(5,4,8,10)            69.7335         calculate D2E/DX2 analytically  !
 ! D9    D(5,4,8,11)           -49.5049         calculate D2E/DX2 analytically  !
 ! D10   D(6,4,8,9)            -51.9911         calculate D2E/DX2 analytically  !
 ! D11   D(6,4,8,10)          -173.5872         calculate D2E/DX2 analytically  !
 ! D12   D(6,4,8,11)            67.1744         calculate D2E/DX2 analytically  !
 ! D13   D(12,4,8,9)            69.9498         calculate D2E/DX2 analytically  !
 ! D14   D(12,4,8,10)          -51.6464         calculate D2E/DX2 analytically  !
 ! D15   D(12,4,8,11)         -170.8847         calculate D2E/DX2 analytically  !
 ! D16   D(5,4,12,2)            65.3513         calculate D2E/DX2 analytically  !
 ! D17   D(5,4,12,7)           -50.5647         calculate D2E/DX2 analytically  !
 ! D18   D(5,4,12,13)         -171.0911         calculate D2E/DX2 analytically  !
 ! D19   D(6,4,12,2)           -52.48           calculate D2E/DX2 analytically  !
 ! D20   D(6,4,12,7)          -168.3961         calculate D2E/DX2 analytically  !
 ! D21   D(6,4,12,13)           71.0775         calculate D2E/DX2 analytically  !
 ! D22   D(8,4,12,2)          -173.6625         calculate D2E/DX2 analytically  !
 ! D23   D(8,4,12,7)            70.4215         calculate D2E/DX2 analytically  !
 ! D24   D(8,4,12,13)          -50.1049         calculate D2E/DX2 analytically  !
 ! D25   D(2,12,13,14)         -44.9441         calculate D2E/DX2 analytically  !
 ! D26   D(4,12,13,14)        -169.6622         calculate D2E/DX2 analytically  !
 ! D27   D(7,12,13,14)          72.8972         calculate D2E/DX2 analytically  !
 --------------------------------------------------------------------------------
 Trust Radius=3.00D-01 FncErr=1.00D-07 GrdErr=1.00D-07 EigMax=2.50D+02 EigMin=1.00D-04
 Number of steps in this run=      2 maximum allowed number of steps=      2.
 GradGradGradGradGradGradGradGradGradGradGradGradGradGradGradGradGradGrad

                          Input orientation:                          
 ---------------------------------------------------------------------
 Center     Atomic      Atomic             Coordinates (Angstroms)
 Number     Number       Type             X           Y           Z
 ---------------------------------------------------------------------
      1          9           0       -2.466555   -0.057000    1.014708
      2          6           0       -2.038415   -0.392377   -0.179078
      3          9           0       -2.479181    0.432683   -1.105407
      4          6           0        0.416587    0.330976    0.061856
      5          9           0        0.269811    0.628639    1.360822
      6          9           0        0.107860    1.419270   -0.662968
      7          9           0       -0.407666   -1.800968    0.636144
      8          6           0        1.921468    0.019568   -0.182319
      9          9           0        2.191531   -0.047083   -1.477068
     10          9           0        2.266679   -1.124609    0.393984
     11          9           0        2.648593    0.998611    0.348622
     12          6           0       -0.580305   -0.810588   -0.294656
     13          8           0       -0.287014   -1.238159   -1.549956
     14          1           0       -0.977388   -1.826722   -1.865772
 ---------------------------------------------------------------------
                    Distance matrix (angstroms):
                    1          2          3          4          5
     1  F    0.000000
     2  C    1.311834   0.000000
     3  F    2.175968   1.316466   0.000000
     4  C    3.061203   2.570667   3.123831   0.000000
     5  F    2.842111   2.956633   3.698330   1.340694   0.000000
     6  F    3.409045   2.850038   2.803906   1.343527   2.178774
     7  F    2.724658   2.303922   3.509041   2.356774   2.624333
     8  C    4.549009   3.981254   4.515359   1.556040   2.340988
     9  F    5.282690   4.438068   4.709974   2.379420   3.493312
    10  F    4.891686   4.404362   5.215028   2.377368   2.827744
    11  F    5.265238   4.917455   5.359902   2.347301   2.611519
    12  C    2.416665   1.521297   2.410139   1.556941   2.352590
    13  O    3.566937   2.379508   2.791940   2.356942   3.502516
    14  H    3.694144   2.455210   2.817525   3.211631   4.242076
                    6          7          8          9         10
     6  F    0.000000
     7  F    3.510469   0.000000
     8  C    2.340804   3.067425   0.000000
     9  F    2.674815   3.781216   1.324293   0.000000
    10  F    3.499853   2.769156   1.326815   2.160450   0.000000
    11  F    2.766874   4.154639   1.330088   2.153027   2.157772
    12  C    2.362519   1.370052   2.638304   3.108715   2.945871
    13  O    2.829241   2.260606   2.886122   2.750847   3.211408
    14  H    3.627805   2.566092   3.827031   3.655168   4.015399
                   11         12         13         14
    11  F    0.000000
    12  C    3.756700   0.000000
    13  O    4.150365   1.358166   0.000000
    14  H    5.102331   1.912748   0.960605   0.000000
 Stoichiometry    C4HF8O(2)
 Framework group  C1[X(C4HF8O)]
 Deg. of freedom    36
 Full point group                 C1      NOp   1
 Largest Abelian subgroup         C1      NOp   1
 Largest concise Abelian subgroup C1      NOp   1
                         Standard orientation:                         
 ---------------------------------------------------------------------
 Center     Atomic      Atomic             Coordinates (Angstroms)
 Number     Number       Type             X           Y           Z
 ---------------------------------------------------------------------
      1          9           0        2.598882   -0.821210    0.804823
      2          6           0        2.187225    0.132910    0.004135
      3          9           0        2.560895   -0.078951   -1.240280
      4          6           0       -0.311532   -0.465658   -0.074972
      5          9           0       -0.177033   -1.429569    0.847117
      6          9           0       -0.086977   -1.000084   -1.287007
      7          9           0        0.667731    0.960742    1.525282
      8          6           0       -1.791928    0.012545   -0.043188
      9          9           0       -2.065937    0.787672   -1.081384
     10          9           0       -2.049945    0.676585    1.076149
     11          9           0       -2.583541   -1.055045   -0.095479
     12          6           0        0.762077    0.627975    0.199609
     13          8           0        0.491085    1.685154   -0.608814
     14          1           0        1.219591    2.310869   -0.585981
 ---------------------------------------------------------------------
 Rotational constants (GHZ):           1.3651101           0.6012317           0.5957926
 Standard basis: 6-311+G(2d,2p) (5D, 7F)
 There are   386 symmetry adapted cartesian basis functions of A   symmetry.
 There are   360 symmetry adapted basis functions of A   symmetry.
   360 basis functions,   557 primitive gaussians,   386 cartesian basis functions
    53 alpha electrons       52 beta electrons
       nuclear repulsion energy      1020.6762831982 Hartrees.
 NAtoms=   14 NActive=   14 NUniq=   14 SFac= 1.00D+00 NAtFMM=   60 NAOKFM=F Big=F
 Integral buffers will be    131072 words long.
 Raffenetti 2 integral format.
 Two-electron integral symmetry is turned on.
 Nuclear repulsion after empirical dispersion term =     1020.6683921761 Hartrees.
 One-electron integrals computed using PRISM.
 NBasis=   360 RedAO= T EigKep=  1.01D-05  NBF=   360
 NBsUse=   360 1.00D-06 EigRej= -1.00D+00 NBFU=   360
 Initial guess from the checkpoint file:  "butene_2OH.chk"
 B after Tr=    -0.000000   -0.000000    0.000000
         Rot=    1.000000    0.000000    0.000000   -0.000000 Ang=   0.00 deg.
 Initial guess <Sx>= 0.0000 <Sy>= 0.0000 <Sz>= 0.5000 <S**2>= 0.7529 S= 0.5014
 Requested convergence on RMS density matrix=1.00D-08 within  32 cycles.
 Requested convergence on MAX density matrix=1.00D-06.
 Requested convergence on             energy=1.00D-06.
 No special actions if energy rises.
 SCF Done:  E(UwB97XD) =  -1026.97045564     A.U. after    1 cycles
            NFock=  1  Conv=0.11D-08     -V/T= 2.0026
 <Sx>= 0.0000 <Sy>= 0.0000 <Sz>= 0.5000 <S**2>= 0.7529 S= 0.5014
 <L.S>= 0.000000000000E+00
 Annihilation of the first spin contaminant:
 S**2 before annihilation     0.7529,   after     0.7500
 QCSCF skips out because SCF is already converged.
 DoSCS=F DFT=T ScalE2(SS,OS)=  1.000000  1.000000
 Range of M.O.s used for correlation:     1   360
 NBasis=   360 NAE=    53 NBE=    52 NFC=     0 NFV=     0
 NROrb=    360 NOA=    53 NOB=    52 NVA=   307 NVB=   308

 **** Warning!!: The largest alpha MO coefficient is  0.78667122D+02


 **** Warning!!: The largest beta MO coefficient is  0.60372371D+02

 Symmetrizing basis deriv contribution to polar:
 IMax=3 JMax=2 DiffMx= 0.00D+00
 G2DrvN: will do    15 centers at a time, making    1 passes.
 Calling FoFCou, ICntrl=  3107 FMM=F I1Cent=   0 AccDes= 0.00D+00.
 End of G2Drv F.D. properties file   721 does not exist.
 End of G2Drv F.D. properties file   722 does not exist.
 End of G2Drv F.D. properties file   788 does not exist.
          IDoAtm=11111111111111
          Differentiating once with respect to electric field.
                with respect to dipole field.
          Differentiating once with respect to nuclear coordinates.
 CalDSu exits because no D1Ps are significant.
          There are    45 degrees of freedom in the 1st order CPHF.  IDoFFX=6 NUNeed=     3.
     42 vectors produced by pass  0 Test12= 7.17D-14 2.22D-09 XBig12= 3.78D+01 1.28D+00.
 AX will form    42 AO Fock derivatives at one time.
     42 vectors produced by pass  1 Test12= 7.17D-14 2.22D-09 XBig12= 7.35D+00 3.89D-01.
     42 vectors produced by pass  2 Test12= 7.17D-14 2.22D-09 XBig12= 2.83D-01 1.01D-01.
     42 vectors produced by pass  3 Test12= 7.17D-14 2.22D-09 XBig12= 9.53D-03 1.15D-02.
     42 vectors produced by pass  4 Test12= 7.17D-14 2.22D-09 XBig12= 1.85D-04 2.18D-03.
     42 vectors produced by pass  5 Test12= 7.17D-14 2.22D-09 XBig12= 2.37D-06 2.11D-04.
     42 vectors produced by pass  6 Test12= 7.17D-14 2.22D-09 XBig12= 2.39D-08 1.46D-05.
     39 vectors produced by pass  7 Test12= 7.17D-14 2.22D-09 XBig12= 2.81D-10 1.83D-06.
     11 vectors produced by pass  8 Test12= 7.17D-14 2.22D-09 XBig12= 3.02D-12 1.66D-07.
      3 vectors produced by pass  9 Test12= 7.17D-14 2.22D-09 XBig12= 3.25D-14 1.28D-08.
 InvSVY:  IOpt=1 It=  1 EMax= 5.33D-15
 Solved reduced A of dimension   347 with    45 vectors.
 Isotropic polarizability for W=    0.000000       57.97 Bohr**3.
 End of Minotr F.D. properties file   721 does not exist.
 End of Minotr F.D. properties file   722 does not exist.
 End of Minotr F.D. properties file   788 does not exist.

 **********************************************************************

            Population analysis using the SCF density.

 **********************************************************************

 Orbital symmetries:
 Alpha Orbitals:
       Occupied  (A) (A) (A) (A) (A) (A) (A) (A) (A) (A) (A) (A)
                 (A) (A) (A) (A) (A) (A) (A) (A) (A) (A) (A) (A)
                 (A) (A) (A) (A) (A) (A) (A) (A) (A) (A) (A) (A)
                 (A) (A) (A) (A) (A) (A) (A) (A) (A) (A) (A) (A)
                 (A) (A) (A) (A) (A)
       Virtual   (A) (A) (A) (A) (A) (A) (A) (A) (A) (A) (A) (A)
                 (A) (A) (A) (A) (A) (A) (A) (A) (A) (A) (A) (A)
                 (A) (A) (A) (A) (A) (A) (A) (A) (A) (A) (A) (A)
                 (A) (A) (A) (A) (A) (A) (A) (A) (A) (A) (A) (A)
                 (A) (A) (A) (A) (A) (A) (A) (A) (A) (A) (A) (A)
                 (A) (A) (A) (A) (A) (A) (A) (A) (A) (A) (A) (A)
                 (A) (A) (A) (A) (A) (A) (A) (A) (A) (A) (A) (A)
                 (A) (A) (A) (A) (A) (A) (A) (A) (A) (A) (A) (A)
                 (A) (A) (A) (A) (A) (A) (A) (A) (A) (A) (A) (A)
                 (A) (A) (A) (A) (A) (A) (A) (A) (A) (A) (A) (A)
                 (A) (A) (A) (A) (A) (A) (A) (A) (A) (A) (A) (A)
                 (A) (A) (A) (A) (A) (A) (A) (A) (A) (A) (A) (A)
                 (A) (A) (A) (A) (A) (A) (A) (A) (A) (A) (A) (A)
                 (A) (A) (A) (A) (A) (A) (A) (A) (A) (A) (A) (A)
                 (A) (A) (A) (A) (A) (A) (A) (A) (A) (A) (A) (A)
                 (A) (A) (A) (A) (A) (A) (A) (A) (A) (A) (A) (A)
                 (A) (A) (A) (A) (A) (A) (A) (A) (A) (A) (A) (A)
                 (A) (A) (A) (A) (A) (A) (A) (A) (A) (A) (A) (A)
                 (A) (A) (A) (A) (A) (A) (A) (A) (A) (A) (A) (A)
                 (A) (A) (A) (A) (A) (A) (A) (A) (A) (A) (A) (A)
                 (A) (A) (A) (A) (A) (A) (A) (A) (A) (A) (A) (A)
                 (A) (A) (A) (A) (A) (A) (A) (A) (A) (A) (A) (A)
                 (A) (A) (A) (A) (A) (A) (A) (A) (A) (A) (A) (A)
                 (A) (A) (A) (A) (A) (A) (A) (A) (A) (A) (A) (A)
                 (A) (A) (A) (A) (A) (A) (A) (A) (A) (A) (A) (A)
                 (A) (A) (A) (A) (A) (A) (A)
 Beta  Orbitals:
       Occupied  (A) (A) (A) (A) (A) (A) (A) (A) (A) (A) (A) (A)
                 (A) (A) (A) (A) (A) (A) (A) (A) (A) (A) (A) (A)
                 (A) (A) (A) (A) (A) (A) (A) (A) (A) (A) (A) (A)
                 (A) (A) (A) (A) (A) (A) (A) (A) (A) (A) (A) (A)
                 (A) (A) (A) (A)
       Virtual   (A) (A) (A) (A) (A) (A) (A) (A) (A) (A) (A) (A)
                 (A) (A) (A) (A) (A) (A) (A) (A) (A) (A) (A) (A)
                 (A) (A) (A) (A) (A) (A) (A) (A) (A) (A) (A) (A)
                 (A) (A) (A) (A) (A) (A) (A) (A) (A) (A) (A) (A)
                 (A) (A) (A) (A) (A) (A) (A) (A) (A) (A) (A) (A)
                 (A) (A) (A) (A) (A) (A) (A) (A) (A) (A) (A) (A)
                 (A) (A) (A) (A) (A) (A) (A) (A) (A) (A) (A) (A)
                 (A) (A) (A) (A) (A) (A) (A) (A) (A) (A) (A) (A)
                 (A) (A) (A) (A) (A) (A) (A) (A) (A) (A) (A) (A)
                 (A) (A) (A) (A) (A) (A) (A) (A) (A) (A) (A) (A)
                 (A) (A) (A) (A) (A) (A) (A) (A) (A) (A) (A) (A)
                 (A) (A) (A) (A) (A) (A) (A) (A) (A) (A) (A) (A)
                 (A) (A) (A) (A) (A) (A) (A) (A) (A) (A) (A) (A)
                 (A) (A) (A) (A) (A) (A) (A) (A) (A) (A) (A) (A)
                 (A) (A) (A) (A) (A) (A) (A) (A) (A) (A) (A) (A)
                 (A) (A) (A) (A) (A) (A) (A) (A) (A) (A) (A) (A)
                 (A) (A) (A) (A) (A) (A) (A) (A) (A) (A) (A) (A)
                 (A) (A) (A) (A) (A) (A) (A) (A) (A) (A) (A) (A)
                 (A) (A) (A) (A) (A) (A) (A) (A) (A) (A) (A) (A)
                 (A) (A) (A) (A) (A) (A) (A) (A) (A) (A) (A) (A)
                 (A) (A) (A) (A) (A) (A) (A) (A) (A) (A) (A) (A)
                 (A) (A) (A) (A) (A) (A) (A) (A) (A) (A) (A) (A)
                 (A) (A) (A) (A) (A) (A) (A) (A) (A) (A) (A) (A)
                 (A) (A) (A) (A) (A) (A) (A) (A) (A) (A) (A) (A)
                 (A) (A) (A) (A) (A) (A) (A) (A) (A) (A) (A) (A)
                 (A) (A) (A) (A) (A) (A) (A) (A)
 The electronic state is 2-A.
 Alpha  occ. eigenvalues --  -24.88493 -24.88394 -24.87069 -24.86953 -24.86895
 Alpha  occ. eigenvalues --  -24.86876 -24.86785 -24.84926 -19.32798 -10.57412
 Alpha  occ. eigenvalues --  -10.51640 -10.49689 -10.49663  -1.46372  -1.44065
 Alpha  occ. eigenvalues --   -1.42133  -1.38020  -1.37341  -1.36916  -1.36545
 Alpha  occ. eigenvalues --   -1.35701  -1.22160  -0.93852  -0.89167  -0.82362
 Alpha  occ. eigenvalues --   -0.78519  -0.74813  -0.73535  -0.73205  -0.71974
 Alpha  occ. eigenvalues --   -0.71270  -0.69731  -0.69706  -0.66955  -0.65957
 Alpha  occ. eigenvalues --   -0.60198  -0.59615  -0.59407  -0.59202  -0.58686
 Alpha  occ. eigenvalues --   -0.57848  -0.57093  -0.56093  -0.55741  -0.54997
 Alpha  occ. eigenvalues --   -0.54296  -0.53691  -0.52887  -0.52247  -0.50458
 Alpha  occ. eigenvalues --   -0.46836  -0.46249  -0.34916
 Alpha virt. eigenvalues --    0.05449   0.07782   0.08568   0.08784   0.11059
 Alpha virt. eigenvalues --    0.11438   0.11709   0.12874   0.13347   0.13957
 Alpha virt. eigenvalues --    0.14784   0.14976   0.15561   0.16568   0.18225
 Alpha virt. eigenvalues --    0.18705   0.19567   0.20369   0.22316   0.23131
 Alpha virt. eigenvalues --    0.24985   0.25322   0.27047   0.27462   0.29013
 Alpha virt. eigenvalues --    0.29237   0.29726   0.30616   0.32276   0.32394
 Alpha virt. eigenvalues --    0.32694   0.33731   0.34420   0.34775   0.35189
 Alpha virt. eigenvalues --    0.36276   0.36490   0.37155   0.38731   0.39278
 Alpha virt. eigenvalues --    0.39783   0.40249   0.41335   0.41578   0.42209
 Alpha virt. eigenvalues --    0.42396   0.43014   0.43964   0.44551   0.44686
 Alpha virt. eigenvalues --    0.45786   0.46440   0.46531   0.46929   0.47868
 Alpha virt. eigenvalues --    0.48558   0.49235   0.52303   0.52620   0.53584
 Alpha virt. eigenvalues --    0.55437   0.56234   0.58323   0.59726   0.60091
 Alpha virt. eigenvalues --    0.63285   0.63525   0.64343   0.67807   0.68403
 Alpha virt. eigenvalues --    0.70138   0.73284   0.74158   0.75736   0.77020
 Alpha virt. eigenvalues --    0.77851   0.80586   0.82243   0.85984   0.87676
 Alpha virt. eigenvalues --    0.89110   0.92283   0.94645   0.99422   1.02953
 Alpha virt. eigenvalues --    1.05757   1.06792   1.08313   1.12134   1.12902
 Alpha virt. eigenvalues --    1.14797   1.17107   1.17738   1.17886   1.20566
 Alpha virt. eigenvalues --    1.23320   1.27921   1.28512   1.31596   1.32519
 Alpha virt. eigenvalues --    1.32997   1.36027   1.38345   1.40356   1.40645
 Alpha virt. eigenvalues --    1.41958   1.43050   1.44101   1.44299   1.45012
 Alpha virt. eigenvalues --    1.46577   1.47071   1.47393   1.47625   1.48612
 Alpha virt. eigenvalues --    1.48867   1.51134   1.51320   1.51580   1.52638
 Alpha virt. eigenvalues --    1.53850   1.55378   1.55657   1.55992   1.58622
 Alpha virt. eigenvalues --    1.58809   1.60468   1.64500   1.67134   1.68126
 Alpha virt. eigenvalues --    1.72096   1.72124   1.79304   1.88630   1.92830
 Alpha virt. eigenvalues --    1.94573   1.94950   1.97575   1.99520   2.02461
 Alpha virt. eigenvalues --    2.03453   2.04142   2.07027   2.09799   2.09982
 Alpha virt. eigenvalues --    2.12150   2.12746   2.14573   2.15292   2.16185
 Alpha virt. eigenvalues --    2.18094   2.19011   2.22172   2.22712   2.24440
 Alpha virt. eigenvalues --    2.26417   2.28552   2.31723   2.32438   2.34272
 Alpha virt. eigenvalues --    2.36354   2.39545   2.40965   2.43183   2.46331
 Alpha virt. eigenvalues --    2.48312   2.50581   2.54142   2.55514   2.62244
 Alpha virt. eigenvalues --    2.67296   2.69233   2.70399   2.72414   2.75024
 Alpha virt. eigenvalues --    2.75226   2.78340   2.81026   2.81728   2.83847
 Alpha virt. eigenvalues --    2.90028   2.90802   2.92339   3.00787   3.04466
 Alpha virt. eigenvalues --    3.10110   3.18025   3.21163   3.24654   3.30287
 Alpha virt. eigenvalues --    3.39750   3.43360   3.45167   3.45996   3.49902
 Alpha virt. eigenvalues --    3.51107   3.52889   3.57102   3.58971   3.61431
 Alpha virt. eigenvalues --    3.62670   3.65903   3.67036   3.69480   3.72204
 Alpha virt. eigenvalues --    3.74447   3.77387   3.77956   3.84900   3.88214
 Alpha virt. eigenvalues --    3.98219   4.01563   4.12387   4.19527   4.25347
 Alpha virt. eigenvalues --    4.30597   4.32818   4.34263   4.37954   4.40291
 Alpha virt. eigenvalues --    4.45156   4.54024   5.21945   5.61760   6.12923
 Alpha virt. eigenvalues --    6.39390   6.40323   6.42266   6.44610   6.45064
 Alpha virt. eigenvalues --    6.46723   6.47064   6.48092   6.49105   6.50123
 Alpha virt. eigenvalues --    6.52590   6.52897   6.53709   6.54726   6.56496
 Alpha virt. eigenvalues --    6.60700   6.63480   6.64315   6.66689   6.78770
 Alpha virt. eigenvalues --    6.87215   6.90624   6.91845   6.95903   7.02965
 Alpha virt. eigenvalues --    7.15284   7.16746   7.30971   7.56638   9.08635
 Alpha virt. eigenvalues --    9.09877   9.11422   9.12042   9.13461   9.13924
 Alpha virt. eigenvalues --    9.15727   9.16387   9.17330   9.20338   9.20866
 Alpha virt. eigenvalues --    9.22232   9.22529   9.23751   9.24870   9.25242
 Alpha virt. eigenvalues --    9.25687   9.28397   9.29057   9.34591   9.35448
 Alpha virt. eigenvalues --    9.36223   9.40204   9.44690   9.46553   9.51644
 Alpha virt. eigenvalues --    9.54400   9.59206   9.66461   9.67859   9.69448
 Alpha virt. eigenvalues --    9.73732   9.76277   9.77003   9.78178   9.79044
 Alpha virt. eigenvalues --    9.82287   9.85739   9.90844   9.92787  23.93361
 Alpha virt. eigenvalues --   23.99154  24.00653  24.08040  50.12775  66.90864
 Alpha virt. eigenvalues --   66.94200  66.96221  66.96396  66.97254  66.99930
 Alpha virt. eigenvalues --   67.03330  67.05419
  Beta  occ. eigenvalues --  -24.88157 -24.88065 -24.87070 -24.86953 -24.86896
  Beta  occ. eigenvalues --  -24.86865 -24.86785 -24.84924 -19.32784 -10.57391
  Beta  occ. eigenvalues --  -10.51580 -10.49645 -10.48425  -1.46355  -1.43136
  Beta  occ. eigenvalues --   -1.42043  -1.37597  -1.36981  -1.36847  -1.36510
  Beta  occ. eigenvalues --   -1.35692  -1.22086  -0.93408  -0.88164  -0.81333
  Beta  occ. eigenvalues --   -0.78133  -0.74527  -0.73269  -0.73121  -0.71707
  Beta  occ. eigenvalues --   -0.70695  -0.69423  -0.69182  -0.66803  -0.62996
  Beta  occ. eigenvalues --   -0.60013  -0.59509  -0.59292  -0.58795  -0.58304
  Beta  occ. eigenvalues --   -0.57257  -0.56525  -0.55873  -0.55267  -0.54933
  Beta  occ. eigenvalues --   -0.54179  -0.53682  -0.52863  -0.52172  -0.50168
  Beta  occ. eigenvalues --   -0.46719  -0.45381
  Beta virt. eigenvalues --   -0.04534   0.06190   0.08039   0.08739   0.09189
  Beta virt. eigenvalues --    0.11168   0.11718   0.11890   0.13040   0.13572
  Beta virt. eigenvalues --    0.14681   0.14906   0.15277   0.16012   0.16750
  Beta virt. eigenvalues --    0.18716   0.18939   0.20010   0.20556   0.22509
  Beta virt. eigenvalues --    0.23502   0.25493   0.26284   0.27478   0.27659
  Beta virt. eigenvalues --    0.29132   0.29399   0.30173   0.30779   0.32437
  Beta virt. eigenvalues --    0.32523   0.33030   0.34487   0.34642   0.34827
  Beta virt. eigenvalues --    0.35384   0.36507   0.36703   0.37532   0.38907
  Beta virt. eigenvalues --    0.39418   0.39881   0.40329   0.41663   0.41770
  Beta virt. eigenvalues --    0.42314   0.42554   0.43058   0.44035   0.44717
  Beta virt. eigenvalues --    0.44769   0.45882   0.46501   0.46600   0.46957
  Beta virt. eigenvalues --    0.47914   0.48642   0.49336   0.52367   0.52672
  Beta virt. eigenvalues --    0.53642   0.55507   0.56349   0.58605   0.59802
  Beta virt. eigenvalues --    0.60360   0.63562   0.64121   0.64674   0.68294
  Beta virt. eigenvalues --    0.69102   0.70273   0.73439   0.74491   0.76118
  Beta virt. eigenvalues --    0.77082   0.78067   0.80934   0.82417   0.86318
  Beta virt. eigenvalues --    0.88012   0.89713   0.92527   0.95038   0.99970
  Beta virt. eigenvalues --    1.03293   1.06223   1.06952   1.08671   1.12844
  Beta virt. eigenvalues --    1.13089   1.15047   1.17473   1.17819   1.18294
  Beta virt. eigenvalues --    1.20760   1.23749   1.28377   1.28665   1.31742
  Beta virt. eigenvalues --    1.32766   1.33585   1.36266   1.38509   1.40445
  Beta virt. eigenvalues --    1.40790   1.42178   1.43222   1.44287   1.44506
  Beta virt. eigenvalues --    1.45181   1.46733   1.47269   1.47571   1.47714
  Beta virt. eigenvalues --    1.48702   1.48948   1.51186   1.51394   1.51659
  Beta virt. eigenvalues --    1.52711   1.53916   1.55527   1.55719   1.56110
  Beta virt. eigenvalues --    1.58719   1.58916   1.60621   1.64503   1.67303
  Beta virt. eigenvalues --    1.68337   1.72210   1.72282   1.79347   1.88721
  Beta virt. eigenvalues --    1.92983   1.94684   1.95087   1.97731   1.99633
  Beta virt. eigenvalues --    2.02597   2.03614   2.04281   2.07114   2.09928
  Beta virt. eigenvalues --    2.10328   2.12323   2.12822   2.14766   2.15427
  Beta virt. eigenvalues --    2.16484   2.18233   2.19191   2.22195   2.23018
  Beta virt. eigenvalues --    2.24692   2.26832   2.28690   2.31998   2.32567
  Beta virt. eigenvalues --    2.34400   2.36544   2.39799   2.41171   2.43300
  Beta virt. eigenvalues --    2.46903   2.48922   2.50892   2.54189   2.55701
  Beta virt. eigenvalues --    2.62610   2.67591   2.69371   2.70554   2.72691
  Beta virt. eigenvalues --    2.75402   2.75986   2.78509   2.81417   2.82220
  Beta virt. eigenvalues --    2.84716   2.90800   2.91215   2.92810   3.01838
  Beta virt. eigenvalues --    3.05760   3.10426   3.19564   3.22330   3.24750
  Beta virt. eigenvalues --    3.31708   3.41005   3.45046   3.47156   3.48808
  Beta virt. eigenvalues --    3.50272   3.51800   3.54093   3.58718   3.60177
  Beta virt. eigenvalues --    3.61946   3.62836   3.66814   3.67372   3.69842
  Beta virt. eigenvalues --    3.72730   3.75795   3.77612   3.78451   3.85130
  Beta virt. eigenvalues --    3.88379   3.98299   4.03224   4.12756   4.19799
  Beta virt. eigenvalues --    4.25964   4.31127   4.32863   4.34471   4.38164
  Beta virt. eigenvalues --    4.40514   4.45446   4.54726   5.21974   5.61823
  Beta virt. eigenvalues --    6.12953   6.40353   6.41340   6.42307   6.44742
  Beta virt. eigenvalues --    6.45233   6.46894   6.47401   6.48137   6.49237
  Beta virt. eigenvalues --    6.50156   6.52615   6.52942   6.53730   6.54747
  Beta virt. eigenvalues --    6.56531   6.60704   6.63646   6.64539   6.66755
  Beta virt. eigenvalues --    6.78827   6.87285   6.90883   6.91979   6.96054
  Beta virt. eigenvalues --    7.03028   7.15340   7.16802   7.30999   7.56677
  Beta virt. eigenvalues --    9.09467   9.09954   9.11454   9.12059   9.13762
  Beta virt. eigenvalues --    9.14843   9.16481   9.16781   9.18368   9.20391
  Beta virt. eigenvalues --    9.20972   9.22321   9.22610   9.24325   9.24919
  Beta virt. eigenvalues --    9.25272   9.25721   9.28422   9.29141   9.34974
  Beta virt. eigenvalues --    9.35870   9.36349   9.40540   9.44875   9.46944
  Beta virt. eigenvalues --    9.51706   9.54467   9.59363   9.66472   9.68158
  Beta virt. eigenvalues --    9.69462   9.74119   9.76422   9.77008   9.78297
  Beta virt. eigenvalues --    9.79061   9.82732   9.85747   9.90856   9.92789
  Beta virt. eigenvalues --   23.94056  24.00280  24.00718  24.08623  50.12787
  Beta virt. eigenvalues --   66.91095  66.94295  66.96227  66.96458  66.97316
  Beta virt. eigenvalues --   66.99954  67.03352  67.05425
          Condensed to atoms (all electrons):
               1          2          3          4          5          6
     1  F    9.082130   0.188494   0.014418  -0.010285   0.002008  -0.001398
     2  C    0.188494   6.438979   0.156845   0.917617   0.000988   0.035391
     3  F    0.014418   0.156845   9.089843  -0.003704  -0.002458   0.005580
     4  C   -0.010285   0.917617  -0.003704   8.784474   0.325304   0.330831
     5  F    0.002008   0.000988  -0.002458   0.325304   9.107825   0.012719
     6  F   -0.001398   0.035391   0.005580   0.330831   0.012719   9.126336
     7  F    0.015911  -0.198065   0.001790  -0.095139   0.017669  -0.001853
     8  C    0.006083  -0.485118  -0.002432  -1.568485  -0.155402  -0.158420
     9  F    0.000028  -0.011574  -0.000179  -0.095690  -0.001378   0.021322
    10  F   -0.000155   0.020179   0.000020  -0.079786   0.015342   0.000001
    11  F    0.000019   0.000519   0.000008  -0.131471   0.020636   0.018660
    12  C   -0.051288  -1.677730  -0.055687  -2.624738  -0.069976  -0.121596
    13  O   -0.003097  -0.002637   0.026364  -0.055629  -0.001215   0.012784
    14  H    0.000877  -0.055745  -0.002831  -0.031581   0.000254  -0.002152
               7          8          9         10         11         12
     1  F    0.015911   0.006083   0.000028  -0.000155   0.000019  -0.051288
     2  C   -0.198065  -0.485118  -0.011574   0.020179   0.000519  -1.677730
     3  F    0.001790  -0.002432  -0.000179   0.000020   0.000008  -0.055687
     4  C   -0.095139  -1.568485  -0.095690  -0.079786  -0.131471  -2.624738
     5  F    0.017669  -0.155402  -0.001378   0.015342   0.020636  -0.069976
     6  F   -0.001853  -0.158420   0.021322   0.000001   0.018660  -0.121596
     7  F    9.135924  -0.012823  -0.002844   0.002046  -0.001162   0.392302
     8  C   -0.012823   5.574706   0.297833   0.234274   0.246181   0.925141
     9  F   -0.002844   0.297833   9.042349   0.008554  -0.006173   0.014777
    10  F    0.002046   0.234274   0.008554   9.085643   0.000403  -0.000601
    11  F   -0.001162   0.246181  -0.006173   0.000403   9.116749   0.035257
    12  C    0.392302   0.925141   0.014777  -0.000601   0.035257   8.806325
    13  O    0.011909  -0.015881   0.002991   0.004129  -0.000622   0.186008
    14  H   -0.008642   0.016478   0.001417   0.000060  -0.000135   0.104174
              13         14
     1  F   -0.003097   0.000877
     2  C   -0.002637  -0.055745
     3  F    0.026364  -0.002831
     4  C   -0.055629  -0.031581
     5  F   -0.001215   0.000254
     6  F    0.012784  -0.002152
     7  F    0.011909  -0.008642
     8  C   -0.015881   0.016478
     9  F    0.002991   0.001417
    10  F    0.004129   0.000060
    11  F   -0.000622  -0.000135
    12  C    0.186008   0.104174
    13  O    8.014481   0.202676
    14  H    0.202676   0.499244
          Atomic-Atomic Spin Densities.
               1          2          3          4          5          6
     1  F    0.148791  -0.109509   0.011305   0.001808  -0.000510   0.000396
     2  C   -0.109509   1.177186  -0.133040   0.019642  -0.000806  -0.001095
     3  F    0.011305  -0.133040   0.160941  -0.000389   0.000106  -0.000352
     4  C    0.001808   0.019642  -0.000389   0.058542  -0.000655  -0.001317
     5  F   -0.000510  -0.000806   0.000106  -0.000655  -0.000023   0.000590
     6  F    0.000396  -0.001095  -0.000352  -0.001317   0.000590   0.000434
     7  F   -0.000173  -0.014797   0.000769  -0.005062   0.000151  -0.000331
     8  C    0.000961   0.006207  -0.000005  -0.008363  -0.000161   0.001229
     9  F    0.000013   0.000141   0.000026  -0.000080   0.000034   0.000223
    10  F    0.000020   0.000097   0.000002   0.000364   0.000038  -0.000009
    11  F    0.000023   0.000058   0.000014  -0.001600   0.000456   0.000416
    12  C   -0.000843  -0.087477   0.007549  -0.033518   0.001225  -0.001065
    13  O    0.000218  -0.014550   0.000167  -0.004746  -0.000190  -0.000061
    14  H   -0.000165   0.008353  -0.000964   0.002100  -0.000005   0.000016
               7          8          9         10         11         12
     1  F   -0.000173   0.000961   0.000013   0.000020   0.000023  -0.000843
     2  C   -0.014797   0.006207   0.000141   0.000097   0.000058  -0.087477
     3  F    0.000769  -0.000005   0.000026   0.000002   0.000014   0.007549
     4  C   -0.005062  -0.008363  -0.000080   0.000364  -0.001600  -0.033518
     5  F    0.000151  -0.000161   0.000034   0.000038   0.000456   0.001225
     6  F   -0.000331   0.001229   0.000223  -0.000009   0.000416  -0.001065
     7  F    0.005487  -0.002228  -0.000086  -0.000234  -0.000050   0.010490
     8  C   -0.002228   0.022162   0.000527   0.000125  -0.002054  -0.006164
     9  F   -0.000086   0.000527   0.000134  -0.000039   0.000184  -0.000661
    10  F   -0.000234   0.000125  -0.000039  -0.000348   0.000129   0.000170
    11  F   -0.000050  -0.002054   0.000184   0.000129   0.004852  -0.000294
    12  C    0.010490  -0.006164  -0.000661   0.000170  -0.000294   0.111557
    13  O    0.004103  -0.002540  -0.000136  -0.000080  -0.000033   0.012370
    14  H   -0.000485   0.000266   0.000044   0.000017   0.000005  -0.004870
              13         14
     1  F    0.000218  -0.000165
     2  C   -0.014550   0.008353
     3  F    0.000167  -0.000964
     4  C   -0.004746   0.002100
     5  F   -0.000190  -0.000005
     6  F   -0.000061   0.000016
     7  F    0.004103  -0.000485
     8  C   -0.002540   0.000266
     9  F   -0.000136   0.000044
    10  F   -0.000080   0.000017
    11  F   -0.000033   0.000005
    12  C    0.012370  -0.004870
    13  O    0.010023  -0.000345
    14  H   -0.000345  -0.001753
 Mulliken charges and spin densities:
               1          2
     1  F   -0.243745   0.052334
     2  C    0.671855   0.850410
     3  F   -0.227577   0.046129
     4  C    0.338281   0.026724
     5  F   -0.272316   0.000247
     6  F   -0.278206  -0.000928
     7  F   -0.257024  -0.002447
     8  C    1.097864   0.009964
     9  F   -0.271431   0.000326
    10  F   -0.290109   0.000252
    11  F   -0.298869   0.002104
    12  C    0.137631   0.008471
    13  O   -0.382260   0.004200
    14  H    0.275905   0.002213
 Sum of Mulliken charges =  -0.00000   1.00000
 Mulliken charges and spin densities with hydrogens summed into heavy atoms:
               1          2
     1  F   -0.243745   0.052334
     2  C    0.671855   0.850410
     3  F   -0.227577   0.046129
     4  C    0.338281   0.026724
     5  F   -0.272316   0.000247
     6  F   -0.278206  -0.000928
     7  F   -0.257024  -0.002447
     8  C    1.097864   0.009964
     9  F   -0.271431   0.000326
    10  F   -0.290109   0.000252
    11  F   -0.298869   0.002104
    12  C    0.137631   0.008471
    13  O   -0.106354   0.006413
 APT charges:
               1
     1  F   -0.454239
     2  C    0.835215
     3  F   -0.442829
     4  C    0.907853
     5  F   -0.471869
     6  F   -0.473492
     7  F   -0.506319
     8  C    1.558730
     9  F   -0.502828
    10  F   -0.503803
    11  F   -0.553449
    12  C    0.899662
    13  O   -0.604623
    14  H    0.311992
 Sum of APT charges =   0.00000
 APT charges with hydrogens summed into heavy atoms:
               1
     1  F   -0.454239
     2  C    0.835215
     3  F   -0.442829
     4  C    0.907853
     5  F   -0.471869
     6  F   -0.473492
     7  F   -0.506319
     8  C    1.558730
     9  F   -0.502828
    10  F   -0.503803
    11  F   -0.553449
    12  C    0.899662
    13  O   -0.292631
 Electronic spatial extent (au):  <R**2>=           1923.4287
 Charge=              0.0000 electrons
 Dipole moment (field-independent basis, Debye):
    X=              1.6188    Y=              1.7424    Z=             -0.4790  Tot=              2.4261
 Quadrupole moment (field-independent basis, Debye-Ang):
   XX=            -67.9820   YY=            -65.0888   ZZ=            -72.0250
   XY=              4.4319   XZ=             -0.9103   YZ=             -1.1931
 Traceless Quadrupole moment (field-independent basis, Debye-Ang):
   XX=              0.3832   YY=              3.2765   ZZ=             -3.6597
   XY=              4.4319   XZ=             -0.9103   YZ=             -1.1931
 Octapole moment (field-independent basis, Debye-Ang**2):
  XXX=             -2.2033  YYY=              7.5825  ZZZ=              0.4876  XYY=              9.5789
  XXY=              5.9654  XXZ=             -0.0425  XZZ=             -3.7869  YZZ=             -3.8346
  YYZ=             -3.7754  XYZ=             -2.3769
 Hexadecapole moment (field-independent basis, Debye-Ang**3):
 XXXX=          -1213.5844 YYYY=           -341.0072 ZZZZ=           -338.0774 XXXY=             -0.2002
 XXXZ=             -0.7732 YYYX=             16.9006 YYYZ=             -8.6372 ZZZX=             -1.9484
 ZZZY=             -0.5838 XXYY=           -253.0520 XXZZ=           -264.4907 YYZZ=           -120.3425
 XXYZ=             -1.9770 YYXZ=             -8.1372 ZZXY=             -1.9209
 N-N= 1.020668392176D+03 E-N=-4.480300112868D+03  KE= 1.024333268226D+03
  Exact polarizability:  62.125   0.320  55.890  -0.338  -1.699  55.896
 Approx polarizability:  58.920  -0.009  61.418  -0.210  -2.538  66.621
                          Isotropic Fermi Contact Couplings
        Atom                 a.u.       MegaHertz       Gauss      10(-4) cm-1
     1  F(19)              0.04939     207.81609      74.15395      69.31999
     2  C(13)              0.30271     340.30887     121.43067     113.51482
     3  F(19)              0.05109     214.95215      76.70027      71.70032
     4  C(13)              0.01996      22.43484       8.00531       7.48346
     5  F(19)             -0.00025      -1.03118      -0.36795      -0.34397
     6  F(19)             -0.00060      -2.50594      -0.89418      -0.83589
     7  F(19)              0.00582      24.48296       8.73613       8.16664
     8  C(13)              0.01038      11.67384       4.16552       3.89397
     9  F(19)             -0.00016      -0.69101      -0.24657      -0.23050
    10  F(19)             -0.00037      -1.56462      -0.55829      -0.52190
    11  F(19)              0.00231       9.69941       3.46099       3.23537
    12  C(13)              0.00222       2.49979       0.89199       0.83384
    13  O(17)              0.00980      -5.94147      -2.12006      -1.98186
    14  H(1)              -0.00027      -1.22874      -0.43845      -0.40987
 --------------------------------------------------------
       Center         ----  Spin Dipole Couplings  ----
                      3XX-RR        3YY-RR        3ZZ-RR
 --------------------------------------------------------
     1   Atom        0.022822      0.362086     -0.384908
     2   Atom        0.046838      0.375624     -0.422462
     3   Atom        0.012891      0.280171     -0.293062
     4   Atom        0.013074      0.011886     -0.024959
     5   Atom        0.003885     -0.003074     -0.000811
     6   Atom        0.004084     -0.002469     -0.001615
     7   Atom       -0.009025     -0.010027      0.019052
     8   Atom        0.013662     -0.004890     -0.008772
     9   Atom        0.001424      0.001242     -0.002666
    10   Atom        0.001821      0.000148     -0.001969
    11   Atom        0.026039     -0.013127     -0.012912
    12   Atom        0.056506     -0.024241     -0.032265
    13   Atom       -0.006372     -0.016063      0.022434
    14   Atom       -0.000027      0.008224     -0.008197
 --------------------------------------------------------
                        XY            XZ            YZ
 --------------------------------------------------------
     1   Atom        0.591096      0.108210      0.196147
     2   Atom        0.718264      0.247278      0.311187
     3   Atom        0.536041      0.283995      0.330697
     4   Atom        0.039285      0.009804      0.010532
     5   Atom        0.009052      0.006513      0.007266
     6   Atom        0.006650     -0.002107     -0.006503
     7   Atom        0.005521     -0.008012     -0.010597
     8   Atom       -0.008804     -0.000945      0.000542
     9   Atom       -0.002103      0.000046      0.000957
    10   Atom        0.000150     -0.000080     -0.000926
    11   Atom        0.004992     -0.001141     -0.000130
    12   Atom       -0.050206     -0.030325      0.009913
    13   Atom        0.001776      0.025689      0.001142
    14   Atom       -0.010805      0.004113     -0.007521
 --------------------------------------------------------


 ---------------------------------------------------------------------------------
              Anisotropic Spin Dipole Couplings in Principal Axis System
 ---------------------------------------------------------------------------------

       Atom             a.u.   MegaHertz   Gauss  10(-4) cm-1        Axes

              Baa    -0.4548  -228.410   -81.502   -76.189  0.4793 -0.5171  0.7092
     1 F(19)  Bbb    -0.3926  -197.150   -70.348   -65.762 -0.6510  0.3325  0.6824
              Bcc     0.8473   425.560   151.850   141.952  0.5887  0.7887  0.1772
 
              Baa    -0.5295   -71.050   -25.352   -23.700 -0.0495 -0.2894  0.9559
     2 C(13)  Bbb    -0.5255   -70.521   -25.164   -23.523  0.7971 -0.5881 -0.1368
              Bcc     1.0550   141.570    50.516    47.223  0.6018  0.7552  0.2598
 
              Baa    -0.4633  -232.681   -83.026   -77.614 -0.4517 -0.0699  0.8894
     3 F(19)  Bbb    -0.3997  -200.756   -71.635   -66.965  0.6774 -0.6756  0.2910
              Bcc     0.8630   433.436   154.661   144.579  0.5805  0.7339  0.3526
 
              Baa    -0.0279    -3.745    -1.336    -1.249  0.2322 -0.4566  0.8588
     4 C(13)  Bbb    -0.0265    -3.552    -1.267    -1.185  0.6753 -0.5598 -0.4802
              Bcc     0.0544     7.297     2.604     2.434  0.7001  0.6915  0.1783
 
              Baa    -0.0103    -5.187    -1.851    -1.730 -0.3531  0.8443 -0.4030
     5 F(19)  Bbb    -0.0053    -2.669    -0.952    -0.890 -0.6376  0.0981  0.7641
              Bcc     0.0156     7.855     2.803     2.620  0.6847  0.5268  0.5037
 
              Baa    -0.0096    -4.827    -1.722    -1.610 -0.2924  0.7782  0.5558
     6 F(19)  Bbb    -0.0011    -0.530    -0.189    -0.177  0.6432 -0.2701  0.7165
              Bcc     0.0107     5.357     1.912     1.787  0.7077  0.5670 -0.4216
 
              Baa    -0.0154    -7.720    -2.755    -2.575 -0.5590  0.8201  0.1224
     7 F(19)  Bbb    -0.0097    -4.872    -1.738    -1.625  0.7856  0.4766  0.3946
              Bcc     0.0251    12.591     4.493     4.200 -0.2653 -0.3167  0.9107
 
              Baa    -0.0089    -1.190    -0.425    -0.397 -0.0796 -0.3056  0.9488
     8 C(13)  Bbb    -0.0084    -1.121    -0.400    -0.374  0.3642  0.8771  0.3131
              Bcc     0.0172     2.311     0.825     0.771  0.9279 -0.3705 -0.0415
 
              Baa    -0.0030    -1.490    -0.532    -0.497 -0.1485 -0.2893  0.9456
     9 F(19)  Bbb    -0.0005    -0.270    -0.096    -0.090  0.6924  0.6523  0.3084
              Bcc     0.0035     1.760     0.628     0.587  0.7061 -0.7005 -0.1034
 
              Baa    -0.0023    -1.163    -0.415    -0.388  0.0055  0.3514  0.9362
    10 F(19)  Bbb     0.0005     0.238     0.085     0.079 -0.1241  0.9292 -0.3480
              Bcc     0.0018     0.925     0.330     0.309  0.9923  0.1143 -0.0487
 
              Baa    -0.0138    -6.907    -2.465    -2.304 -0.1249  0.9920 -0.0162
    11 F(19)  Bbb    -0.0129    -6.501    -2.320    -2.169  0.0267  0.0197  0.9994
              Bcc     0.0267    13.409     4.785     4.473  0.9918  0.1244 -0.0290
 
              Baa    -0.0500    -6.711    -2.395    -2.239  0.4807  0.7903  0.3799
    12 C(13)  Bbb    -0.0388    -5.209    -1.859    -1.738  0.0438 -0.4543  0.8898
              Bcc     0.0888    11.920     4.253     3.976  0.8758 -0.4111 -0.2530
 
              Baa    -0.0216     1.562     0.557     0.521  0.8527 -0.1723 -0.4931
    13 O(17)  Bbb    -0.0160     1.155     0.412     0.385  0.1312  0.9844 -0.1171
              Bcc     0.0375    -2.717    -0.969    -0.906  0.5056  0.0351  0.8620
 
              Baa    -0.0111    -5.934    -2.118    -1.980  0.0160  0.3700  0.9289
    14 H(1)   Bbb    -0.0073    -3.884    -1.386    -1.295  0.8469  0.4888 -0.2092
              Bcc     0.0184     9.818     3.503     3.275 -0.5314  0.7901 -0.3056
 

 ---------------------------------------------------------------------------------

 Calling FoFJK, ICntrl=    100127 FMM=F ISym2X=0 I1Cent= 0 IOpClX= 1 NMat=1 NMatS=1 NMatT=0.
 Full mass-weighted force constant matrix:
 Low frequencies ---   -8.4254   -5.2488    0.0005    0.0005    0.0006    4.5736
 Low frequencies ---   22.5318   63.2776   78.5173
 Diagonal vibrational polarizability:
       20.0544710      22.9785474      33.0988919
 Harmonic frequencies (cm**-1), IR intensities (KM/Mole), Raman scattering
 activities (A**4/AMU), depolarization ratios for plane and unpolarized
 incident light, reduced masses (AMU), force constants (mDyne/A),
 and normal coordinates:
                      1                      2                      3
                      A                      A                      A
 Frequencies --     22.4626                63.2711                78.5150
 Red. masses --     16.6330                17.3844                17.5481
 Frc consts  --      0.0049                 0.0410                 0.0637
 IR Inten    --      0.0662                 0.1383                 0.0176
  Atom  AN      X      Y      Z        X      Y      Z        X      Y      Z
     1   9     0.01  -0.19  -0.31     0.16   0.27   0.24     0.36   0.39   0.04
     2   6    -0.01   0.02  -0.04     0.01   0.03   0.03     0.00   0.06  -0.16
     3   9    -0.05   0.35  -0.11    -0.06  -0.23   0.06    -0.34  -0.31  -0.20
     4   6     0.00  -0.04   0.10    -0.00  -0.01  -0.14    -0.02  -0.02   0.07
     5   9    -0.11   0.02   0.17     0.05  -0.18  -0.32    -0.11   0.04   0.15
     6   9     0.11  -0.13   0.16    -0.06   0.21  -0.24     0.03  -0.13   0.13
     7   9     0.09  -0.18   0.17    -0.05  -0.21   0.07     0.14  -0.17   0.12
     8   6     0.01   0.02  -0.08    -0.00   0.02   0.00     0.00   0.03  -0.08
     9   9     0.09  -0.24  -0.29    -0.13  -0.22  -0.14     0.16   0.14  -0.03
    10   9    -0.00   0.31  -0.26     0.17   0.29  -0.12    -0.12  -0.09  -0.04
    11   9    -0.03   0.04   0.16    -0.04   0.03   0.38    -0.03   0.06  -0.31
    12   6    -0.01  -0.04   0.13    -0.02  -0.04   0.03     0.00  -0.03   0.07
    13   8    -0.11   0.04   0.26    -0.04   0.04   0.15    -0.11   0.06   0.22
    14   1    -0.13   0.07   0.28    -0.07   0.08   0.25    -0.09   0.05   0.20
                      4                      5                      6
                      A                      A                      A
 Frequencies --    123.4915               176.5153               212.3651
 Red. masses --     16.4037                15.4223                12.7986
 Frc consts  --      0.1474                 0.2831                 0.3401
 IR Inten    --      0.2885                 0.4125                 2.4110
  Atom  AN      X      Y      Z        X      Y      Z        X      Y      Z
     1   9     0.28   0.21   0.04    -0.33  -0.00   0.01    -0.28   0.10   0.09
     2   6     0.05   0.10   0.04    -0.14   0.09   0.02     0.00   0.05  -0.12
     3   9     0.30   0.33   0.07    -0.33  -0.04  -0.02     0.29  -0.10   0.00
     4   6    -0.07  -0.19  -0.03     0.10  -0.13  -0.03    -0.00   0.03  -0.13
     5   9    -0.17  -0.17   0.01     0.18  -0.12  -0.04    -0.07   0.23   0.09
     6   9    -0.14  -0.28  -0.00     0.20  -0.14  -0.01     0.06  -0.23  -0.00
     7   9    -0.14  -0.14  -0.09    -0.23   0.07  -0.01     0.15  -0.27  -0.05
     8   6    -0.01   0.05   0.02     0.19  -0.03  -0.01    -0.00   0.01  -0.08
     9   9     0.09   0.16   0.08     0.33   0.07   0.03    -0.26   0.05   0.02
    10   9     0.17   0.04   0.07     0.41  -0.01   0.04     0.22  -0.07   0.02
    11   9    -0.24   0.22  -0.00    -0.04   0.15  -0.00     0.03  -0.02  -0.00
    12   6    -0.05  -0.19  -0.08    -0.12   0.06   0.01    -0.00   0.05  -0.14
    13   8    -0.11  -0.25  -0.15    -0.24   0.02   0.00    -0.14   0.23   0.15
    14   1    -0.17  -0.18  -0.16    -0.35   0.14   0.07    -0.24   0.34   0.37
                      7                      8                      9
                      A                      A                      A
 Frequencies --    235.7879               241.2627               292.0389
 Red. masses --     17.0714                12.1617                14.3112
 Frc consts  --      0.5592                 0.4171                 0.7191
 IR Inten    --      0.4502                 1.5027                 2.9203
  Atom  AN      X      Y      Z        X      Y      Z        X      Y      Z
     1   9     0.20  -0.07  -0.04    -0.16   0.05   0.05    -0.05  -0.01   0.01
     2   6     0.01  -0.04   0.08    -0.01   0.02  -0.08     0.02   0.03   0.01
     3   9    -0.20   0.03   0.01     0.18  -0.05  -0.00    -0.04   0.00   0.00
     4   6     0.00   0.03  -0.07    -0.01  -0.05   0.12     0.05   0.03   0.03
     5   9    -0.45   0.01  -0.02    -0.13  -0.23  -0.07    -0.20  -0.03  -0.00
     6   9     0.47   0.05   0.01     0.14   0.21   0.02    -0.18   0.01  -0.01
     7   9    -0.04   0.18   0.05     0.45   0.18   0.02    -0.09  -0.10  -0.00
     8   6    -0.01   0.01  -0.13    -0.02  -0.02   0.02     0.19   0.18   0.03
     9   9    -0.42   0.06   0.02     0.08  -0.03  -0.01     0.02   0.15   0.06
    10   9     0.33  -0.08   0.02    -0.07  -0.00   0.00    -0.03   0.18  -0.03
    11   9     0.03  -0.03   0.01    -0.10   0.04  -0.04     0.65  -0.15  -0.01
    12   6     0.01  -0.02   0.12    -0.01  -0.01   0.04     0.01  -0.08   0.00
    13   8     0.07  -0.14  -0.07    -0.38  -0.15  -0.02    -0.25  -0.20  -0.07
    14   1     0.11  -0.17  -0.21    -0.48  -0.03  -0.33    -0.45   0.03  -0.11
                     10                     11                     12
                      A                      A                      A
 Frequencies --    320.9070               331.4627               350.3068
 Red. masses --      1.5298                15.1481                 7.2511
 Frc consts  --      0.0928                 0.9806                 0.5243
 IR Inten    --     72.7156                 0.9395                 8.3099
  Atom  AN      X      Y      Z        X      Y      Z        X      Y      Z
     1   9     0.07  -0.06  -0.02     0.09  -0.07  -0.10     0.01  -0.04   0.08
     2   6     0.04  -0.02   0.03     0.04  -0.06  -0.07    -0.02  -0.02   0.12
     3   9     0.01  -0.03   0.03     0.16  -0.17  -0.03    -0.15   0.10   0.07
     4   6     0.00  -0.01  -0.01     0.09   0.03   0.03     0.03  -0.01  -0.00
     5   9     0.04   0.01  -0.00     0.29   0.08   0.05     0.31   0.03  -0.00
     6   9    -0.04  -0.02  -0.01     0.45   0.11   0.06    -0.11  -0.08  -0.00
     7   9     0.00   0.09  -0.01    -0.29  -0.22  -0.03     0.19  -0.02   0.09
     8   6    -0.00   0.00  -0.02    -0.07   0.09   0.05    -0.03   0.04  -0.08
     9   9    -0.04   0.01  -0.01    -0.13   0.15   0.10    -0.25   0.07  -0.02
    10   9     0.02   0.00  -0.01    -0.28   0.14  -0.01     0.08   0.07  -0.08
    11   9    -0.01   0.01  -0.02    -0.06   0.09   0.05    -0.01   0.03  -0.15
    12   6     0.01  -0.00   0.01    -0.05  -0.06  -0.04     0.02  -0.03   0.06
    13   8    -0.05  -0.02   0.01    -0.25  -0.14  -0.07    -0.09  -0.14  -0.02
    14   1    -0.47   0.45   0.74    -0.35  -0.03  -0.24     0.13  -0.37  -0.70
                     13                     14                     15
                      A                      A                      A
 Frequencies --    373.0702               397.0603               457.9115
 Red. masses --     11.1564                 4.8142                11.3313
 Frc consts  --      0.9149                 0.4472                 1.3999
 IR Inten    --      3.3051                23.0865                 7.8656
  Atom  AN      X      Y      Z        X      Y      Z        X      Y      Z
     1   9     0.14  -0.08  -0.06     0.08  -0.05  -0.10     0.16  -0.15   0.05
     2   6    -0.03  -0.09   0.01     0.06   0.00  -0.02     0.03  -0.04   0.18
     3   9     0.10  -0.08   0.04     0.13  -0.12   0.01    -0.14   0.04   0.16
     4   6    -0.06   0.10   0.04    -0.00  -0.03   0.01     0.01   0.05  -0.24
     5   9    -0.01   0.28   0.21     0.00  -0.11  -0.07    -0.07   0.23  -0.13
     6   9    -0.17   0.34  -0.08    -0.06  -0.11   0.04     0.07  -0.19  -0.19
     7   9    -0.10  -0.06   0.03    -0.11   0.18   0.02     0.15   0.00  -0.07
     8   6     0.04  -0.06  -0.04     0.00   0.01  -0.01     0.01   0.02  -0.03
     9   9     0.12  -0.15  -0.11    -0.05   0.02   0.01     0.18   0.09  -0.03
    10   9     0.27  -0.13   0.04     0.03   0.03  -0.02    -0.19  -0.15   0.02
    11   9    -0.05  -0.00  -0.08     0.03  -0.01  -0.03    -0.00   0.02   0.28
    12   6    -0.09  -0.02   0.02    -0.02   0.07   0.04     0.00   0.05  -0.07
    13   8    -0.23  -0.08   0.00    -0.11   0.17   0.20    -0.23   0.08   0.04
    14   1    -0.06  -0.25  -0.59     0.36  -0.36  -0.71    -0.07  -0.09  -0.60
                     16                     17                     18
                      A                      A                      A
 Frequencies --    510.1960               551.7690               556.2349
 Red. masses --     11.9090                16.7123                14.2450
 Frc consts  --      1.8264                 2.9978                 2.5967
 IR Inten    --     27.3665                 1.3316                 1.6477
  Atom  AN      X      Y      Z        X      Y      Z        X      Y      Z
     1   9    -0.12  -0.01  -0.12     0.16  -0.12   0.15     0.05  -0.09  -0.14
     2   6     0.43   0.38   0.09    -0.16  -0.23   0.06     0.24   0.31   0.21
     3   9    -0.05  -0.11   0.02    -0.09   0.10   0.07    -0.12  -0.09   0.24
     4   6     0.18   0.06   0.01    -0.04   0.11   0.08     0.03  -0.07   0.01
     5   9    -0.05  -0.02  -0.06    -0.01  -0.10  -0.14    -0.10  -0.05   0.09
     6   9    -0.08  -0.05   0.04     0.08  -0.00   0.23     0.00   0.06  -0.05
     7   9    -0.07  -0.08   0.14     0.05  -0.14  -0.30     0.07  -0.17  -0.11
     8   6     0.07   0.12   0.02     0.02   0.15   0.19    -0.04  -0.19   0.10
     9   9    -0.10  -0.17  -0.19    -0.06  -0.33  -0.12     0.05  -0.04   0.32
    10   9    -0.08  -0.16   0.18    -0.00   0.10   0.35     0.06   0.27  -0.15
    11   9    -0.02   0.24  -0.01     0.13   0.19  -0.26    -0.16  -0.22  -0.17
    12   6     0.26   0.12   0.08    -0.07   0.04  -0.22     0.06   0.17  -0.13
    13   8    -0.01  -0.10  -0.12    -0.11   0.28  -0.05    -0.04   0.21  -0.18
    14   1    -0.25   0.18  -0.33    -0.00   0.16  -0.05    -0.09   0.26  -0.24
                     19                     20                     21
                      A                      A                      A
 Frequencies --    578.4413               613.5714               642.0763
 Red. masses --     15.3889                17.3260                11.4099
 Frc consts  --      3.0337                 3.8431                 2.7714
 IR Inten    --     33.0676                 0.5428                11.2770
  Atom  AN      X      Y      Z        X      Y      Z        X      Y      Z
     1   9    -0.07  -0.08   0.31    -0.05   0.07  -0.03    -0.03   0.12  -0.29
     2   6     0.37  -0.04  -0.01    -0.08  -0.05  -0.08    -0.24   0.15   0.06
     3   9    -0.10   0.14  -0.27     0.08  -0.02  -0.08    -0.01  -0.09   0.30
     4   6     0.18  -0.17  -0.04    -0.02   0.07  -0.22     0.01  -0.21  -0.05
     5   9    -0.05  -0.01   0.27    -0.06   0.32  -0.20     0.03  -0.07   0.24
     6   9     0.01   0.09  -0.26     0.09  -0.22  -0.24     0.06   0.01  -0.27
     7   9    -0.09   0.10  -0.30    -0.01   0.13   0.28     0.09   0.05  -0.13
     8   6     0.08  -0.02   0.06    -0.02  -0.04   0.24     0.06   0.08   0.03
     9   9    -0.07  -0.09   0.10     0.10  -0.32   0.23    -0.07  -0.06  -0.07
    10   9    -0.08   0.06  -0.02    -0.04   0.31   0.22    -0.09  -0.00   0.11
    11   9    -0.06   0.08  -0.07    -0.04  -0.04  -0.27     0.12   0.17  -0.02
    12   6     0.26  -0.17  -0.07    -0.02  -0.04   0.15    -0.15  -0.17  -0.04
    13   8    -0.07  -0.03   0.34     0.03  -0.22   0.05     0.10  -0.04   0.13
    14   1     0.07  -0.18  -0.14    -0.04  -0.15   0.01     0.35  -0.34   0.32
                     22                     23                     24
                      A                      A                      A
 Frequencies --    714.1389               764.7921               914.5426
 Red. masses --     12.7856                16.9858                 7.2862
 Frc consts  --      3.8418                 5.8536                 3.5905
 IR Inten    --      2.2590                21.7994                94.2218
  Atom  AN      X      Y      Z        X      Y      Z        X      Y      Z
     1   9     0.09  -0.07   0.11     0.01  -0.07   0.08    -0.02   0.10  -0.08
     2   6    -0.16  -0.21  -0.07     0.18   0.07   0.03    -0.25  -0.22  -0.09
     3   9     0.06   0.03  -0.10     0.00   0.00  -0.10    -0.01   0.02   0.13
     4   6     0.12  -0.15  -0.02    -0.17  -0.15  -0.03     0.31   0.09   0.03
     5   9    -0.04  -0.16   0.23     0.07  -0.12   0.18    -0.04  -0.04   0.02
     6   9    -0.01  -0.04  -0.27     0.08  -0.04  -0.20    -0.04  -0.02  -0.03
     7   9    -0.00  -0.02   0.33     0.01   0.01   0.12    -0.05  -0.02  -0.06
     8   6     0.16  -0.02   0.00    -0.37   0.13   0.01     0.05   0.01   0.00
     9   9    -0.08  -0.07   0.08     0.06   0.23  -0.40    -0.01   0.06  -0.07
    10   9    -0.08  -0.05  -0.08     0.06   0.19   0.44    -0.01   0.04   0.07
    11   9     0.07   0.20   0.01    -0.02  -0.36  -0.02    -0.12  -0.13  -0.00
    12   6    -0.04   0.27   0.02    -0.05   0.06  -0.01     0.41   0.11   0.05
    13   8    -0.04   0.27  -0.32    -0.01   0.10  -0.11    -0.00  -0.04   0.06
    14   1    -0.15   0.40  -0.22     0.01   0.08  -0.06    -0.40   0.42  -0.40
                     25                     26                     27
                      A                      A                      A
 Frequencies --   1088.2984              1101.9097              1196.0583
 Red. masses --      5.1466                13.3144                 8.9183
 Frc consts  --      3.5914                 9.5250                 7.5168
 IR Inten    --    133.0744               100.3141               105.6894
  Atom  AN      X      Y      Z        X      Y      Z        X      Y      Z
     1   9     0.01  -0.03   0.02     0.04  -0.08   0.06    -0.00  -0.01   0.01
     2   6    -0.01   0.05   0.02    -0.11   0.16   0.04     0.07  -0.01  -0.14
     3   9     0.00  -0.00  -0.02     0.08  -0.03  -0.14    -0.02   0.01   0.07
     4   6     0.37  -0.09   0.02     0.16   0.08   0.00     0.02   0.13   0.68
     5   9    -0.05   0.06  -0.06    -0.01  -0.01   0.01    -0.01   0.06  -0.10
     6   9    -0.05   0.04   0.06    -0.03  -0.05  -0.06     0.04  -0.12  -0.25
     7   9     0.01   0.03   0.07     0.06  -0.12  -0.33    -0.02  -0.02  -0.03
     8   6     0.24  -0.01   0.01     0.10  -0.11  -0.11    -0.08   0.15  -0.06
     9   9    -0.04   0.05  -0.07    -0.01   0.02  -0.01     0.01  -0.03   0.03
    10   9    -0.04   0.04   0.06    -0.03   0.05   0.07     0.04  -0.04  -0.05
    11   9    -0.11  -0.09  -0.00    -0.02  -0.01   0.01    -0.02  -0.03   0.00
    12   6    -0.18  -0.11  -0.12    -0.31   0.34   0.70    -0.00  -0.05   0.03
    13   8    -0.04   0.05  -0.05     0.05  -0.08  -0.02    -0.05   0.05  -0.06
    14   1     0.43  -0.50   0.49    -0.01  -0.02   0.01     0.30  -0.35   0.37
                     28                     29                     30
                      A                      A                      A
 Frequencies --   1213.7589              1217.1372              1240.8557
 Red. masses --      9.0378                11.7511                 5.9858
 Frc consts  --      7.8447                10.2567                 5.4302
 IR Inten    --    193.7465                23.0068               229.7111
  Atom  AN      X      Y      Z        X      Y      Z        X      Y      Z
     1   9     0.01  -0.01  -0.00    -0.05   0.07  -0.05     0.03  -0.06   0.04
     2   6    -0.00   0.02   0.09     0.11  -0.13  -0.05    -0.13   0.13   0.06
     3   9     0.01  -0.01  -0.05    -0.01   0.02   0.05     0.03  -0.02  -0.07
     4   6     0.15   0.55  -0.18    -0.07  -0.08  -0.23    -0.12  -0.23   0.08
     5   9     0.01  -0.20   0.15     0.04  -0.00   0.03     0.00   0.05  -0.04
     6   9     0.01  -0.07  -0.05    -0.01   0.03   0.07     0.02   0.01  -0.01
     7   9     0.01  -0.00   0.02    -0.00   0.01  -0.04     0.01  -0.01  -0.01
     8   6    -0.09   0.29   0.20     0.08   0.50  -0.19     0.19   0.38   0.17
     9   9     0.03  -0.05   0.03     0.04  -0.12   0.13    -0.02  -0.03  -0.01
    10   9     0.04  -0.08  -0.12    -0.00  -0.04  -0.01     0.01  -0.07  -0.08
    11   9    -0.06  -0.07  -0.01    -0.08  -0.12   0.01    -0.08  -0.11  -0.01
    12   6    -0.15   0.07  -0.13     0.12  -0.35   0.42    -0.04   0.14  -0.08
    13   8    -0.02  -0.09   0.04    -0.10   0.24  -0.20     0.09  -0.07   0.09
    14   1     0.23  -0.39   0.37     0.25  -0.15   0.16    -0.39   0.47  -0.46
                     31                     32                     33
                      A                      A                      A
 Frequencies --   1252.8184              1300.4397              1328.7801
 Red. masses --     12.1348                13.1524                12.6696
 Frc consts  --     11.2217                13.1050                13.1801
 IR Inten    --    343.1051               397.1649               144.7373
  Atom  AN      X      Y      Z        X      Y      Z        X      Y      Z
     1   9    -0.02   0.01  -0.00    -0.08   0.21  -0.19    -0.06   0.12  -0.08
     2   6     0.06  -0.04  -0.13    -0.01  -0.28   0.82     0.35  -0.31  -0.07
     3   9    -0.01   0.01   0.06     0.07  -0.05  -0.28    -0.05   0.04   0.11
     4   6    -0.01  -0.09  -0.05     0.01  -0.03   0.18    -0.40   0.21   0.02
     5   9    -0.02   0.07  -0.04    -0.01   0.04  -0.04     0.03  -0.06   0.04
     6   9     0.02  -0.01  -0.01     0.01  -0.02  -0.05     0.03  -0.04  -0.05
     7   9     0.00  -0.01  -0.05     0.02  -0.01  -0.04     0.00  -0.01  -0.01
     8   6    -0.05  -0.13   0.79    -0.02  -0.05   0.06     0.64  -0.12   0.02
     9   9    -0.05   0.13  -0.21    -0.01   0.02  -0.02    -0.07   0.06  -0.07
    10   9     0.05  -0.08  -0.20     0.01  -0.01  -0.02    -0.07   0.05   0.07
    11   9     0.03   0.03  -0.05     0.01   0.01  -0.00    -0.11  -0.07  -0.00
    12   6     0.06  -0.12   0.29     0.04  -0.08   0.03    -0.15   0.14  -0.01
    13   8    -0.06   0.11  -0.10    -0.03   0.08  -0.05     0.01  -0.05   0.03
    14   1     0.17  -0.15   0.16    -0.06   0.11   0.01    -0.04   0.00  -0.01
                     34                     35                     36
                      A                      A                      A
 Frequencies --   1386.1504              1416.4791              3878.6469
 Red. masses --      4.0877                 2.8980                 1.0660
 Frc consts  --      4.6275                 3.4258                 9.4487
 IR Inten    --      7.2344                19.4379                86.9602
  Atom  AN      X      Y      Z        X      Y      Z        X      Y      Z
     1   9    -0.02   0.06  -0.04     0.02  -0.05   0.03    -0.00   0.00   0.00
     2   6     0.12  -0.19  -0.02    -0.15   0.13   0.05     0.00   0.00  -0.00
     3   9    -0.02   0.02   0.05     0.02  -0.02  -0.05    -0.00   0.00   0.00
     4   6     0.04  -0.21  -0.04    -0.16   0.02  -0.01     0.00   0.00   0.00
     5   9    -0.01   0.03  -0.02     0.01  -0.01   0.01     0.00   0.00  -0.00
     6   9    -0.01   0.03   0.04     0.01  -0.00  -0.01     0.00   0.00   0.00
     7   9     0.00  -0.02  -0.02    -0.01  -0.01  -0.00    -0.00   0.00  -0.00
     8   6    -0.13   0.11  -0.00     0.11  -0.04  -0.01    -0.00   0.00  -0.00
     9   9     0.02  -0.03   0.02    -0.01   0.01  -0.01     0.00  -0.00   0.00
    10   9     0.01  -0.02  -0.02    -0.01   0.01   0.01     0.00   0.00   0.00
    11   9     0.03   0.01   0.00    -0.01  -0.01   0.00     0.00   0.00   0.00
    12   6    -0.00   0.33  -0.02     0.24   0.06  -0.01    -0.00  -0.00  -0.00
    13   8    -0.04  -0.09   0.02    -0.08  -0.01  -0.03    -0.05  -0.04   0.00
    14   1     0.37  -0.56   0.53     0.43  -0.58   0.56     0.75   0.66   0.01

 -------------------
 - Thermochemistry -
 -------------------
 Temperature   298.150 Kelvin.  Pressure   1.00000 Atm.
 Atom     1 has atomic number  9 and mass  18.99840
 Atom     2 has atomic number  6 and mass  12.00000
 Atom     3 has atomic number  9 and mass  18.99840
 Atom     4 has atomic number  6 and mass  12.00000
 Atom     5 has atomic number  9 and mass  18.99840
 Atom     6 has atomic number  9 and mass  18.99840
 Atom     7 has atomic number  9 and mass  18.99840
 Atom     8 has atomic number  6 and mass  12.00000
 Atom     9 has atomic number  9 and mass  18.99840
 Atom    10 has atomic number  9 and mass  18.99840
 Atom    11 has atomic number  9 and mass  18.99840
 Atom    12 has atomic number  6 and mass  12.00000
 Atom    13 has atomic number  8 and mass  15.99491
 Atom    14 has atomic number  1 and mass   1.00783
 Molecular mass:   216.98997 amu.
 Principal axes and moments of inertia in atomic units:
                           1         2         3
     Eigenvalues --  1322.048113001.740053029.14350
           X            0.99995   0.00843  -0.00478
           Y           -0.00952   0.94702  -0.32105
           Z            0.00182   0.32108   0.94705
 This molecule is an asymmetric top.
 Rotational symmetry number  1.
 Warning -- assumption of classical behavior for rotation
           may cause significant error
 Rotational temperatures (Kelvin)      0.06551     0.02885     0.02859
 Rotational constants (GHZ):           1.36511     0.60123     0.59579
 Zero-point vibrational energy     162354.3 (Joules/Mol)
                                   38.80362 (Kcal/Mol)
 Warning -- explicit consideration of  20 degrees of freedom as
           vibrations may cause significant error
 Vibrational temperatures:     32.32    91.03   112.97   177.68   253.97
          (Kelvin)            305.55   339.25   347.12   420.18   461.71
                              476.90   504.01   536.76   571.28   658.83
                              734.06   793.87   800.30   832.25   882.79
                              923.80  1027.49  1100.37  1315.82  1565.82
                             1585.40  1720.86  1746.33  1751.19  1785.31
                             1802.53  1871.04  1911.82  1994.36  2038.00
                             5580.51
 
 Zero-point correction=                           0.061837 (Hartree/Particle)
 Thermal correction to Energy=                    0.073923
 Thermal correction to Enthalpy=                  0.074867
 Thermal correction to Gibbs Free Energy=         0.021616
 Sum of electronic and zero-point Energies=          -1026.908618
 Sum of electronic and thermal Energies=             -1026.896533
 Sum of electronic and thermal Enthalpies=           -1026.895589
 Sum of electronic and thermal Free Energies=        -1026.948840
 
                     E (Thermal)             CV                S
                      KCal/Mol        Cal/Mol-Kelvin    Cal/Mol-Kelvin
 Total                   46.387             42.444            112.077
 Electronic               0.000              0.000              1.377
 Translational            0.889              2.981             42.027
 Rotational               0.889              2.981             30.864
 Vibrational             44.610             36.483             37.808
 Vibration     1          0.593              1.985              6.404
 Vibration     2          0.597              1.972              4.352
 Vibration     3          0.600              1.964              3.928
 Vibration     4          0.610              1.929              3.045
 Vibration     5          0.628              1.871              2.365
 Vibration     6          0.643              1.822              2.023
 Vibration     7          0.655              1.786              1.834
 Vibration     8          0.658              1.777              1.794
 Vibration     9          0.687              1.689              1.462
 Vibration    10          0.706              1.634              1.305
 Vibration    11          0.714              1.613              1.253
 Vibration    12          0.727              1.575              1.165
 Vibration    13          0.744              1.527              1.067
 Vibration    14          0.764              1.476              0.974
 Vibration    15          0.816              1.343              0.772
 Vibration    16          0.865              1.227              0.633
 Vibration    17          0.907              1.136              0.541
 Vibration    18          0.912              1.126              0.531
 Vibration    19          0.935              1.078              0.488
 Vibration    20          0.973              1.003              0.427
                       Q            Log10(Q)             Ln(Q)
 Total Bot       0.114157D-09         -9.942496        -22.893443
 Total V=0       0.316777D+19         18.500753         42.599559
 Vib (Bot)       0.366054D-24        -24.436455        -56.267017
 Vib (Bot)    1  0.922082D+01          0.964769          2.221464
 Vib (Bot)    2  0.326250D+01          0.513550          1.182493
 Vib (Bot)    3  0.262358D+01          0.418894          0.964539
 Vib (Bot)    4  0.165347D+01          0.218397          0.502878
 Vib (Bot)    5  0.113922D+01          0.056608          0.130344
 Vib (Bot)    6  0.934366D+00         -0.029483         -0.067887
 Vib (Bot)    7  0.833182D+00         -0.079260         -0.182504
 Vib (Bot)    8  0.812258D+00         -0.090306         -0.207938
 Vib (Bot)    9  0.654091D+00         -0.184362         -0.424509
 Vib (Bot)   10  0.585466D+00         -0.232498         -0.535347
 Vib (Bot)   11  0.563194D+00         -0.249342         -0.574132
 Vib (Bot)   12  0.526574D+00         -0.278540         -0.641363
 Vib (Bot)   13  0.486976D+00         -0.312492         -0.719540
 Vib (Bot)   14  0.449853D+00         -0.346929         -0.798834
 Vib (Bot)   15  0.372083D+00         -0.429360         -0.988637
 Vib (Bot)   16  0.319210D+00         -0.495923         -1.141906
 Vib (Bot)   17  0.283933D+00         -0.546784         -1.259016
 Vib (Bot)   18  0.280442D+00         -0.552157         -1.271389
 Vib (Bot)   19  0.263846D+00         -0.578649         -1.332388
 Vib (Bot)   20  0.239958D+00         -0.619864         -1.427289
 Vib (V=0)       0.101577D+05          4.006794          9.225985
 Vib (V=0)    1  0.973436D+01          0.988308          2.275662
 Vib (V=0)    2  0.380059D+01          0.579851          1.335156
 Vib (V=0)    3  0.317080D+01          0.501169          1.153983
 Vib (V=0)    4  0.222742D+01          0.347802          0.800843
 Vib (V=0)    5  0.174412D+01          0.241575          0.556248
 Vib (V=0)    6  0.155974D+01          0.193051          0.444517
 Vib (V=0)    7  0.147170D+01          0.167818          0.386415
 Vib (V=0)    8  0.145381D+01          0.162509          0.374191
 Vib (V=0)    9  0.132331D+01          0.121661          0.280134
 Vib (V=0)   10  0.126992D+01          0.103775          0.238951
 Vib (V=0)   11  0.125312D+01          0.097992          0.225635
 Vib (V=0)   12  0.122614D+01          0.088540          0.203872
 Vib (V=0)   13  0.119796D+01          0.078442          0.180619
 Vib (V=0)   14  0.117258D+01          0.069144          0.159209
 Vib (V=0)   15  0.112325D+01          0.050478          0.116230
 Vib (V=0)   16  0.109321D+01          0.038703          0.089116
 Vib (V=0)   17  0.107499D+01          0.031406          0.072315
 Vib (V=0)   18  0.107328D+01          0.030712          0.070717
 Vib (V=0)   19  0.106534D+01          0.027490          0.063299
 Vib (V=0)   20  0.105460D+01          0.023087          0.053161
 Electronic      0.200000D+01          0.301030          0.693147
 Translational   0.125636D+09          8.099113         18.648898
 Rotational      0.124113D+07          6.093816         14.031529
 ***** Axes restored to original set *****
 -------------------------------------------------------------------
 Center     Atomic                   Forces (Hartrees/Bohr)
 Number     Number              X              Y              Z
 -------------------------------------------------------------------
      1        9           0.000005131    0.000003147   -0.000024801
      2        6          -0.000025641   -0.000003094    0.000020845
      3        9           0.000000439    0.000006999    0.000005407
      4        6           0.000001396   -0.000004990    0.000008550
      5        9          -0.000005099   -0.000005093   -0.000013569
      6        9           0.000000925   -0.000007959   -0.000000466
      7        9           0.000002265   -0.000024646    0.000023857
      8        6          -0.000011121   -0.000007894    0.000000740
      9        9          -0.000004241    0.000001122    0.000001149
     10        9           0.000007664    0.000002897    0.000004859
     11        9           0.000005482   -0.000009447    0.000001965
     12        6           0.000016574    0.000052062   -0.000023725
     13        8           0.000013404   -0.000002421   -0.000004728
     14        1          -0.000007178   -0.000000682   -0.000000084
 -------------------------------------------------------------------
 Cartesian Forces:  Max     0.000052062 RMS     0.000013489
 FormGI is forming the generalized inverse of G from B-inverse, IUseBI=4.

 GradGradGradGradGradGradGradGradGradGradGradGradGradGradGradGradGradGrad
 Berny optimization.
 Internal  Forces:  Max     0.000035123 RMS     0.000008092
 Search for a local minimum.
 Step number   1 out of a maximum of    2
 All quantities printed in internal units (Hartrees-Bohrs-Radians)
 Second derivative matrix not updated -- analytic derivatives used.
 ITU=  0
     Eigenvalues ---    0.00101   0.00345   0.00410   0.00559   0.05035
     Eigenvalues ---    0.05287   0.06232   0.08736   0.08892   0.10394
     Eigenvalues ---    0.10757   0.11975   0.14970   0.15118   0.16798
     Eigenvalues ---    0.18272   0.19799   0.20617   0.22731   0.23316
     Eigenvalues ---    0.24417   0.24710   0.25122   0.29881   0.30546
     Eigenvalues ---    0.34666   0.36249   0.37723   0.38937   0.39960
     Eigenvalues ---    0.40195   0.46740   0.49082   0.51852   0.54297
     Eigenvalues ---    0.56131
 Angle between quadratic step and forces=  79.14 degrees.
 Linear search not attempted -- first point.
 Iteration  1 RMS(Cart)=  0.00039057 RMS(Int)=  0.00000006
 Iteration  2 RMS(Cart)=  0.00000007 RMS(Int)=  0.00000000
 Variable       Old X    -DE/DX   Delta X   Delta X   Delta X     New X
                                 (Linear)    (Quad)   (Total)
    R1        2.47901  -0.00002   0.00000  -0.00006  -0.00006   2.47895
    R2        2.48776  -0.00000   0.00000   0.00001   0.00001   2.48777
    R3        2.87483   0.00002   0.00000   0.00008   0.00008   2.87491
    R4        2.53354  -0.00001   0.00000  -0.00003  -0.00003   2.53352
    R5        2.53890  -0.00001   0.00000  -0.00001  -0.00001   2.53889
    R6        2.94049  -0.00000   0.00000  -0.00001  -0.00001   2.94048
    R7        2.94219  -0.00002   0.00000  -0.00011  -0.00011   2.94208
    R8        2.58902   0.00004   0.00000   0.00014   0.00014   2.58916
    R9        2.50255  -0.00000   0.00000   0.00000   0.00000   2.50255
   R10        2.50732  -0.00000   0.00000  -0.00002  -0.00002   2.50730
   R11        2.51350  -0.00000   0.00000   0.00001   0.00001   2.51351
   R12        2.56656   0.00001   0.00000  -0.00001  -0.00001   2.56656
   R13        1.81528   0.00001   0.00000   0.00001   0.00001   1.81529
    A1        1.95070  -0.00001   0.00000  -0.00005  -0.00005   1.95066
    A2        2.04006   0.00000   0.00000   0.00001   0.00001   2.04007
    A3        2.02610   0.00000   0.00000  -0.00003  -0.00003   2.02607
    A4        1.89410   0.00000   0.00000   0.00001   0.00001   1.89412
    A5        1.87795   0.00001   0.00000   0.00005   0.00005   1.87800
    A6        1.89077  -0.00000   0.00000  -0.00001  -0.00001   1.89076
    A7        1.87516   0.00000   0.00000  -0.00003  -0.00003   1.87513
    A8        1.89996  -0.00000   0.00000  -0.00004  -0.00004   1.89992
    A9        2.02258  -0.00000   0.00000   0.00002   0.00002   2.02260
   A10        1.93983  -0.00001   0.00000  -0.00007  -0.00007   1.93977
   A11        1.93483   0.00001   0.00000   0.00009   0.00009   1.93492
   A12        1.89521   0.00001   0.00000   0.00001   0.00001   1.89522
   A13        1.90519   0.00000   0.00000   0.00002   0.00002   1.90521
   A14        1.89213  -0.00000   0.00000   0.00000   0.00000   1.89214
   A15        1.89561  -0.00001   0.00000  -0.00005  -0.00005   1.89556
   A16        1.97658   0.00001   0.00000   0.00006   0.00006   1.97664
   A17        1.84199  -0.00000   0.00000  -0.00008  -0.00008   1.84191
   A18        1.94308   0.00000   0.00000   0.00003   0.00003   1.94311
   A19        1.86896  -0.00000   0.00000  -0.00003  -0.00003   1.86893
   A20        1.87989  -0.00000   0.00000   0.00005   0.00005   1.87994
   A21        1.95320  -0.00000   0.00000  -0.00003  -0.00003   1.95317
   A22        1.91937  -0.00001   0.00000  -0.00004  -0.00004   1.91933
    D1       -1.10867   0.00000   0.00000  -0.00023  -0.00023  -1.10889
    D2        0.93037   0.00000   0.00000  -0.00029  -0.00029   0.93009
    D3        3.05313   0.00000   0.00000  -0.00036  -0.00036   3.05277
    D4        1.25332  -0.00000   0.00000  -0.00032  -0.00032   1.25300
    D5       -2.99083  -0.00000   0.00000  -0.00038  -0.00038  -2.99121
    D6       -0.86807  -0.00000   0.00000  -0.00045  -0.00045  -0.86852
    D7       -2.94385  -0.00000   0.00000  -0.00023  -0.00023  -2.94408
    D8        1.21708  -0.00000   0.00000  -0.00027  -0.00027   1.21681
    D9       -0.86402  -0.00000   0.00000  -0.00026  -0.00026  -0.86428
   D10       -0.90742   0.00000   0.00000  -0.00020  -0.00020  -0.90762
   D11       -3.02967   0.00000   0.00000  -0.00024  -0.00024  -3.02991
   D12        1.17241   0.00000   0.00000  -0.00023  -0.00023   1.17218
   D13        1.22085   0.00000   0.00000  -0.00026  -0.00026   1.22059
   D14       -0.90140  -0.00000   0.00000  -0.00030  -0.00030  -0.90170
   D15       -2.98250  -0.00000   0.00000  -0.00029  -0.00029  -2.98280
   D16        1.14060  -0.00001   0.00000  -0.00054  -0.00054   1.14006
   D17       -0.88252  -0.00000   0.00000  -0.00046  -0.00046  -0.88298
   D18       -2.98610  -0.00000   0.00000  -0.00042  -0.00042  -2.98653
   D19       -0.91595  -0.00000   0.00000  -0.00053  -0.00053  -0.91648
   D20       -2.93907  -0.00000   0.00000  -0.00044  -0.00044  -2.93951
   D21        1.24054   0.00000   0.00000  -0.00041  -0.00041   1.24013
   D22       -3.03098  -0.00000   0.00000  -0.00047  -0.00047  -3.03145
   D23        1.22909   0.00000   0.00000  -0.00039  -0.00039   1.22870
   D24       -0.87450   0.00000   0.00000  -0.00036  -0.00036  -0.87485
   D25       -0.78442   0.00000   0.00000   0.00033   0.00033  -0.78410
   D26       -2.96116  -0.00000   0.00000   0.00020   0.00020  -2.96097
   D27        1.27230   0.00000   0.00000   0.00023   0.00023   1.27252
         Item               Value     Threshold  Converged?
 Maximum Force            0.000035     0.000450     YES
 RMS     Force            0.000008     0.000300     YES
 Maximum Displacement     0.001259     0.001800     YES
 RMS     Displacement     0.000391     0.001200     YES
 Predicted change in Energy=-1.107811D-08
 Optimization completed.
    -- Stationary point found.
                           ----------------------------
                           !   Optimized Parameters   !
                           ! (Angstroms and Degrees)  !
 --------------------------                            --------------------------
 ! Name  Definition              Value          Derivative Info.                !
 --------------------------------------------------------------------------------
 ! R1    R(1,2)                  1.3118         -DE/DX =    0.0                 !
 ! R2    R(2,3)                  1.3165         -DE/DX =    0.0                 !
 ! R3    R(2,12)                 1.5213         -DE/DX =    0.0                 !
 ! R4    R(4,5)                  1.3407         -DE/DX =    0.0                 !
 ! R5    R(4,6)                  1.3435         -DE/DX =    0.0                 !
 ! R6    R(4,8)                  1.556          -DE/DX =    0.0                 !
 ! R7    R(4,12)                 1.5569         -DE/DX =    0.0                 !
 ! R8    R(7,12)                 1.3701         -DE/DX =    0.0                 !
 ! R9    R(8,9)                  1.3243         -DE/DX =    0.0                 !
 ! R10   R(8,10)                 1.3268         -DE/DX =    0.0                 !
 ! R11   R(8,11)                 1.3301         -DE/DX =    0.0                 !
 ! R12   R(12,13)                1.3582         -DE/DX =    0.0                 !
 ! R13   R(13,14)                0.9606         -DE/DX =    0.0                 !
 ! A1    A(1,2,3)              111.767          -DE/DX =    0.0                 !
 ! A2    A(1,2,12)             116.8868         -DE/DX =    0.0                 !
 ! A3    A(3,2,12)             116.0869         -DE/DX =    0.0                 !
 ! A4    A(5,4,6)              108.524          -DE/DX =    0.0                 !
 ! A5    A(5,4,8)              107.5987         -DE/DX =    0.0                 !
 ! A6    A(5,4,12)             108.3334         -DE/DX =    0.0                 !
 ! A7    A(6,4,8)              107.4387         -DE/DX =    0.0                 !
 ! A8    A(6,4,12)             108.8599         -DE/DX =    0.0                 !
 ! A9    A(8,4,12)             115.8852         -DE/DX =    0.0                 !
 ! A10   A(4,8,9)              111.1442         -DE/DX =    0.0                 !
 ! A11   A(4,8,10)             110.8577         -DE/DX =    0.0                 !
 ! A12   A(4,8,11)             108.5875         -DE/DX =    0.0                 !
 ! A13   A(9,8,10)             109.1596         -DE/DX =    0.0                 !
 ! A14   A(9,8,11)             108.4113         -DE/DX =    0.0                 !
 ! A15   A(10,8,11)            108.6106         -DE/DX =    0.0                 !
 ! A16   A(2,12,4)             113.2495         -DE/DX =    0.0                 !
 ! A17   A(2,12,7)             105.5383         -DE/DX =    0.0                 !
 ! A18   A(2,12,13)            111.3301         -DE/DX =    0.0                 !
 ! A19   A(4,12,7)             107.0838         -DE/DX =    0.0                 !
 ! A20   A(4,12,13)            107.7098         -DE/DX =    0.0                 !
 ! A21   A(7,12,13)            111.91           -DE/DX =    0.0                 !
 ! A22   A(12,13,14)           109.9717         -DE/DX =    0.0                 !
 ! D1    D(1,2,12,4)           -63.5219         -DE/DX =    0.0                 !
 ! D2    D(1,2,12,7)            53.3064         -DE/DX =    0.0                 !
 ! D3    D(1,2,12,13)          174.9315         -DE/DX =    0.0                 !
 ! D4    D(3,2,12,4)            71.81           -DE/DX =    0.0                 !
 ! D5    D(3,2,12,7)          -171.3618         -DE/DX =    0.0                 !
 ! D6    D(3,2,12,13)          -49.7366         -DE/DX =    0.0                 !
 ! D7    D(5,4,8,9)           -168.6704         -DE/DX =    0.0                 !
 ! D8    D(5,4,8,10)            69.7335         -DE/DX =    0.0                 !
 ! D9    D(5,4,8,11)           -49.5049         -DE/DX =    0.0                 !
 ! D10   D(6,4,8,9)            -51.9911         -DE/DX =    0.0                 !
 ! D11   D(6,4,8,10)          -173.5872         -DE/DX =    0.0                 !
 ! D12   D(6,4,8,11)            67.1744         -DE/DX =    0.0                 !
 ! D13   D(12,4,8,9)            69.9498         -DE/DX =    0.0                 !
 ! D14   D(12,4,8,10)          -51.6464         -DE/DX =    0.0                 !
 ! D15   D(12,4,8,11)         -170.8847         -DE/DX =    0.0                 !
 ! D16   D(5,4,12,2)            65.3513         -DE/DX =    0.0                 !
 ! D17   D(5,4,12,7)           -50.5647         -DE/DX =    0.0                 !
 ! D18   D(5,4,12,13)         -171.0911         -DE/DX =    0.0                 !
 ! D19   D(6,4,12,2)           -52.48           -DE/DX =    0.0                 !
 ! D20   D(6,4,12,7)          -168.3961         -DE/DX =    0.0                 !
 ! D21   D(6,4,12,13)           71.0775         -DE/DX =    0.0                 !
 ! D22   D(8,4,12,2)          -173.6625         -DE/DX =    0.0                 !
 ! D23   D(8,4,12,7)            70.4215         -DE/DX =    0.0                 !
 ! D24   D(8,4,12,13)          -50.1049         -DE/DX =    0.0                 !
 ! D25   D(2,12,13,14)         -44.9441         -DE/DX =    0.0                 !
 ! D26   D(4,12,13,14)        -169.6622         -DE/DX =    0.0                 !
 ! D27   D(7,12,13,14)          72.8972         -DE/DX =    0.0                 !
 --------------------------------------------------------------------------------
 GradGradGradGradGradGradGradGradGradGradGradGradGradGradGradGradGradGrad


 ----------------------------------------------------------------------

 Electric dipole moment (input orientation):
 (Debye = 10**-18 statcoulomb cm , SI units = C m)
                  (au)            (Debye)         (10**-30 SI)
   Tot        0.954520D+00      0.242615D+01      0.809276D+01
   x         -0.605180D+00     -0.153821D+01     -0.513093D+01
   y         -0.517541D+00     -0.131546D+01     -0.438789D+01
   z         -0.526325D+00     -0.133779D+01     -0.446237D+01

 Dipole polarizability, Alpha (input orientation).
 (esu units = cm**3 , SI units = C**2 m**2 J**-1)
 Alpha(0;0):
               (au)            (10**-24 esu)      (10**-40 SI)
   iso        0.579702D+02      0.859030D+01      0.955800D+01
   aniso      0.693908D+01      0.102827D+01      0.114410D+01
   xx         0.620784D+02      0.919907D+01      0.102353D+02
   yx         0.646067D+00      0.957373D-01      0.106522D+00
   yy         0.543936D+02      0.806030D+01      0.896829D+01
   zx         0.373202D+00      0.553029D-01      0.615327D-01
   zy         0.719404D+00      0.106605D+00      0.118614D+00
   zz         0.574387D+02      0.851153D+01      0.947036D+01

 ----------------------------------------------------------------------

 Dipole orientation:
     9         -4.64526993          0.09416444          1.95629005
     6         -2.47511086         -0.43604952          3.03088655
     9         -2.32785245         -2.83342643          3.67884472
     6          0.37056088         -0.26911991         -0.90269379
     9         -1.51588900          0.54444340         -2.38535062
     9          0.35103587         -2.80792379         -0.89261359
     9         -0.57882509          3.23952274          1.67085636
     6          2.90047499          0.58779693         -2.13221060
     9          4.85775231         -0.52364572         -1.03835579
     9          3.17242575          3.07529433         -1.97398568
     9          2.87243553         -0.06326358         -4.55976594
     6         -0.12003196          0.69662820          1.83283949
     8          1.97363041          0.18812813          3.22755896
     1          1.63187518          0.47692510          4.98683256

 Electric dipole moment (dipole orientation):
 (Debye = 10**-18 statcoulomb cm , SI units = C m)
                  (au)            (Debye)         (10**-30 SI)
   Tot        0.954520D+00      0.242615D+01      0.809276D+01
   x          0.000000D+00      0.000000D+00      0.000000D+00
   y          0.000000D+00      0.000000D+00      0.000000D+00
   z          0.954520D+00      0.242615D+01      0.809276D+01

 Dipole polarizability, Alpha (dipole orientation).
 (esu units = cm**3 , SI units = C**2 m**2 J**-1)
 Alpha(0;0):
               (au)            (10**-24 esu)      (10**-40 SI)
   iso        0.579702D+02      0.859030D+01      0.955800D+01
   aniso      0.693908D+01      0.102827D+01      0.114410D+01
   xx         0.594754D+02      0.881335D+01      0.980617D+01
   yx         0.175878D+00      0.260624D-01      0.289983D-01
   yy         0.548914D+02      0.813407D+01      0.905037D+01
   zx        -0.238132D+01     -0.352875D+00     -0.392627D+00
   zy        -0.179950D+01     -0.266658D+00     -0.296697D+00
   zz         0.595438D+02      0.882348D+01      0.981745D+01

 ----------------------------------------------------------------------
 1\1\GINC-PURPLE\Freq\UwB97XD\6-311+G(2d,2p)\C4H1F8O1(2)\RAPPE\03-Sep-2
 025\0\\#N Geom=AllCheck Guess=TCheck SCRF=Check GenChk UwB97XD/6-311+G
 (2d,2p) Freq\\Title Card Required\\0,2\F,-2.4665553041,-0.0569998236,1
 .0147080873\C,-2.038415364,-0.3923773595,-0.1790784676\F,-2.4791811143
 ,0.4326825178,-1.1054069799\C,0.4165873557,0.3309761774,0.0618556168\F
 ,0.269811071,0.6286386959,1.360822411\F,0.1078603216,1.4192704727,-0.6
 629679694\F,-0.4076661463,-1.8009675431,0.6361435924\C,1.9214680415,0.
 0195682501,-0.1823188893\F,2.191530586,-0.047083291,-1.4770677263\F,2.
 266679108,-1.1246091131,0.393983783\F,2.6485933714,0.998610587,0.34862
 22622\C,-0.5803051849,-0.8105883898,-0.2946560116\O,-0.2870140451,-1.2
 381589622,-1.5499559387\H,-0.9773881164,-1.8267219885,-1.8657715399\\V
 ersion=ES64L-G16RevA.03\State=2-A\HF=-1026.9704556\S2=0.752878\S2-1=0.
 \S2A=0.750006\RMSD=1.118e-09\RMSF=1.349e-05\ZeroPoint=0.0618375\Therma
 l=0.0739227\Dipole=-0.6051797,-0.5175408,-0.5263252\DipoleDeriv=-0.333
 852,0.1163721,0.2652348,0.2708921,-0.2019767,-0.2491265,0.3589577,-0.0
 827385,-0.8268872,0.5952874,-0.333222,-0.0890238,-0.6443527,0.5466564,
 -0.1905818,-0.1462992,-0.2288095,1.3637005,-0.3344703,0.2101905,-0.172
 0488,0.3986682,-0.4316624,0.3999428,-0.1984572,0.2466745,-0.5623555,0.
 5670467,-0.1262399,0.0008821,0.1060938,0.982007,-0.0614476,0.0850155,-
 0.0744895,1.1745044,-0.3059548,0.0022567,0.0752753,-0.0072879,-0.29996
 18,-0.20727,0.0194408,-0.1203277,-0.8096915,-0.3360981,0.1062908,-0.08
 06602,0.0754705,-0.687767,0.291716,-0.0467288,0.204884,-0.3966119,-0.3
 085498,0.0444127,-0.0658455,0.0342634,-0.6045981,0.3700251,-0.0616325,
 0.2411929,-0.6058086,1.5211914,0.1830358,0.0908639,-0.0200448,1.577734
 1,-0.0028328,0.0129011,-0.0147824,1.5772647,-0.4081272,0.0050047,0.206
 1142,0.0172773,-0.2600402,-0.0367655,0.1322504,-0.0276039,-0.8403173,-
 0.4244356,0.2012547,-0.1057531,0.1415821,-0.7182381,0.2305431,-0.05426
 29,0.2159958,-0.3687343,-0.6838985,-0.3411586,-0.1711113,-0.2778988,-0
 .6169923,-0.1885199,-0.1438304,-0.1888879,-0.3594548,0.6005336,-0.0742
 994,-0.0193853,-0.1199003,0.8958098,-0.1162274,-0.0072833,-0.0572945,1
 .2026416,-0.402542,0.0792355,0.0508775,0.0842402,-0.5104046,-0.2685242
 ,0.0119947,-0.1602451,-0.900922,0.2538693,-0.0731335,0.0145804,-0.0590
 032,0.3294339,0.0290687,0.0379342,0.0464319,0.352672\Polar=62.0784068,
 0.6460675,54.3935754,0.3732021,0.7194042,57.4386763\Quadrupole=-0.0277
 892,0.4481685,-0.4203794,2.4074987,2.1551116,2.8603524\PG=C01 [X(C4H1F
 8O1)]\NImag=0\\0.09322014,-0.05499597,0.06150819,-0.11955151,0.0746508
 7,0.38844618,-0.09552827,0.06709359,0.11432843,0.40925514,0.05226398,-
 0.08883307,-0.09600535,-0.19989864,0.37304816,0.08649571,-0.09099903,-
 0.30030062,-0.04732614,-0.03667306,0.55981480,0.01260358,-0.01228695,-
 0.00121187,-0.09565410,0.08471623,-0.05292383,0.09648945,-0.01118528,0
 .02191453,0.02081723,0.11174688,-0.19737563,0.13156486,-0.10223151,0.1
 8092315,-0.00532281,0.02699929,-0.07591201,-0.07224548,0.13644846,-0.1
 7672835,0.08287204,-0.16902497,0.25808823,0.00243956,0.00392208,0.0040
 8475,-0.03409859,-0.03091494,-0.00958326,0.00181873,0.00531220,-0.0019
 0270,0.52951953,0.00208288,-0.00571204,-0.00619857,-0.00499038,0.02668
 151,0.00240983,0.00213079,-0.01097914,0.00554775,-0.00989170,0.5482047
 9,0.00034892,-0.00413214,-0.00880247,-0.00140303,0.00439163,0.01801096
 ,0.00082113,0.00168632,-0.00302308,-0.00458318,0.01570334,0.53064894,-
 0.00207903,-0.00184437,-0.00269316,0.00178604,0.00250704,0.00362501,-0
 .00022731,0.00004213,-0.00053275,-0.08403412,0.00703115,0.02627995,0.0
 7402104,-0.00142737,0.00133495,0.00154539,0.00190939,-0.00210336,-0.00
 083195,-0.00045631,0.00106467,-0.00024700,0.00969011,-0.09470849,-0.06
 304287,-0.00724204,0.09075802,-0.00136976,0.00241194,0.00548941,0.0027
 5855,-0.00211092,-0.00673499,-0.00032998,-0.00030546,0.00135213,0.0325
 0670,-0.07746577,-0.26269153,-0.03680429,0.07203441,0.39016535,-0.0001
 5062,-0.00049113,0.00028434,0.00119961,0.00430736,-0.00185013,-0.00332
 107,-0.00441874,0.00126782,-0.09270887,0.04375948,-0.02135700,0.011799
 94,-0.00252780,-0.00638109,0.08754951,-0.00117585,0.00097499,0.0002170
 5,0.00409452,-0.00429450,0.00232458,-0.00319375,0.00369232,-0.00266048
 ,0.04617494,-0.23457975,0.07396993,-0.00169086,0.01160957,0.02901766,-
 0.06354057,0.28896643,0.00020328,0.00024234,0.00128583,-0.00119436,0.0
 0238791,-0.00388791,-0.00025434,-0.00282894,0.00229215,-0.02647806,0.0
 8825376,-0.10840826,-0.00991417,0.04187648,-0.06419314,0.04100338,-0.1
 4582195,0.17018406,-0.00095194,0.00055457,0.00022022,-0.00429345,0.028
 96144,-0.02519957,-0.00907320,0.00644857,-0.00256428,0.00887913,-0.013
 98079,0.00954525,0.00024791,-0.00109334,0.00055570,-0.00173300,-0.0066
 7191,0.00070818,0.07306956,0.00065788,-0.00061204,-0.00324963,0.008663
 22,-0.01953706,0.02633194,0.00636388,-0.00225358,0.00007161,0.00760655
 ,-0.02891195,0.03161097,-0.00062069,-0.00012685,-0.00157231,-0.0060168
 2,-0.01090499,0.00074872,-0.03170306,0.21773600,-0.00143637,0.00087449
 ,0.00715410,-0.00909971,0.01478456,-0.01616887,-0.00297456,0.00213680,
 0.00165117,-0.00031105,0.00984585,-0.01303242,-0.00087723,-0.00314364,
 0.00654254,0.00141115,0.00106241,0.00169320,0.02586638,-0.13888818,0.1
 9641142,0.00080340,-0.00162370,-0.00201267,-0.00083558,0.00589273,0.00
 176276,0.00088960,-0.00236147,0.00101632,-0.17884309,0.03175714,0.0238
 3919,0.00128271,-0.00460395,-0.00203113,-0.00248293,0.00071364,-0.0020
 3292,0.00012050,0.00459500,-0.00186272,0.59162389,0.00077900,0.0007948
 8,0.00116662,-0.00303891,-0.00655313,-0.00233699,0.00076120,0.00105711
 ,-0.00048610,-0.00044682,-0.05858201,-0.00800234,0.00858953,-0.0018684
 6,-0.00738599,0.03597169,-0.02888735,0.01082722,0.00612742,-0.00565040
 ,0.00336696,-0.01417031,0.54771410,0.00083505,0.00001650,-0.00084010,-
 0.00101127,-0.00351253,0.00050294,-0.00044046,0.00172601,-0.00150574,0
 .01099282,-0.01110230,-0.04144262,0.03581122,-0.01563338,-0.03835897,-
 0.02092515,0.02114532,-0.00813667,-0.00184363,0.00146703,-0.00453033,-
 0.01119337,-0.00425448,0.55939340,-0.00019933,0.00024744,0.00019216,0.
 00037420,-0.00110066,0.00011077,-0.00021153,0.00055859,-0.00035544,0.0
 0393751,-0.00005504,0.03375568,-0.00918986,0.00362742,0.00762990,-0.00
 094788,0.00110019,-0.00033322,0.00003497,-0.00069554,0.00014044,-0.109
 20105,0.00801674,0.06286589,0.08805986,-0.00019688,0.00006046,0.000073
 90,0.00032756,0.00047258,0.00023807,-0.00011187,-0.00000799,0.00003636
 ,0.00407137,0.00447241,-0.00506585,0.00121600,0.00017849,-0.00135233,-
 0.00037249,0.00240202,-0.00246456,-0.00045944,0.00053848,-0.00004726,0
 .00604371,-0.07538268,-0.01324199,-0.00001570,0.08351927,-0.00029072,0
 .00007770,0.00062985,0.00021954,0.00177552,-0.00075643,0.00024700,-0.0
 0098867,0.00083733,0.00039598,0.00386183,-0.03048383,0.00710893,-0.001
 74631,-0.00250827,0.00049561,-0.00304374,0.00573102,0.00071928,-0.0007
 2680,0.00220175,0.07418598,-0.01591765,-0.27039122,-0.06468101,0.01857
 138,0.41212163,-0.00014623,0.00023151,0.00040146,0.00042147,-0.0004970
 6,-0.00055612,-0.00019218,0.00017566,-0.00004955,0.00293929,0.03078679
 ,-0.01981649,-0.00108078,-0.00025090,0.00342883,-0.01086819,0.00733977
 ,-0.00174422,-0.00522703,-0.00268742,0.00060002,-0.11792630,0.06733068
 ,-0.02748650,0.01675151,-0.00496386,-0.00146719,0.09626218,-0.00013935
 ,-0.00007729,-0.00032367,0.00049979,0.00052312,0.00086384,-0.00032503,
 0.00042084,-0.00032634,0.00290023,-0.02028204,0.01811948,0.00088733,0.
 00158937,-0.00347955,0.00731308,-0.00239318,0.00054703,-0.00383062,0.0
 0399937,-0.00250395,0.07582432,-0.22583733,0.06919967,-0.00096126,-0.0
 0564560,0.03931035,-0.07327150,0.33541082,-0.00011266,0.00012467,0.000
 39445,-0.00004520,0.00005588,-0.00055364,0.00015651,-0.00031338,0.0003
 1832,0.00105287,0.00793349,-0.00167976,-0.00185453,0.00013264,0.005122
 59,-0.00152097,-0.00025325,0.00116668,0.00155867,-0.00145765,0.0021807
 4,-0.03343211,0.07135369,-0.10722600,-0.00994166,0.05224826,-0.0580665
 6,0.04012378,-0.12870258,0.14393797,-0.00033174,0.00137495,0.00183750,
 -0.00028590,-0.00574488,-0.00175715,-0.00047485,0.00201256,-0.00100867
 ,-0.03239232,-0.04489873,-0.02085914,0.00087153,0.00121674,0.00083514,
 0.00138035,0.00339654,0.00008496,0.00057042,-0.00173803,0.00093280,-0.
 17008189,-0.08441708,-0.04398067,0.01567472,-0.00363013,-0.01563580,0.
 01791986,-0.01148591,0.00490599,0.17198196,-0.00035425,0.00068882,0.00
 091812,0.00040206,-0.00203663,-0.00067665,-0.00041164,0.00094595,-0.00
 044418,-0.00961664,-0.01420365,-0.00921239,0.00207449,0.00306046,0.001
 91931,-0.00042463,0.00622299,-0.00067038,-0.00072433,0.00044742,-0.000
 03058,-0.09173327,-0.16647835,-0.04896240,-0.00880767,-0.00758203,-0.0
 3906134,-0.02506259,-0.08204378,-0.00295886,0.13497263,0.25975188,-0.0
 0026737,0.00042490,0.00073681,0.00015683,-0.00096388,-0.00067908,-0.00
 008711,0.00028357,-0.00000057,-0.00396321,-0.00883034,-0.00276837,0.00
 242741,0.00352146,0.00537704,0.00102098,-0.00076211,0.00164016,0.00006
 046,-0.00036434,0.00071327,-0.04951322,-0.05001740,-0.10077272,-0.0277
 0287,-0.04827287,-0.05667597,0.00651113,0.00561286,0.01700002,0.072153
 87,0.09812205,0.13591660,0.00069648,-0.00697376,-0.00078917,-0.1785612
 1,0.04584751,0.00839472,-0.00114548,-0.00738119,-0.00150041,-0.1382628
 8,-0.03604114,-0.00741223,0.00936603,0.00644851,0.00462897,0.01028257,
 0.01472499,-0.00050011,-0.07381623,0.02004831,-0.01572048,-0.01598403,
 -0.02905842,-0.00811639,0.00094814,0.00193460,0.00102410,0.00169633,0.
 00283766,0.00002460,-0.00548916,0.00008260,-0.00027610,0.49617387,0.01
 002127,0.00724724,0.00585968,0.01077785,-0.07971274,-0.01467120,0.0245
 4841,0.00121160,0.00423692,-0.04022892,-0.10507104,-0.02481090,-0.0053
 3019,-0.00427073,-0.00463346,-0.01248984,-0.03233308,0.00686011,0.0219
 7375,-0.17396650,0.08296164,-0.01314303,0.02221469,0.00331876,0.002306
 95,-0.00267730,-0.00291326,0.00166575,-0.00719337,0.00195763,0.0093177
 3,0.00078515,0.00106057,-0.01216752,0.50246510,0.03596614,-0.00915226,
 -0.01970814,0.00316995,-0.01564283,-0.04606028,-0.02640203,0.01853548,
 -0.01230252,-0.00947280,-0.02299211,-0.04774397,-0.01829240,-0.0287262
 6,-0.03613573,0.00688532,0.02850717,-0.00321655,-0.01526922,0.06622547
 ,-0.11789008,-0.00196933,0.00169849,0.01862158,-0.00036978,-0.00128596
 ,-0.00687505,0.00106424,0.00212330,-0.00344066,0.00313255,0.00088964,-
 0.00126812,-0.01053192,0.05178323,0.53695617,-0.00985894,0.00565805,0.
 00667213,-0.00594308,0.01154279,0.03539096,-0.00085185,0.00084477,0.00
 049884,0.01148666,-0.00655623,-0.02073257,-0.00348623,-0.00633557,-0.0
 0658697,0.00014949,-0.00172046,0.00054483,0.01301202,-0.00347999,0.001
 37138,0.00043905,0.00359168,0.00335881,-0.00547397,-0.00353411,-0.0018
 8428,-0.00056117,-0.00056964,-0.00076545,0.00052422,-0.00050390,-0.000
 46640,-0.11560562,-0.00763253,0.02691035,0.41165023,0.00542244,-0.0007
 5983,-0.00186038,0.00191789,0.00027423,-0.01542086,0.00009060,0.000374
 80,-0.00167644,0.01045200,-0.00773330,-0.02778415,-0.00504487,-0.00572
 417,-0.00645293,-0.00150798,-0.00088401,-0.00030814,-0.00609974,0.0197
 7114,0.02728741,0.00330334,-0.00250961,0.00008191,-0.00431897,-0.00048
 421,0.00069207,-0.00100023,0.00169215,-0.00030006,-0.00056082,0.000388
 39,0.00010718,0.01151796,-0.11800661,-0.08559813,0.22666598,0.31131319
 ,0.00532808,-0.00291190,0.00017479,0.01017958,-0.00282045,-0.02790927,
 0.00118756,-0.00454007,0.00623770,0.00374189,-0.00600377,-0.02444996,-
 0.00340967,-0.00484665,-0.00244262,-0.00012330,-0.00353134,0.00330763,
 0.00493535,0.01815356,-0.06836131,0.00390215,0.00046115,-0.00477512,-0
 .00202081,0.00025784,0.00398160,-0.00114729,-0.00062311,0.00085018,-0.
 00099956,-0.00014102,0.00060160,0.06433753,-0.07734840,-0.23781786,0.0
 3644158,0.19970796,0.43251456,-0.00051706,-0.00086630,-0.00176262,0.00
 216373,0.00211711,0.00341628,-0.00064978,0.00043684,-0.00017291,-0.000
 68053,-0.00113422,0.00157353,0.00072213,0.00104510,0.00115943,-0.00014
 892,0.00044879,-0.00009321,-0.00083966,-0.00099329,0.00195995,0.000195
 73,-0.00003640,0.00113366,-0.00055729,-0.00030875,-0.00043743,0.000011
 24,0.00032088,-0.00014984,0.00013281,0.00010716,-0.00005438,0.00970119
 ,0.01038031,0.00517895,-0.29548082,-0.24083762,-0.12235308,0.28594721,
 -0.00175249,0.00147022,0.00238876,0.00049517,-0.00055349,-0.00212339,0
 .00040594,-0.00098862,0.00152510,0.00096954,0.00140469,-0.00343102,-0.
 00057464,-0.00079348,-0.00062461,0.00043839,0.00040855,0.00035038,0.00
 049746,-0.00052903,0.00229348,-0.00049415,-0.00003144,-0.00024814,0.00
 009753,0.00013607,0.00010891,0.00020340,-0.00016309,0.00017951,0.00018
 441,0.00005339,0.00007837,-0.01182009,-0.01069243,-0.00636522,-0.21797
 085,-0.19771216,-0.11581379,0.22932040,0.20799082,-0.00082597,0.001372
 62,0.00125193,0.00151232,-0.00211498,0.00145074,-0.00066005,0.00125122
 ,-0.00130475,0.00351926,-0.00096298,-0.00413361,-0.00087431,-0.0008923
 1,-0.00098381,-0.00021097,-0.00017125,0.00054180,0.00070721,0.00164960
 ,0.00143484,-0.00065892,-0.00047317,-0.00053841,0.00070996,0.00030503,
 0.00025415,0.00013790,0.00018266,-0.00000431,0.00035820,0.00030867,0.0
 0017933,-0.03356311,-0.03366134,-0.02311877,-0.08075321,-0.08847543,-0
 .08191191,0.11060167,0.12168165,0.10688277\\-0.00000513,-0.00000315,0.
 00002480,0.00002564,0.00000309,-0.00002085,-0.00000044,-0.00000700,-0.
 00000541,-0.00000140,0.00000499,-0.00000855,0.00000510,0.00000509,0.00
 001357,-0.00000093,0.00000796,0.00000047,-0.00000226,0.00002465,-0.000
 02386,0.00001112,0.00000789,-0.00000074,0.00000424,-0.00000112,-0.0000
 0115,-0.00000766,-0.00000290,-0.00000486,-0.00000548,0.00000945,-0.000
 00197,-0.00001657,-0.00005206,0.00002373,-0.00001340,0.00000242,0.0000
 0473,0.00000718,0.00000068,0.00000008\\\@


 WORK FAITHFULLY FOR EIGHT HOURS A DAY AND DON'T WORRY.
 IN TIME YOU MAY BECOME BOSS AND WORK TWELVE HOURS A DAY
 AND HAVE ALL THE WORRY.
 Job cpu time:       0 days  7 hours 49 minutes  6.4 seconds.
 Elapsed time:       0 days  0 hours  8 minutes 23.4 seconds.
 File lengths (MBytes):  RWF=    384 Int=      0 D2E=      0 Chk=     15 Scr=      1
 Normal termination of Gaussian 16 at Wed Sep  3 09:30:30 2025.
