 Entering Gaussian System, Link 0=g16
 Initial command:
 /usr/local/src/g16/l1.exe "/data/g09scratch/Gau-152459.inp" -scrdir="/data/g09scratch/"
 Entering Link 1 = /usr/local/src/g16/l1.exe PID=    152460.
  
 Copyright (c) 1988,1990,1992,1993,1995,1998,2003,2009,2016,
            Gaussian, Inc.  All Rights Reserved.
  
 This is part of the Gaussian(R) 16 program.  It is based on
 the Gaussian(R) 09 system (copyright 2009, Gaussian, Inc.),
 the Gaussian(R) 03 system (copyright 2003, Gaussian, Inc.),
 the Gaussian(R) 98 system (copyright 1998, Gaussian, Inc.),
 the Gaussian(R) 94 system (copyright 1995, Gaussian, Inc.),
 the Gaussian 92(TM) system (copyright 1992, Gaussian, Inc.),
 the Gaussian 90(TM) system (copyright 1990, Gaussian, Inc.),
 the Gaussian 88(TM) system (copyright 1988, Gaussian, Inc.),
 the Gaussian 86(TM) system (copyright 1986, Carnegie Mellon
 University), and the Gaussian 82(TM) system (copyright 1983,
 Carnegie Mellon University). Gaussian is a federally registered
 trademark of Gaussian, Inc.
  
 This software contains proprietary and confidential information,
 including trade secrets, belonging to Gaussian, Inc.
  
 This software is provided under written license and may be
 used, copied, transmitted, or stored only in accord with that
 written license.
  
 The following legend is applicable only to US Government
 contracts under FAR:
  
                    RESTRICTED RIGHTS LEGEND
  
 Use, reproduction and disclosure by the US Government is
 subject to restrictions as set forth in subparagraphs (a)
 and (c) of the Commercial Computer Software - Restricted
 Rights clause in FAR 52.227-19.
  
 Gaussian, Inc.
 340 Quinnipiac St., Bldg. 40, Wallingford CT 06492
  
  
 ---------------------------------------------------------------
 Warning -- This program may not be used in any manner that
 competes with the business of Gaussian, Inc. or will provide
 assistance to any competitor of Gaussian, Inc.  The licensee
 of this program is prohibited from giving any competitor of
 Gaussian, Inc. access to this program.  By using this program,
 the user acknowledges that Gaussian, Inc. is engaged in the
 business of creating and licensing software in the field of
 computational chemistry and represents and warrants to the
 licensee that it is not a competitor of Gaussian, Inc. and that
 it will not use this program in any manner prohibited above.
 ---------------------------------------------------------------
  

 Cite this work as:
 Gaussian 16, Revision A.03,
 M. J. Frisch, G. W. Trucks, H. B. Schlegel, G. E. Scuseria, 
 M. A. Robb, J. R. Cheeseman, G. Scalmani, V. Barone, 
 G. A. Petersson, H. Nakatsuji, X. Li, M. Caricato, A. V. Marenich, 
 J. Bloino, B. G. Janesko, R. Gomperts, B. Mennucci, H. P. Hratchian, 
 J. V. Ortiz, A. F. Izmaylov, J. L. Sonnenberg, D. Williams-Young, 
 F. Ding, F. Lipparini, F. Egidi, J. Goings, B. Peng, A. Petrone, 
 T. Henderson, D. Ranasinghe, V. G. Zakrzewski, J. Gao, N. Rega, 
 G. Zheng, W. Liang, M. Hada, M. Ehara, K. Toyota, R. Fukuda, 
 J. Hasegawa, M. Ishida, T. Nakajima, Y. Honda, O. Kitao, H. Nakai, 
 T. Vreven, K. Throssell, J. A. Montgomery, Jr., J. E. Peralta, 
 F. Ogliaro, M. J. Bearpark, J. J. Heyd, E. N. Brothers, K. N. Kudin, 
 V. N. Staroverov, T. A. Keith, R. Kobayashi, J. Normand, 
 K. Raghavachari, A. P. Rendell, J. C. Burant, S. S. Iyengar, 
 J. Tomasi, M. Cossi, J. M. Millam, M. Klene, C. Adamo, R. Cammi, 
 J. W. Ochterski, R. L. Martin, K. Morokuma, O. Farkas, 
 J. B. Foresman, and D. J. Fox, Gaussian, Inc., Wallingford CT, 2016.
 
 ******************************************
 Gaussian 16:  ES64L-G16RevA.03 25-Dec-2016
                11-Dec-2024 
 ******************************************
 %mem=160GB
 %nprocshared=30
 Will use up to   30 processors via shared memory.
 %chk=c4_rad.chk
 ----------------------------------------------------------------------
 # opt freq uwb97xd/6-311+g(2d,2p) geom=connectivity integral=grid=supe
 rfinegrid scf=(xqc,tight)
 ----------------------------------------------------------------------
 1/18=20,19=15,26=5,38=1,57=2/1,3;
 2/9=110,12=2,17=6,18=5,40=1/2;
 3/5=4,6=6,7=212,11=2,25=1,30=1,71=1,74=-58,75=-7,116=2/1,2,3;
 4//1;
 5/5=2,8=3,13=1,32=2,38=5/2,8;
 6/7=2,8=2,9=2,10=2,28=1/1;
 7//1,2,3,16;
 1/18=20,19=15,26=5/3(2);
 2/9=110/2;
 99//99;
 2/9=110/2;
 3/5=4,6=6,7=212,11=2,25=1,30=1,71=1,74=-58,75=-7,116=2/1,2,3;
 4/5=5,16=3,69=1/1;
 5/5=2,8=3,13=1,32=2,38=5/2,8;
 7//1,2,3,16;
 1/18=20,19=15,26=5/3(-5);
 2/9=110/2;
 6/7=2,8=2,9=2,10=2,19=2,28=1/1;
 99/9=1/99;
 -------------------
 Title Card Required
 -------------------
 Symbolic Z-matrix:
 Charge =  0 Multiplicity = 2
 C                     0.76616   0.62962  -0.16449 
 F                     0.55474   1.60187   0.73663 
 F                     0.63618   1.13105  -1.40245 
 C                     2.1985    0.15219  -0.00356 
 F                     2.56868  -0.14594   1.21908 
 F                     2.60018  -0.74293  -0.87599 
 C                    -0.31175  -0.47783   0.0316 
 C                    -1.789     0.00768   0.04362 
 F                    -0.07887  -1.09281   1.20163 
 F                    -0.1801   -1.36845  -0.96072 
 F                    -2.02507   0.76854   1.1026 
 F                    -2.06741   0.69513  -1.05593 
 F                    -2.58428  -1.05423   0.09703 
 

 GradGradGradGradGradGradGradGradGradGradGradGradGradGradGradGradGradGrad
 Berny optimization.
 Initialization pass.
                           ----------------------------
                           !    Initial Parameters    !
                           ! (Angstroms and Degrees)  !
 --------------------------                            --------------------------
 ! Name  Definition              Value          Derivative Info.                !
 --------------------------------------------------------------------------------
 ! R1    R(1,2)                  1.3424         estimate D2E/DX2                !
 ! R2    R(1,3)                  1.342          estimate D2E/DX2                !
 ! R3    R(1,4)                  1.5184         estimate D2E/DX2                !
 ! R4    R(1,7)                  1.5578         estimate D2E/DX2                !
 ! R5    R(4,5)                  1.3118         estimate D2E/DX2                !
 ! R6    R(4,6)                  1.3129         estimate D2E/DX2                !
 ! R7    R(7,8)                  1.555          estimate D2E/DX2                !
 ! R8    R(7,9)                  1.3422         estimate D2E/DX2                !
 ! R9    R(7,10)                 1.3399         estimate D2E/DX2                !
 ! R10   R(8,11)                 1.3252         estimate D2E/DX2                !
 ! R11   R(8,12)                 1.3263         estimate D2E/DX2                !
 ! R12   R(8,13)                 1.3278         estimate D2E/DX2                !
 ! A1    A(2,1,3)              109.4738         estimate D2E/DX2                !
 ! A2    A(2,1,4)              107.7679         estimate D2E/DX2                !
 ! A3    A(2,1,7)              108.7481         estimate D2E/DX2                !
 ! A4    A(3,1,4)              107.8566         estimate D2E/DX2                !
 ! A5    A(3,1,7)              108.3444         estimate D2E/DX2                !
 ! A6    A(4,1,7)              114.5736         estimate D2E/DX2                !
 ! A7    A(1,4,5)              115.8784         estimate D2E/DX2                !
 ! A8    A(1,4,6)              115.6301         estimate D2E/DX2                !
 ! A9    A(5,4,6)              112.2132         estimate D2E/DX2                !
 ! A10   A(1,7,8)              115.8711         estimate D2E/DX2                !
 ! A11   A(1,7,9)              108.3856         estimate D2E/DX2                !
 ! A12   A(1,7,10)             108.1398         estimate D2E/DX2                !
 ! A13   A(8,7,9)              107.5262         estimate D2E/DX2                !
 ! A14   A(8,7,10)             107.8543         estimate D2E/DX2                !
 ! A15   A(9,7,10)             108.9054         estimate D2E/DX2                !
 ! A16   A(7,8,11)             110.7734         estimate D2E/DX2                !
 ! A17   A(7,8,12)             110.7826         estimate D2E/DX2                !
 ! A18   A(7,8,13)             108.6393         estimate D2E/DX2                !
 ! A19   A(11,8,12)            109.1175         estimate D2E/DX2                !
 ! A20   A(11,8,13)            108.6844         estimate D2E/DX2                !
 ! A21   A(12,8,13)            108.7932         estimate D2E/DX2                !
 ! D1    D(2,1,4,5)             50.082          estimate D2E/DX2                !
 ! D2    D(2,1,4,6)           -175.5884         estimate D2E/DX2                !
 ! D3    D(3,1,4,5)            168.1829         estimate D2E/DX2                !
 ! D4    D(3,1,4,6)            -57.4875         estimate D2E/DX2                !
 ! D5    D(7,1,4,5)            -71.093          estimate D2E/DX2                !
 ! D6    D(7,1,4,6)             63.2365         estimate D2E/DX2                !
 ! D7    D(2,1,7,8)             52.2878         estimate D2E/DX2                !
 ! D8    D(2,1,7,9)            -68.6344         estimate D2E/DX2                !
 ! D9    D(2,1,7,10)           173.4491         estimate D2E/DX2                !
 ! D10   D(3,1,7,8)            -66.623          estimate D2E/DX2                !
 ! D11   D(3,1,7,9)            172.4548         estimate D2E/DX2                !
 ! D12   D(3,1,7,10)            54.5382         estimate D2E/DX2                !
 ! D13   D(4,1,7,8)            172.9227         estimate D2E/DX2                !
 ! D14   D(4,1,7,9)             52.0004         estimate D2E/DX2                !
 ! D15   D(4,1,7,10)           -65.9161         estimate D2E/DX2                !
 ! D16   D(1,7,8,11)           -66.2308         estimate D2E/DX2                !
 ! D17   D(1,7,8,12)            55.0088         estimate D2E/DX2                !
 ! D18   D(1,7,8,13)           174.4585         estimate D2E/DX2                !
 ! D19   D(9,7,8,11)            55.1521         estimate D2E/DX2                !
 ! D20   D(9,7,8,12)           176.3918         estimate D2E/DX2                !
 ! D21   D(9,7,8,13)           -64.1585         estimate D2E/DX2                !
 ! D22   D(10,7,8,11)          172.455          estimate D2E/DX2                !
 ! D23   D(10,7,8,12)          -66.3053         estimate D2E/DX2                !
 ! D24   D(10,7,8,13)           53.1443         estimate D2E/DX2                !
 --------------------------------------------------------------------------------
 Trust Radius=3.00D-01 FncErr=1.00D-07 GrdErr=1.00D-07 EigMax=2.50D+02 EigMin=1.00D-04
 Number of steps in this run=     67 maximum allowed number of steps=    100.
 GradGradGradGradGradGradGradGradGradGradGradGradGradGradGradGradGradGrad

                          Input orientation:                          
 ---------------------------------------------------------------------
 Center     Atomic      Atomic             Coordinates (Angstroms)
 Number     Number       Type             X           Y           Z
 ---------------------------------------------------------------------
      1          6           0        0.766164    0.629619   -0.164490
      2          9           0        0.554740    1.601870    0.736632
      3          9           0        0.636183    1.131051   -1.402451
      4          6           0        2.198499    0.152194   -0.003559
      5          9           0        2.568683   -0.145942    1.219078
      6          9           0        2.600178   -0.742926   -0.875986
      7          6           0       -0.311745   -0.477828    0.031597
      8          6           0       -1.789001    0.007678    0.043624
      9          9           0       -0.078872   -1.092812    1.201629
     10          9           0       -0.180102   -1.368450   -0.960717
     11          9           0       -2.025066    0.768539    1.102597
     12          9           0       -2.067407    0.695129   -1.055930
     13          9           0       -2.584281   -1.054234    0.097033
 ---------------------------------------------------------------------
                    Distance matrix (angstroms):
                    1          2          3          4          5
     1  C    0.000000
     2  F    1.342383   0.000000
     3  F    1.341967   2.191798   0.000000
     4  C    1.518360   2.313306   2.314280   0.000000
     5  F    2.401006   2.709902   3.498240   1.311778   0.000000
     6  F    2.398690   3.504629   2.765182   1.312903   2.178687
     7  C    1.557812   2.360723   2.354475   2.588337   3.133229
     8  C    2.637990   2.918018   3.038851   3.990397   4.516049
     9  F    2.355236   2.806955   3.498300   2.861632   2.811835
    10  F    2.349825   3.499112   2.666262   2.980982   3.715084
    11  F    3.068513   2.735648   3.672727   4.409304   4.685336
    12  F    2.971209   3.303197   2.760345   4.427213   5.232245
    13  F    3.758888   4.161421   4.170769   4.933617   5.351357
                    6          7          8          9         10
     6  F    0.000000
     7  C    3.061581   0.000000
     8  C    4.546865   1.555039   0.000000
     9  F    3.408257   1.342166   2.340213   0.000000
    10  F    2.851038   1.339860   2.343285   2.182192   0.000000
    11  F    5.252828   2.374014   1.325164   2.694829   3.496838
    12  F    4.887405   2.375056   1.326317   3.499654   2.798096
    13  F    5.284155   2.345409   1.327773   2.738374   2.645306
                   11         12         13
    11  F    0.000000
    12  F    2.160190   0.000000
    13  F    2.155547   2.157951   0.000000
 Stoichiometry    C4F9(2)
 Framework group  C1[X(C4F9)]
 Deg. of freedom    33
 Full point group                 C1      NOp   1
 Largest Abelian subgroup         C1      NOp   1
 Largest concise Abelian subgroup C1      NOp   1
                         Standard orientation:                         
 ---------------------------------------------------------------------
 Center     Atomic      Atomic             Coordinates (Angstroms)
 Number     Number       Type             X           Y           Z
 ---------------------------------------------------------------------
      1          6           0       -0.766164    0.629619    0.164490
      2          9           0       -0.554740    1.601870   -0.736632
      3          9           0       -0.636183    1.131051    1.402451
      4          6           0       -2.198499    0.152194    0.003559
      5          9           0       -2.568683   -0.145942   -1.219078
      6          9           0       -2.600178   -0.742926    0.875986
      7          6           0        0.311745   -0.477828   -0.031597
      8          6           0        1.789001    0.007678   -0.043624
      9          9           0        0.078872   -1.092812   -1.201629
     10          9           0        0.180102   -1.368450    0.960717
     11          9           0        2.025066    0.768539   -1.102597
     12          9           0        2.067407    0.695129    1.055930
     13          9           0        2.584281   -1.054234   -0.097033
 ---------------------------------------------------------------------
 Rotational constants (GHZ):           1.3593632           0.6023906           0.5944351
 Standard basis: 6-311+G(2d,2p) (5D, 7F)
 There are   377 symmetry adapted cartesian basis functions of A   symmetry.
 There are   351 symmetry adapted basis functions of A   symmetry.
   351 basis functions,   546 primitive gaussians,   377 cartesian basis functions
    53 alpha electrons       52 beta electrons
       nuclear repulsion energy      1021.4661904312 Hartrees.
 NAtoms=   13 NActive=   13 NUniq=   13 SFac= 1.00D+00 NAtFMM=   60 NAOKFM=F Big=F
 Integral buffers will be    131072 words long.
 Raffenetti 2 integral format.
 Two-electron integral symmetry is turned on.
 Nuclear repulsion after empirical dispersion term =     1021.4589688390 Hartrees.
 One-electron integrals computed using PRISM.
 NBasis=   351 RedAO= T EigKep=  1.15D-05  NBF=   351
 NBsUse=   351 1.00D-06 EigRej= -1.00D+00 NBFU=   351
 ExpMin= 4.38D-02 ExpMax= 1.14D+04 ExpMxC= 1.72D+03 IAcc=3 IRadAn=         7 AccDes= 0.00D+00
 Harris functional with IExCor= 4639 and IRadAn=       7 diagonalized for initial guess.
 HarFok:  IExCor= 4639 AccDes= 0.00D+00 IRadAn=         7 IDoV= 1 UseB2=F ITyADJ=14
 ICtDFT=  3500011 ScaDFX=  1.000000  1.000000  1.000000  1.000000
 FoFCou: FMM=F IPFlag=           0 FMFlag=      100000 FMFlg1=           0
         NFxFlg=           0 DoJE=T BraDBF=F KetDBF=T FulRan=T
         wScrn=  0.000000 ICntrl=       500 IOpCl=  0 I1Cent=   200000004 NGrid=           0
         NMat0=    1 NMatS0=      1 NMatT0=    0 NMatD0=    1 NMtDS0=    0 NMtDT0=    0
 Petite list used in FoFCou.
 Initial guess <Sx>= 0.0000 <Sy>= 0.0000 <Sz>= 0.5000 <S**2>= 0.7500 S= 0.5000
 Requested convergence on RMS density matrix=1.00D-08 within  32 cycles.
 Requested convergence on MAX density matrix=1.00D-06.
 Requested convergence on             energy=1.00D-06.
 No special actions if energy rises.
 SCF Done:  E(UwB97XD) =  -1050.98335164     A.U. after   15 cycles
            NFock= 15  Conv=0.87D-08     -V/T= 2.0025
 <Sx>= 0.0000 <Sy>= 0.0000 <Sz>= 0.5000 <S**2>= 0.7528 S= 0.5014
 <L.S>= 0.000000000000E+00
 Annihilation of the first spin contaminant:
 S**2 before annihilation     0.7528,   after     0.7500
 QCSCF skips out because SCF is already converged.

 **********************************************************************

            Population analysis using the SCF density.

 **********************************************************************

 Orbital symmetries:
 Alpha Orbitals:
       Occupied  (A) (A) (A) (A) (A) (A) (A) (A) (A) (A) (A) (A)
                 (A) (A) (A) (A) (A) (A) (A) (A) (A) (A) (A) (A)
                 (A) (A) (A) (A) (A) (A) (A) (A) (A) (A) (A) (A)
                 (A) (A) (A) (A) (A) (A) (A) (A) (A) (A) (A) (A)
                 (A) (A) (A) (A) (A)
       Virtual   (A) (A) (A) (A) (A) (A) (A) (A) (A) (A) (A) (A)
                 (A) (A) (A) (A) (A) (A) (A) (A) (A) (A) (A) (A)
                 (A) (A) (A) (A) (A) (A) (A) (A) (A) (A) (A) (A)
                 (A) (A) (A) (A) (A) (A) (A) (A) (A) (A) (A) (A)
                 (A) (A) (A) (A) (A) (A) (A) (A) (A) (A) (A) (A)
                 (A) (A) (A) (A) (A) (A) (A) (A) (A) (A) (A) (A)
                 (A) (A) (A) (A) (A) (A) (A) (A) (A) (A) (A) (A)
                 (A) (A) (A) (A) (A) (A) (A) (A) (A) (A) (A) (A)
                 (A) (A) (A) (A) (A) (A) (A) (A) (A) (A) (A) (A)
                 (A) (A) (A) (A) (A) (A) (A) (A) (A) (A) (A) (A)
                 (A) (A) (A) (A) (A) (A) (A) (A) (A) (A) (A) (A)
                 (A) (A) (A) (A) (A) (A) (A) (A) (A) (A) (A) (A)
                 (A) (A) (A) (A) (A) (A) (A) (A) (A) (A) (A) (A)
                 (A) (A) (A) (A) (A) (A) (A) (A) (A) (A) (A) (A)
                 (A) (A) (A) (A) (A) (A) (A) (A) (A) (A) (A) (A)
                 (A) (A) (A) (A) (A) (A) (A) (A) (A) (A) (A) (A)
                 (A) (A) (A) (A) (A) (A) (A) (A) (A) (A) (A) (A)
                 (A) (A) (A) (A) (A) (A) (A) (A) (A) (A) (A) (A)
                 (A) (A) (A) (A) (A) (A) (A) (A) (A) (A) (A) (A)
                 (A) (A) (A) (A) (A) (A) (A) (A) (A) (A) (A) (A)
                 (A) (A) (A) (A) (A) (A) (A) (A) (A) (A) (A) (A)
                 (A) (A) (A) (A) (A) (A) (A) (A) (A) (A) (A) (A)
                 (A) (A) (A) (A) (A) (A) (A) (A) (A) (A) (A) (A)
                 (A) (A) (A) (A) (A) (A) (A) (A) (A) (A) (A) (A)
                 (A) (A) (A) (A) (A) (A) (A) (A) (A) (A)
 Beta  Orbitals:
       Occupied  (A) (A) (A) (A) (A) (A) (A) (A) (A) (A) (A) (A)
                 (A) (A) (A) (A) (A) (A) (A) (A) (A) (A) (A) (A)
                 (A) (A) (A) (A) (A) (A) (A) (A) (A) (A) (A) (A)
                 (A) (A) (A) (A) (A) (A) (A) (A) (A) (A) (A) (A)
                 (A) (A) (A) (A)
       Virtual   (A) (A) (A) (A) (A) (A) (A) (A) (A) (A) (A) (A)
                 (A) (A) (A) (A) (A) (A) (A) (A) (A) (A) (A) (A)
                 (A) (A) (A) (A) (A) (A) (A) (A) (A) (A) (A) (A)
                 (A) (A) (A) (A) (A) (A) (A) (A) (A) (A) (A) (A)
                 (A) (A) (A) (A) (A) (A) (A) (A) (A) (A) (A) (A)
                 (A) (A) (A) (A) (A) (A) (A) (A) (A) (A) (A) (A)
                 (A) (A) (A) (A) (A) (A) (A) (A) (A) (A) (A) (A)
                 (A) (A) (A) (A) (A) (A) (A) (A) (A) (A) (A) (A)
                 (A) (A) (A) (A) (A) (A) (A) (A) (A) (A) (A) (A)
                 (A) (A) (A) (A) (A) (A) (A) (A) (A) (A) (A) (A)
                 (A) (A) (A) (A) (A) (A) (A) (A) (A) (A) (A) (A)
                 (A) (A) (A) (A) (A) (A) (A) (A) (A) (A) (A) (A)
                 (A) (A) (A) (A) (A) (A) (A) (A) (A) (A) (A) (A)
                 (A) (A) (A) (A) (A) (A) (A) (A) (A) (A) (A) (A)
                 (A) (A) (A) (A) (A) (A) (A) (A) (A) (A) (A) (A)
                 (A) (A) (A) (A) (A) (A) (A) (A) (A) (A) (A) (A)
                 (A) (A) (A) (A) (A) (A) (A) (A) (A) (A) (A) (A)
                 (A) (A) (A) (A) (A) (A) (A) (A) (A) (A) (A) (A)
                 (A) (A) (A) (A) (A) (A) (A) (A) (A) (A) (A) (A)
                 (A) (A) (A) (A) (A) (A) (A) (A) (A) (A) (A) (A)
                 (A) (A) (A) (A) (A) (A) (A) (A) (A) (A) (A) (A)
                 (A) (A) (A) (A) (A) (A) (A) (A) (A) (A) (A) (A)
                 (A) (A) (A) (A) (A) (A) (A) (A) (A) (A) (A) (A)
                 (A) (A) (A) (A) (A) (A) (A) (A) (A) (A) (A) (A)
                 (A) (A) (A) (A) (A) (A) (A) (A) (A) (A) (A)
 The electronic state is 2-A.
 Alpha  occ. eigenvalues --  -24.89054 -24.89023 -24.88096 -24.88070 -24.88019
 Alpha  occ. eigenvalues --  -24.88000 -24.87904 -24.87718 -24.87547 -10.58482
 Alpha  occ. eigenvalues --  -10.53018 -10.52821 -10.50425  -1.47481  -1.45075
 Alpha  occ. eigenvalues --   -1.43496  -1.42359  -1.38781  -1.38193  -1.37673
 Alpha  occ. eigenvalues --   -1.37110  -1.36483  -0.95394  -0.90646  -0.83161
 Alpha  occ. eigenvalues --   -0.79584  -0.75613  -0.75112  -0.74333  -0.72916
 Alpha  occ. eigenvalues --   -0.72331  -0.71844  -0.70600  -0.68505  -0.66832
 Alpha  occ. eigenvalues --   -0.61451  -0.60827  -0.60576  -0.60398  -0.59958
 Alpha  occ. eigenvalues --   -0.59519  -0.58413  -0.57600  -0.57183  -0.56077
 Alpha  occ. eigenvalues --   -0.55455  -0.55020  -0.54547  -0.54342  -0.53838
 Alpha  occ. eigenvalues --   -0.52177  -0.47273  -0.35565
 Alpha virt. eigenvalues --    0.06944   0.07523   0.08370   0.08727   0.11023
 Alpha virt. eigenvalues --    0.11410   0.11654   0.12692   0.12834   0.13440
 Alpha virt. eigenvalues --    0.14482   0.15163   0.15933   0.16486   0.17535
 Alpha virt. eigenvalues --    0.18749   0.18885   0.21178   0.22681   0.24425
 Alpha virt. eigenvalues --    0.25481   0.26056   0.26980   0.28704   0.29258
 Alpha virt. eigenvalues --    0.29573   0.30746   0.31004   0.31630   0.32170
 Alpha virt. eigenvalues --    0.32919   0.33495   0.34527   0.35090   0.35856
 Alpha virt. eigenvalues --    0.36343   0.36667   0.38367   0.39336   0.40221
 Alpha virt. eigenvalues --    0.40318   0.40899   0.41362   0.42034   0.42582
 Alpha virt. eigenvalues --    0.43393   0.43949   0.44277   0.44494   0.45623
 Alpha virt. eigenvalues --    0.46059   0.46476   0.47188   0.47595   0.48008
 Alpha virt. eigenvalues --    0.48678   0.51527   0.52360   0.53416   0.55319
 Alpha virt. eigenvalues --    0.55716   0.58791   0.60988   0.62216   0.64058
 Alpha virt. eigenvalues --    0.65027   0.67636   0.69459   0.70676   0.72753
 Alpha virt. eigenvalues --    0.74329   0.74840   0.78167   0.79206   0.79604
 Alpha virt. eigenvalues --    0.83167   0.85648   0.87316   0.91784   0.97178
 Alpha virt. eigenvalues --    1.01160   1.01806   1.06774   1.07916   1.09600
 Alpha virt. eigenvalues --    1.12017   1.12828   1.14763   1.16481   1.25541
 Alpha virt. eigenvalues --    1.27079   1.27986   1.30003   1.30559   1.33532
 Alpha virt. eigenvalues --    1.35886   1.37084   1.37915   1.39153   1.40770
 Alpha virt. eigenvalues --    1.41509   1.43066   1.43169   1.44142   1.45518
 Alpha virt. eigenvalues --    1.46351   1.46449   1.46902   1.47243   1.47636
 Alpha virt. eigenvalues --    1.48508   1.49711   1.50609   1.51193   1.51679
 Alpha virt. eigenvalues --    1.52431   1.53597   1.53963   1.55035   1.57550
 Alpha virt. eigenvalues --    1.58078   1.60405   1.64359   1.65833   1.68508
 Alpha virt. eigenvalues --    1.71207   1.72618   1.87910   1.89749   1.96872
 Alpha virt. eigenvalues --    1.98985   2.00956   2.01602   2.02825   2.04640
 Alpha virt. eigenvalues --    2.04765   2.05658   2.08863   2.09720   2.11516
 Alpha virt. eigenvalues --    2.12457   2.13576   2.13963   2.15547   2.17153
 Alpha virt. eigenvalues --    2.17994   2.18628   2.21334   2.21939   2.24580
 Alpha virt. eigenvalues --    2.26289   2.27583   2.31642   2.34919   2.36508
 Alpha virt. eigenvalues --    2.37590   2.38692   2.42427   2.46066   2.46313
 Alpha virt. eigenvalues --    2.52973   2.53611   2.58253   2.60360   2.61623
 Alpha virt. eigenvalues --    2.68835   2.70870   2.73588   2.74562   2.76883
 Alpha virt. eigenvalues --    2.77271   2.80471   2.81391   2.84466   2.85018
 Alpha virt. eigenvalues --    2.90210   2.97100   3.02278   3.05021   3.05978
 Alpha virt. eigenvalues --    3.20744   3.22254   3.25288   3.32787   3.39514
 Alpha virt. eigenvalues --    3.43920   3.45678   3.46494   3.48105   3.49786
 Alpha virt. eigenvalues --    3.52412   3.55951   3.57491   3.59085   3.60768
 Alpha virt. eigenvalues --    3.65000   3.66648   3.69372   3.73571   3.74854
 Alpha virt. eigenvalues --    3.75071   3.78242   3.80240   3.89119   3.99119
 Alpha virt. eigenvalues --    4.26237   4.30856   4.31836   4.35696   4.37034
 Alpha virt. eigenvalues --    4.37602   4.45882   4.51240   6.38411   6.39297
 Alpha virt. eigenvalues --    6.39674   6.41348   6.43260   6.44502   6.44604
 Alpha virt. eigenvalues --    6.45827   6.46968   6.47747   6.48652   6.49871
 Alpha virt. eigenvalues --    6.50414   6.51572   6.53242   6.54518   6.56078
 Alpha virt. eigenvalues --    6.58265   6.60918   6.63365   6.65180   6.71510
 Alpha virt. eigenvalues --    6.86087   6.87614   6.89839   6.90927   6.99801
 Alpha virt. eigenvalues --    9.07663   9.08349   9.08958   9.10536   9.11057
 Alpha virt. eigenvalues --    9.11607   9.11986   9.14567   9.15570   9.16633
 Alpha virt. eigenvalues --    9.18006   9.18645   9.19018   9.21298   9.21567
 Alpha virt. eigenvalues --    9.22393   9.24336   9.24630   9.25886   9.26507
 Alpha virt. eigenvalues --    9.27533   9.28342   9.34043   9.34723   9.35529
 Alpha virt. eigenvalues --    9.38557   9.40864   9.43755   9.45968   9.51858
 Alpha virt. eigenvalues --    9.63697   9.65886   9.67663   9.68469   9.68665
 Alpha virt. eigenvalues --    9.72906   9.75389   9.76562   9.76982   9.77662
 Alpha virt. eigenvalues --    9.78997   9.82060   9.87100   9.90000   9.91796
 Alpha virt. eigenvalues --   23.92352  23.97833  23.98349  24.06742  66.89514
 Alpha virt. eigenvalues --   66.92324  66.93197  66.95182  66.96273  66.97911
 Alpha virt. eigenvalues --   66.99892  67.03040  67.04089
  Beta  occ. eigenvalues --  -24.88725 -24.88689 -24.88096 -24.88071 -24.88019
  Beta  occ. eigenvalues --  -24.88000 -24.87893 -24.87715 -24.87539 -10.58462
  Beta  occ. eigenvalues --  -10.52992 -10.52762 -10.49133  -1.47462  -1.44473
  Beta  occ. eigenvalues --   -1.43128  -1.42269  -1.38426  -1.37834  -1.37652
  Beta  occ. eigenvalues --   -1.37013  -1.36430  -0.94863  -0.89728  -0.82303
  Beta  occ. eigenvalues --   -0.79001  -0.75395  -0.74829  -0.74279  -0.72528
  Beta  occ. eigenvalues --   -0.71893  -0.71560  -0.70259  -0.68331  -0.63708
  Beta  occ. eigenvalues --   -0.61223  -0.60781  -0.60473  -0.60280  -0.59621
  Beta  occ. eigenvalues --   -0.59034  -0.58130  -0.57156  -0.56305  -0.56039
  Beta  occ. eigenvalues --   -0.55315  -0.54979  -0.54289  -0.54209  -0.53825
  Beta  occ. eigenvalues --   -0.51852  -0.46488
  Beta virt. eigenvalues --   -0.04632   0.07274   0.07712   0.08459   0.09583
  Beta virt. eigenvalues --    0.11318   0.11751   0.11824   0.12866   0.13455
  Beta virt. eigenvalues --    0.13806   0.14560   0.15406   0.16399   0.16701
  Beta virt. eigenvalues --    0.17965   0.18940   0.19448   0.21392   0.22924
  Beta virt. eigenvalues --    0.24932   0.26426   0.26627   0.27058   0.29188
  Beta virt. eigenvalues --    0.29448   0.29866   0.30850   0.31180   0.31953
  Beta virt. eigenvalues --    0.32257   0.33583   0.33923   0.34557   0.35518
  Beta virt. eigenvalues --    0.36189   0.36715   0.36972   0.38392   0.39470
  Beta virt. eigenvalues --    0.40264   0.40497   0.41191   0.41579   0.42155
  Beta virt. eigenvalues --    0.42651   0.43467   0.44009   0.44308   0.44599
  Beta virt. eigenvalues --    0.45656   0.46155   0.46509   0.47205   0.47680
  Beta virt. eigenvalues --    0.48069   0.48784   0.51549   0.52397   0.53528
  Beta virt. eigenvalues --    0.55394   0.55791   0.59156   0.61143   0.62706
  Beta virt. eigenvalues --    0.64458   0.65435   0.67988   0.70417   0.71015
  Beta virt. eigenvalues --    0.72897   0.74772   0.75123   0.78253   0.79391
  Beta virt. eigenvalues --    0.79914   0.83402   0.86156   0.87712   0.92244
  Beta virt. eigenvalues --    0.97593   1.01619   1.02287   1.07416   1.08136
  Beta virt. eigenvalues --    1.10166   1.12252   1.13481   1.15226   1.16873
  Beta virt. eigenvalues --    1.26066   1.27419   1.28258   1.30361   1.31041
  Beta virt. eigenvalues --    1.33805   1.35967   1.37252   1.38056   1.39308
  Beta virt. eigenvalues --    1.40887   1.41722   1.43158   1.43371   1.44283
  Beta virt. eigenvalues --    1.45779   1.46418   1.46643   1.46959   1.47352
  Beta virt. eigenvalues --    1.47704   1.48582   1.49790   1.50628   1.51259
  Beta virt. eigenvalues --    1.51734   1.52512   1.53621   1.54048   1.55186
  Beta virt. eigenvalues --    1.57657   1.58143   1.60519   1.64442   1.66157
  Beta virt. eigenvalues --    1.68569   1.71359   1.72698   1.87988   1.89795
  Beta virt. eigenvalues --    1.96957   1.99098   2.01167   2.01811   2.03083
  Beta virt. eigenvalues --    2.04703   2.04828   2.05706   2.09061   2.09901
  Beta virt. eigenvalues --    2.11713   2.12598   2.13644   2.14154   2.15660
  Beta virt. eigenvalues --    2.17300   2.18379   2.18894   2.21341   2.22214
  Beta virt. eigenvalues --    2.24829   2.26507   2.28087   2.31741   2.35111
  Beta virt. eigenvalues --    2.36793   2.37832   2.38851   2.42984   2.46168
  Beta virt. eigenvalues --    2.46967   2.53052   2.53645   2.58442   2.60727
  Beta virt. eigenvalues --    2.62233   2.68903   2.70996   2.73635   2.75464
  Beta virt. eigenvalues --    2.77046   2.77475   2.81246   2.82359   2.84791
  Beta virt. eigenvalues --    2.85511   2.92087   2.97618   3.02654   3.05770
  Beta virt. eigenvalues --    3.06767   3.21868   3.23810   3.25360   3.33953
  Beta virt. eigenvalues --    3.41237   3.46614   3.47097   3.48540   3.48826
  Beta virt. eigenvalues --    3.50329   3.53753   3.56980   3.59063   3.59826
  Beta virt. eigenvalues --    3.60999   3.65253   3.67286   3.70258   3.74809
  Beta virt. eigenvalues --    3.75212   3.75600   3.78531   3.80541   3.89310
  Beta virt. eigenvalues --    4.00936   4.27655   4.30899   4.31901   4.35903
  Beta virt. eigenvalues --    4.37175   4.37713   4.46423   4.51970   6.39397
  Beta virt. eigenvalues --    6.39631   6.40387   6.41375   6.43338   6.44675
  Beta virt. eigenvalues --    6.44685   6.46056   6.47030   6.47877   6.48774
  Beta virt. eigenvalues --    6.49919   6.50518   6.51603   6.53243   6.54570
  Beta virt. eigenvalues --    6.56108   6.58398   6.60927   6.63417   6.65365
  Beta virt. eigenvalues --    6.71643   6.86239   6.87635   6.90134   6.90969
  Beta virt. eigenvalues --    6.99999   9.08277   9.08527   9.09104   9.10617
  Beta virt. eigenvalues --    9.11175   9.11732   9.12826   9.15024   9.16096
  Beta virt. eigenvalues --    9.17583   9.18154   9.18778   9.19167   9.21346
  Beta virt. eigenvalues --    9.21725   9.22875   9.24437   9.24663   9.25997
  Beta virt. eigenvalues --    9.26547   9.27609   9.28400   9.34090   9.35411
  Beta virt. eigenvalues --    9.35707   9.38873   9.40959   9.43842   9.46426
  Beta virt. eigenvalues --    9.51895   9.63766   9.66110   9.67756   9.68507
  Beta virt. eigenvalues --    9.68751   9.73233   9.75603   9.76576   9.77014
  Beta virt. eigenvalues --    9.77687   9.79279   9.82295   9.87145   9.90013
  Beta virt. eigenvalues --    9.91797  23.92945  23.97900  23.99577  24.07369
  Beta virt. eigenvalues --   66.89736  66.92432  66.93203  66.95203  66.96346
  Beta virt. eigenvalues --   66.97947  66.99896  67.03072  67.04100
          Condensed to atoms (all electrons):
               1          2          3          4          5          6
     1  C    8.505118   0.340406   0.355025  -1.668361  -0.044458  -0.057750
     2  F    0.340406   9.115299   0.016937  -0.150293   0.018253  -0.000123
     3  F    0.355025   0.016937   9.095128  -0.167735   0.000002   0.017200
     4  C   -1.668361  -0.150293  -0.167735   6.536141   0.172783   0.173991
     5  F   -0.044458   0.018253   0.000002   0.172783   9.068118   0.017537
     6  F   -0.057750  -0.000123   0.017200   0.173991   0.017537   9.081339
     7  C   -2.412258  -0.111219  -0.076789   0.875423  -0.001219  -0.009023
     8  C    0.850633   0.011937  -0.008461  -0.497910  -0.005415   0.008947
     9  F   -0.127550   0.015544  -0.001330   0.035466   0.005863  -0.001134
    10  F   -0.080365  -0.000675   0.018092  -0.000507  -0.002762   0.003574
    11  F    0.017748   0.003194  -0.004081  -0.009188  -0.000407   0.000046
    12  F    0.001883   0.000284   0.002071   0.015697   0.000023  -0.000210
    13  F    0.033956   0.000164  -0.000488   0.002719   0.000028   0.000032
               7          8          9         10         11         12
     1  C   -2.412258   0.850633  -0.127550  -0.080365   0.017748   0.001883
     2  F   -0.111219   0.011937   0.015544  -0.000675   0.003194   0.000284
     3  F   -0.076789  -0.008461  -0.001330   0.018092  -0.004081   0.002071
     4  C    0.875423  -0.497910   0.035466  -0.000507  -0.009188   0.015697
     5  F   -0.001219  -0.005415   0.005863  -0.002762  -0.000407   0.000023
     6  F   -0.009023   0.008947  -0.001134   0.003574   0.000046  -0.000210
     7  C    8.551596  -1.467492   0.334438   0.338065  -0.104509  -0.085941
     8  C   -1.467492   5.550742  -0.157238  -0.158505   0.294009   0.246660
     9  F    0.334438  -0.157238   9.114871   0.015164   0.020501  -0.000436
    10  F    0.338065  -0.158505   0.015164   9.096929  -0.001011   0.017315
    11  F   -0.104509   0.294009   0.020501  -0.001011   9.053641   0.014446
    12  F   -0.085941   0.246660  -0.000436   0.017315   0.014446   9.075102
    13  F   -0.140616   0.249080   0.019951   0.020508  -0.007086  -0.000822
              13
     1  C    0.033956
     2  F    0.000164
     3  F   -0.000488
     4  C    0.002719
     5  F    0.000028
     6  F    0.000032
     7  C   -0.140616
     8  C    0.249080
     9  F    0.019951
    10  F    0.020508
    11  F   -0.007086
    12  F   -0.000822
    13  F    9.111518
          Atomic-Atomic Spin Densities.
               1          2          3          4          5          6
     1  C    0.139124   0.006492   0.009195  -0.115035   0.004972   0.004814
     2  F    0.006492   0.002724   0.002853  -0.004653  -0.000554   0.000124
     3  F    0.009195   0.002853   0.006662  -0.011260   0.000403  -0.000206
     4  C   -0.115035  -0.004653  -0.011260   1.196809  -0.123213  -0.121136
     5  F    0.004972  -0.000554   0.000403  -0.123213   0.155073   0.011468
     6  F    0.004814   0.000124  -0.000206  -0.121136   0.011468   0.152484
     7  C   -0.045506  -0.004032  -0.007338   0.035454   0.000674   0.000903
     8  C   -0.000638  -0.001098  -0.000043   0.001451   0.000019   0.000006
     9  F   -0.001481  -0.000126  -0.000323  -0.000869  -0.000238   0.000329
    10  F    0.001221  -0.000156   0.000152  -0.000674   0.000096  -0.000413
    11  F   -0.000895  -0.000220  -0.000092   0.000221   0.000040   0.000011
    12  F   -0.000233  -0.000066  -0.000269   0.000154   0.000004   0.000018
    13  F   -0.000512  -0.000033  -0.000038   0.000099   0.000014   0.000016
               7          8          9         10         11         12
     1  C   -0.045506  -0.000638  -0.001481   0.001221  -0.000895  -0.000233
     2  F   -0.004032  -0.001098  -0.000126  -0.000156  -0.000220  -0.000066
     3  F   -0.007338  -0.000043  -0.000323   0.000152  -0.000092  -0.000269
     4  C    0.035454   0.001451  -0.000869  -0.000674   0.000221   0.000154
     5  F    0.000674   0.000019  -0.000238   0.000096   0.000040   0.000004
     6  F    0.000903   0.000006   0.000329  -0.000413   0.000011   0.000018
     7  C    0.055725  -0.005125   0.000600   0.000399   0.000695   0.000961
     8  C   -0.005125   0.017429   0.000181  -0.000946  -0.000085  -0.000201
     9  F    0.000600   0.000181   0.000028   0.000425   0.000234   0.000007
    10  F    0.000399  -0.000946   0.000425  -0.000251   0.000015   0.000042
    11  F    0.000695  -0.000085   0.000234   0.000015   0.000162  -0.000030
    12  F    0.000961  -0.000201   0.000007   0.000042  -0.000030  -0.000265
    13  F   -0.000473  -0.002948   0.000361   0.000367   0.000218   0.000161
              13
     1  C   -0.000512
     2  F   -0.000033
     3  F   -0.000038
     4  C    0.000099
     5  F    0.000014
     6  F    0.000016
     7  C   -0.000473
     8  C   -0.002948
     9  F    0.000361
    10  F    0.000367
    11  F    0.000218
    12  F    0.000161
    13  F    0.004876
 Mulliken charges and spin densities:
               1          2
     1  C    0.285974   0.001519
     2  F   -0.259706   0.001255
     3  F   -0.245571  -0.000304
     4  C    0.681775   0.857348
     5  F   -0.228345   0.048757
     6  F   -0.234428   0.048418
     7  C    0.309543   0.032937
     8  C    1.083013   0.008003
     9  F   -0.274112  -0.000872
    10  F   -0.265821   0.000277
    11  F   -0.277304   0.000274
    12  F   -0.286074   0.000280
    13  F   -0.288945   0.002109
 Sum of Mulliken charges =  -0.00000   1.00000
 Mulliken charges and spin densities with hydrogens summed into heavy atoms:
               1          2
     1  C    0.285974   0.001519
     2  F   -0.259706   0.001255
     3  F   -0.245571  -0.000304
     4  C    0.681775   0.857348
     5  F   -0.228345   0.048757
     6  F   -0.234428   0.048418
     7  C    0.309543   0.032937
     8  C    1.083013   0.008003
     9  F   -0.274112  -0.000872
    10  F   -0.265821   0.000277
    11  F   -0.277304   0.000274
    12  F   -0.286074   0.000280
    13  F   -0.288945   0.002109
 Electronic spatial extent (au):  <R**2>=           1907.1918
 Charge=              0.0000 electrons
 Dipole moment (field-independent basis, Debye):
    X=             -0.4954    Y=              0.1096    Z=             -0.0037  Tot=              0.5074
 Quadrupole moment (field-independent basis, Debye-Ang):
   XX=            -67.4772   YY=            -69.1201   ZZ=            -69.7098
   XY=             -0.5297   XZ=             -0.1255   YZ=              0.1397
 Traceless Quadrupole moment (field-independent basis, Debye-Ang):
   XX=              1.2919   YY=             -0.3511   ZZ=             -0.9408
   XY=             -0.5297   XZ=             -0.1255   YZ=              0.1397
 Octapole moment (field-independent basis, Debye-Ang**2):
  XXX=              1.4872  YYY=             -3.1002  ZZZ=             -1.0500  XYY=              1.0013
  XXY=              2.3197  XXZ=              0.4175  XZZ=              2.9191  YZZ=             -1.4959
  YYZ=             -0.4483  XYZ=             -0.3745
 Hexadecapole moment (field-independent basis, Debye-Ang**3):
 XXXX=          -1196.1476 YYYY=           -355.7254 ZZZZ=           -324.0056 XXXY=              3.9230
 XXXZ=              0.3136 YYYX=              9.4191 YYYZ=             -0.5930 ZZZX=              1.9483
 ZZZY=             -2.3229 XXYY=           -260.8759 XXZZ=           -260.5691 YYZZ=           -114.7289
 XXYZ=              0.7522 YYXZ=              1.0960 ZZXY=              1.9533
 N-N= 1.021458968839D+03 E-N=-4.540234587489D+03  KE= 1.048335240709D+03
                          Isotropic Fermi Contact Couplings
        Atom                 a.u.       MegaHertz       Gauss      10(-4) cm-1
     1  C(13)             -0.00383      -4.30530      -1.53624      -1.43609
     2  F(19)              0.00615      25.89036       9.23832       8.63609
     3  F(19)              0.00945      39.75856      14.18684      13.26203
     4  C(13)              0.33139     372.54526     132.93341     124.26772
     5  F(19)              0.05081     213.78996      76.28558      71.31266
     6  F(19)              0.05006     210.62717      75.15701      70.25766
     7  C(13)              0.01983      22.29181       7.95427       7.43575
     8  C(13)              0.01013      11.39205       4.06497       3.79998
     9  F(19)             -0.00057      -2.41196      -0.86065      -0.80454
    10  F(19)             -0.00025      -1.06021      -0.37831      -0.35365
    11  F(19)             -0.00019      -0.80581      -0.28753      -0.26879
    12  F(19)             -0.00034      -1.43434      -0.51181      -0.47844
    13  F(19)              0.00237       9.96924       3.55727       3.32538
 --------------------------------------------------------
       Center         ----  Spin Dipole Couplings  ----
                      3XX-RR        3YY-RR        3ZZ-RR
 --------------------------------------------------------
     1   Atom        0.055742     -0.017693     -0.038048
     2   Atom       -0.015317     -0.012504      0.027820
     3   Atom       -0.015245     -0.017406      0.032652
     4   Atom        0.016087      0.445896     -0.461983
     5   Atom        0.009818      0.326994     -0.336812
     6   Atom        0.011989      0.396680     -0.408669
     7   Atom        0.012721      0.013642     -0.026364
     8   Atom        0.013352     -0.004635     -0.008716
     9   Atom        0.004231     -0.003258     -0.000973
    10   Atom        0.003859     -0.002142     -0.001717
    11   Atom        0.001561      0.000901     -0.002462
    12   Atom        0.001641      0.000328     -0.001969
    13   Atom        0.026410     -0.013318     -0.013093
 --------------------------------------------------------
                        XY            XZ            YZ
 --------------------------------------------------------
     1   Atom        0.061789      0.019829      0.009112
     2   Atom       -0.000415     -0.006163     -0.006891
     3   Atom       -0.003824      0.011534     -0.007539
     4   Atom       -0.730527     -0.199660      0.268022
     5   Atom       -0.551598     -0.242513      0.284932
     6   Atom       -0.594448     -0.068993      0.149713
     7   Atom       -0.040178     -0.007097      0.008087
     8   Atom        0.008809      0.000185      0.000172
     9   Atom       -0.006453      0.002452     -0.005929
    10   Atom       -0.009159     -0.006027      0.007433
    11   Atom        0.001831     -0.000059      0.000970
    12   Atom       -0.000055      0.000087     -0.000970
    13   Atom       -0.004789      0.000061     -0.000001
 --------------------------------------------------------


 ---------------------------------------------------------------------------------
              Anisotropic Spin Dipole Couplings in Principal Axis System
 ---------------------------------------------------------------------------------

       Atom             a.u.   MegaHertz   Gauss  10(-4) cm-1        Axes

              Baa    -0.0532    -7.132    -2.545    -2.379 -0.5089  0.8463  0.1575
     1 C(13)  Bbb    -0.0413    -5.544    -1.978    -1.849 -0.0604 -0.2177  0.9741
              Bcc     0.0945    12.677     4.523     4.228  0.8587  0.4862  0.1619
 
              Baa    -0.0168    -8.415    -3.003    -2.807  0.9031  0.3876  0.1848
     2 F(19)  Bbb    -0.0130    -6.535    -2.332    -2.180 -0.4085  0.9082  0.0916
              Bcc     0.0298    14.950     5.335     4.987 -0.1323 -0.1582  0.9785
 
              Baa    -0.0203   -10.210    -3.643    -3.406  0.6464  0.7623 -0.0322
     3 F(19)  Bbb    -0.0162    -8.137    -2.904    -2.714  0.7289 -0.6295 -0.2692
              Bcc     0.0365    18.348     6.547     6.120  0.2255 -0.1505  0.9625
 
              Baa    -0.5352   -71.819   -25.627   -23.956  0.0120 -0.2552  0.9668
     4 C(13)  Bbb    -0.5304   -71.173   -25.396   -23.741  0.8108  0.5683  0.1400
              Bcc     1.0656   142.993    51.023    47.697 -0.5852  0.7822  0.2137
 
              Baa    -0.4616  -231.819   -82.719   -77.326  0.4507 -0.0072  0.8926
     5 F(19)  Bbb    -0.3975  -199.613   -71.227   -66.584  0.6799  0.6507 -0.3381
              Bcc     0.8590   431.432   153.946   143.910 -0.5784  0.7593  0.2982
 
              Baa    -0.4573  -229.659   -81.948   -76.606 -0.4754 -0.4622  0.7486
     6 F(19)  Bbb    -0.3926  -197.184   -70.360   -65.774  0.6608  0.3742  0.6506
              Bcc     0.8499   426.843   152.308   142.380 -0.5809  0.8040  0.1275
 
              Baa    -0.0281    -3.776    -1.347    -1.259 -0.2655 -0.4230  0.8664
     7 C(13)  Bbb    -0.0266    -3.576    -1.276    -1.193  0.6669  0.5684  0.4818
              Bcc     0.0548     7.352     2.623     2.452 -0.6962  0.7057  0.1312
 
              Baa    -0.0087    -1.172    -0.418    -0.391  0.0575 -0.1649  0.9846
     8 C(13)  Bbb    -0.0082    -1.102    -0.393    -0.368 -0.3736  0.9110  0.1744
              Bcc     0.0169     2.274     0.812     0.759  0.9258  0.3779  0.0092
 
              Baa    -0.0092    -4.640    -1.656    -1.548  0.3002  0.8150  0.4955
     9 F(19)  Bbb    -0.0012    -0.587    -0.210    -0.196 -0.6170 -0.2303  0.7526
              Bcc     0.0104     5.228     1.865     1.744  0.7275 -0.5317  0.4337
 
              Baa    -0.0102    -5.121    -1.827    -1.708  0.3227  0.8135 -0.4838
    10 F(19)  Bbb    -0.0053    -2.676    -0.955    -0.893  0.6565  0.1759  0.7335
              Bcc     0.0155     7.797     2.782     2.601  0.6818 -0.5543 -0.4773
 
              Baa    -0.0028    -1.407    -0.502    -0.469  0.1463 -0.3180  0.9368
    11 F(19)  Bbb    -0.0004    -0.177    -0.063    -0.059 -0.6463  0.6862  0.3338
              Bcc     0.0032     1.583     0.565     0.528  0.7489  0.6543  0.1052
 
              Baa    -0.0023    -1.168    -0.417    -0.389 -0.0157  0.3429  0.9392
    12 F(19)  Bbb     0.0007     0.339     0.121     0.113  0.0842  0.9365 -0.3405
              Bcc     0.0016     0.828     0.295     0.276  0.9963 -0.0738  0.0436
 
              Baa    -0.0139    -6.974    -2.489    -2.326  0.1180  0.9930 -0.0081
    13 F(19)  Bbb    -0.0131    -6.575    -2.346    -2.193 -0.0005  0.0082  1.0000
              Bcc     0.0270    13.550     4.835     4.520  0.9930 -0.1180  0.0015
 

 ---------------------------------------------------------------------------------

 Calling FoFJK, ICntrl=      2127 FMM=F ISym2X=0 I1Cent= 0 IOpClX= 1 NMat=1 NMatS=1 NMatT=0.
 ***** Axes restored to original set *****
 -------------------------------------------------------------------
 Center     Atomic                   Forces (Hartrees/Bohr)
 Number     Number              X              Y              Z
 -------------------------------------------------------------------
      1        6           0.000068036    0.000086234   -0.000019908
      2        9          -0.000109349    0.000014460    0.000016232
      3        9          -0.000121550    0.000057750    0.000027933
      4        6           0.000066663   -0.000006168   -0.000003205
      5        9           0.000003823    0.000002834    0.000009872
      6        9          -0.000010846    0.000011753    0.000001899
      7        6           0.000032906   -0.000137978    0.000004074
      8        6          -0.000051447    0.000019940    0.000047073
      9        9          -0.000042812   -0.000078448   -0.000029017
     10        9          -0.000034854   -0.000055635    0.000040609
     11        9           0.000115221    0.000056403   -0.000020418
     12        9           0.000075584   -0.000015978   -0.000068849
     13        9           0.000008624    0.000044832   -0.000006294
 -------------------------------------------------------------------
 Cartesian Forces:  Max     0.000137978 RMS     0.000055133

 GradGradGradGradGradGradGradGradGradGradGradGradGradGradGradGradGradGrad
 Berny optimization.
 FormGI is forming the generalized inverse of G from B-inverse, IUseBI=4.
 Internal  Forces:  Max     0.000622147 RMS     0.000116868
 Search for a local minimum.
 Step number   1 out of a maximum of   67
 All quantities printed in internal units (Hartrees-Bohrs-Radians)
 Mixed Optimization -- En-DIIS/RFO-DIIS
 Second derivative matrix not updated -- first step.
 ITU=  0
     Eigenvalues ---    0.00230   0.00230   0.00523   0.03319   0.04944
     Eigenvalues ---    0.05983   0.06920   0.07811   0.08462   0.08874
     Eigenvalues ---    0.13538   0.14789   0.19474   0.20197   0.25000
     Eigenvalues ---    0.25000   0.25000   0.25000   0.25000   0.25000
     Eigenvalues ---    0.25000   0.26998   0.27227   0.30525   0.56674
     Eigenvalues ---    0.56722   0.56766   0.57236   0.60035   0.60384
     Eigenvalues ---    0.60663   0.63733   0.64025
 RFO step:  Lambda=-7.99289060D-06 EMin= 2.30000000D-03
 Linear search not attempted -- first point.
 Iteration  1 RMS(Cart)=  0.00876519 RMS(Int)=  0.00003925
 Iteration  2 RMS(Cart)=  0.00004478 RMS(Int)=  0.00000031
 Iteration  3 RMS(Cart)=  0.00000000 RMS(Int)=  0.00000031
 Variable       Old X    -DE/DX   Delta X   Delta X   Delta X     New X
                                 (Linear)    (Quad)   (Total)
    R1        2.53674   0.00004   0.00000   0.00007   0.00007   2.53680
    R2        2.53595   0.00001   0.00000   0.00001   0.00001   2.53597
    R3        2.86928   0.00005   0.00000   0.00018   0.00018   2.86946
    R4        2.94384   0.00004   0.00000   0.00016   0.00016   2.94400
    R5        2.47890   0.00001   0.00000   0.00001   0.00001   2.47892
    R6        2.48103  -0.00001   0.00000  -0.00002  -0.00002   2.48101
    R7        2.93860  -0.00011   0.00000  -0.00040  -0.00040   2.93820
    R8        2.53633   0.00000   0.00000   0.00001   0.00001   2.53633
    R9        2.53197   0.00000   0.00000   0.00001   0.00001   2.53197
   R10        2.50420  -0.00000   0.00000  -0.00001  -0.00001   2.50419
   R11        2.50638   0.00003   0.00000   0.00005   0.00005   2.50643
   R12        2.50913  -0.00004   0.00000  -0.00007  -0.00007   2.50906
    A1        1.91068  -0.00001   0.00000  -0.00058  -0.00058   1.91010
    A2        1.88091   0.00005   0.00000   0.00041   0.00041   1.88132
    A3        1.89801  -0.00014   0.00000  -0.00088  -0.00088   1.89714
    A4        1.88245   0.00004   0.00000   0.00063   0.00063   1.88308
    A5        1.89097  -0.00009   0.00000  -0.00046  -0.00046   1.89050
    A6        1.99969   0.00014   0.00000   0.00083   0.00083   2.00052
    A7        2.02246   0.00001   0.00000   0.00005   0.00005   2.02251
    A8        2.01813  -0.00002   0.00000  -0.00005  -0.00005   2.01807
    A9        1.95849   0.00001   0.00000   0.00006   0.00006   1.95855
   A10        2.02233  -0.00062   0.00000  -0.00271  -0.00271   2.01963
   A11        1.89169   0.00020   0.00000   0.00084   0.00084   1.89252
   A12        1.88740   0.00026   0.00000   0.00119   0.00119   1.88859
   A13        1.87669   0.00017   0.00000   0.00049   0.00049   1.87717
   A14        1.88241   0.00013   0.00000   0.00032   0.00032   1.88274
   A15        1.90076  -0.00013   0.00000  -0.00005  -0.00005   1.90071
   A16        1.93336  -0.00015   0.00000  -0.00063  -0.00063   1.93273
   A17        1.93352  -0.00016   0.00000  -0.00082  -0.00082   1.93270
   A18        1.89611   0.00011   0.00000   0.00062   0.00062   1.89673
   A19        1.90446   0.00011   0.00000   0.00006   0.00006   1.90452
   A20        1.89690   0.00007   0.00000   0.00063   0.00063   1.89753
   A21        1.89880   0.00003   0.00000   0.00019   0.00019   1.89899
    D1        0.87410  -0.00003   0.00000  -0.00023  -0.00023   0.87387
    D2       -3.06460  -0.00003   0.00000  -0.00013  -0.00013  -3.06473
    D3        2.93535   0.00001   0.00000  -0.00035  -0.00035   2.93500
    D4       -1.00335   0.00001   0.00000  -0.00025  -0.00025  -1.00360
    D5       -1.24081   0.00002   0.00000   0.00005   0.00005  -1.24076
    D6        1.10369   0.00002   0.00000   0.00015   0.00015   1.10383
    D7        0.91259  -0.00004   0.00000   0.00709   0.00709   0.91969
    D8       -1.19790  -0.00000   0.00000   0.00765   0.00765  -1.19024
    D9        3.02726  -0.00010   0.00000   0.00660   0.00660   3.03385
   D10       -1.16279   0.00010   0.00000   0.00854   0.00854  -1.15425
   D11        3.00990   0.00014   0.00000   0.00910   0.00910   3.01901
   D12        0.95187   0.00004   0.00000   0.00805   0.00805   0.95992
   D13        3.01807   0.00001   0.00000   0.00753   0.00753   3.02560
   D14        0.90758   0.00005   0.00000   0.00809   0.00809   0.91567
   D15       -1.15045  -0.00004   0.00000   0.00704   0.00703  -1.14342
   D16       -1.15595   0.00009   0.00000   0.01288   0.01288  -1.14307
   D17        0.96009   0.00001   0.00000   0.01198   0.01198   0.97206
   D18        3.04488   0.00002   0.00000   0.01210   0.01210   3.05698
   D19        0.96259   0.00007   0.00000   0.01253   0.01253   0.97512
   D20        3.07862  -0.00001   0.00000   0.01163   0.01163   3.09025
   D21       -1.11978   0.00000   0.00000   0.01176   0.01176  -1.10802
   D22        3.00991   0.00007   0.00000   0.01290   0.01290   3.02281
   D23       -1.15725  -0.00000   0.00000   0.01200   0.01200  -1.14525
   D24        0.92754   0.00000   0.00000   0.01213   0.01213   0.93967
         Item               Value     Threshold  Converged?
 Maximum Force            0.000622     0.000450     NO 
 RMS     Force            0.000117     0.000300     YES
 Maximum Displacement     0.024797     0.001800     NO 
 RMS     Displacement     0.008767     0.001200     NO 
 Predicted change in Energy=-4.003984D-06
 GradGradGradGradGradGradGradGradGradGradGradGradGradGradGradGradGradGrad

                          Input orientation:                          
 ---------------------------------------------------------------------
 Center     Atomic      Atomic             Coordinates (Angstroms)
 Number     Number       Type             X           Y           Z
 ---------------------------------------------------------------------
      1          6           0        0.765237    0.629407   -0.159661
      2          9           0        0.554386    1.596425    0.747260
      3          9           0        0.630617    1.137882   -1.394257
      4          6           0        2.198686    0.152921   -0.005106
      5          9           0        2.572575   -0.151307    1.214908
      6          9           0        2.599126   -0.736907   -0.883481
      7          6           0       -0.311742   -0.479625    0.033225
      8          6           0       -1.788202    0.007720    0.040548
      9          9           0       -0.082646   -1.094647    1.203987
     10          9           0       -0.177659   -1.370445   -0.958589
     11          9           0       -2.021652    0.781661    1.090580
     12          9           0       -2.065384    0.682821   -1.066973
     13          9           0       -2.585370   -1.052016    0.106616
 ---------------------------------------------------------------------
                    Distance matrix (angstroms):
                    1          2          3          4          5
     1  C    0.000000
     2  F    1.342419   0.000000
     3  F    1.341975   2.191386   0.000000
     4  C    1.518454   2.313759   2.314893   0.000000
     5  F    2.401130   2.710414   3.498707   1.311786   0.000000
     6  F    2.398724   3.504956   2.765999   1.312893   2.178731
     7  C    1.557896   2.360086   2.354161   2.589176   3.134239
     8  C    2.635646   2.917387   3.030943   3.989793   4.518937
     9  F    2.356014   2.802905   3.499114   2.867544   2.817838
    10  F    2.350903   3.499732   2.671108   2.979395   3.711358
    11  F    3.058273   2.723542   3.651827   4.405349   4.689649
    12  F    2.972958   3.315013   2.753655   4.426132   5.235782
    13  F    3.758278   4.157251   4.170234   4.934729   5.352008
                    6          7          8          9         10
     6  F    0.000000
     7  C    3.062629   0.000000
     8  C    4.544991   1.554829   0.000000
     9  F    3.417221   1.342170   2.340454   0.000000
    10  F    2.849131   1.339863   2.343386   2.182160   0.000000
    11  F    5.249243   2.373317   1.325161   2.700581   3.497279
    12  F    4.879236   2.374232   1.326346   3.499700   2.791263
    13  F    5.287588   2.345720   1.327736   2.733069   2.652005
                   11         12         13
    11  F    0.000000
    12  F    2.160258   0.000000
    13  F    2.156000   2.158091   0.000000
 Stoichiometry    C4F9(2)
 Framework group  C1[X(C4F9)]
 Deg. of freedom    33
 Full point group                 C1      NOp   1
 Largest Abelian subgroup         C1      NOp   1
 Largest concise Abelian subgroup C1      NOp   1
                         Standard orientation:                         
 ---------------------------------------------------------------------
 Center     Atomic      Atomic             Coordinates (Angstroms)
 Number     Number       Type             X           Y           Z
 ---------------------------------------------------------------------
      1          6           0       -0.765075    0.628614    0.163333
      2          9           0       -0.554610    1.600353   -0.738618
      3          9           0       -0.629711    1.130588    1.400506
      4          6           0       -2.198667    0.153114    0.007074
      5          9           0       -2.573267   -0.144664   -1.214312
      6          9           0       -2.598727   -0.741265    0.880989
      7          6           0        0.311664   -0.479516   -0.035967
      8          6           0        1.788179    0.007689   -0.041550
      9          9           0        0.081847   -1.088359   -1.209812
     10          9           0        0.178024   -1.375512    0.951233
     11          9           0        2.021140    0.787102   -1.087636
     12          9           0        2.066054    0.676936    1.069344
     13          9           0        2.585183   -1.051780   -0.113620
 ---------------------------------------------------------------------
 Rotational constants (GHZ):           1.3596804           0.6026159           0.5945919
 Standard basis: 6-311+G(2d,2p) (5D, 7F)
 There are   377 symmetry adapted cartesian basis functions of A   symmetry.
 There are   351 symmetry adapted basis functions of A   symmetry.
   351 basis functions,   546 primitive gaussians,   377 cartesian basis functions
    53 alpha electrons       52 beta electrons
       nuclear repulsion energy      1021.5623722655 Hartrees.
 NAtoms=   13 NActive=   13 NUniq=   13 SFac= 1.00D+00 NAtFMM=   60 NAOKFM=F Big=F
 Integral buffers will be    131072 words long.
 Raffenetti 2 integral format.
 Two-electron integral symmetry is turned on.
 Nuclear repulsion after empirical dispersion term =     1021.5551523325 Hartrees.
 One-electron integrals computed using PRISM.
 NBasis=   351 RedAO= T EigKep=  1.14D-05  NBF=   351
 NBsUse=   351 1.00D-06 EigRej= -1.00D+00 NBFU=   351
 Initial guess from the checkpoint file:  "c4_rad.chk"
 B after Tr=     0.000000    0.000000   -0.000000
         Rot=    0.999996   -0.002641   -0.000296    0.000050 Ang=  -0.30 deg.
 Initial guess <Sx>= 0.0000 <Sy>= 0.0000 <Sz>= 0.5000 <S**2>= 0.7528 S= 0.5014
 ExpMin= 4.38D-02 ExpMax= 1.14D+04 ExpMxC= 1.72D+03 IAcc=3 IRadAn=         5 AccDes= 0.00D+00
 Harris functional with IExCor= 4639 and IRadAn=       5 diagonalized for initial guess.
 HarFok:  IExCor= 4639 AccDes= 0.00D+00 IRadAn=         5 IDoV= 1 UseB2=F ITyADJ=14
 ICtDFT=  3500011 ScaDFX=  1.000000  1.000000  1.000000  1.000000
 FoFCou: FMM=F IPFlag=           0 FMFlag=      100000 FMFlg1=           0
         NFxFlg=           0 DoJE=T BraDBF=F KetDBF=T FulRan=T
         wScrn=  0.000000 ICntrl=       500 IOpCl=  0 I1Cent=   200000004 NGrid=           0
         NMat0=    1 NMatS0=      1 NMatT0=    0 NMatD0=    1 NMtDS0=    0 NMtDT0=    0
 Petite list used in FoFCou.
 Requested convergence on RMS density matrix=1.00D-08 within  32 cycles.
 Requested convergence on MAX density matrix=1.00D-06.
 Requested convergence on             energy=1.00D-06.
 No special actions if energy rises.
 SCF Done:  E(UwB97XD) =  -1050.98335492     A.U. after   10 cycles
            NFock= 10  Conv=0.37D-08     -V/T= 2.0025
 <Sx>= 0.0000 <Sy>= 0.0000 <Sz>= 0.5000 <S**2>= 0.7528 S= 0.5014
 <L.S>= 0.000000000000E+00
 Annihilation of the first spin contaminant:
 S**2 before annihilation     0.7528,   after     0.7500
 QCSCF skips out because SCF is already converged.
 Calling FoFJK, ICntrl=      2127 FMM=F ISym2X=0 I1Cent= 0 IOpClX= 1 NMat=1 NMatS=1 NMatT=0.
 ***** Axes restored to original set *****
 -------------------------------------------------------------------
 Center     Atomic                   Forces (Hartrees/Bohr)
 Number     Number              X              Y              Z
 -------------------------------------------------------------------
      1        6           0.000007188    0.000038667    0.000089396
      2        9           0.000145693   -0.000019970    0.000012526
      3        9           0.000047198   -0.000016169   -0.000043408
      4        6          -0.000010615    0.000066478   -0.000055674
      5        9          -0.000044653   -0.000027548    0.000010112
      6        9          -0.000000462    0.000012654    0.000006798
      7        6          -0.000028511   -0.000075353    0.000045123
      8        6           0.000069252    0.000009729   -0.000029000
      9        9           0.000037064    0.000044282   -0.000095636
     10        9          -0.000015283   -0.000011946    0.000045050
     11        9          -0.000146267   -0.000042657    0.000023649
     12        9          -0.000067251   -0.000055391   -0.000007634
     13        9           0.000006646    0.000077223   -0.000001300
 -------------------------------------------------------------------
 Cartesian Forces:  Max     0.000146267 RMS     0.000053819

 GradGradGradGradGradGradGradGradGradGradGradGradGradGradGradGradGradGrad
 Berny optimization.
 Using GEDIIS/GDIIS optimizer.
 FormGI is forming the generalized inverse of G from B-inverse, IUseBI=4.
 Internal  Forces:  Max     0.000274453 RMS     0.000076674
 Search for a local minimum.
 Step number   2 out of a maximum of   67
 All quantities printed in internal units (Hartrees-Bohrs-Radians)
 Mixed Optimization -- En-DIIS/RFO-DIIS
 Swapping is turned off.
 Update second derivatives using D2CorX and points    1    2
 DE= -3.28D-06 DEPred=-4.00D-06 R= 8.20D-01
 TightC=F SS=  1.41D+00  RLast= 4.36D-02 DXNew= 5.0454D-01 1.3088D-01
 Trust test= 8.20D-01 RLast= 4.36D-02 DXMaxT set to 3.00D-01
 ITU=  1  0
     Eigenvalues ---    0.00150   0.00256   0.00533   0.03326   0.04971
     Eigenvalues ---    0.05976   0.07060   0.07969   0.08842   0.08954
     Eigenvalues ---    0.13520   0.15374   0.19309   0.20225   0.24498
     Eigenvalues ---    0.25000   0.25000   0.25000   0.25000   0.25000
     Eigenvalues ---    0.26647   0.27129   0.30342   0.35345   0.56672
     Eigenvalues ---    0.56763   0.56971   0.57270   0.60043   0.60396
     Eigenvalues ---    0.60674   0.63732   0.64025
 En-DIIS/RFO-DIIS/Sim-DIIS IScMMF=       -3 using points:     2    1
 RFO step:  Lambda=-2.59106300D-06.
 DidBck=F Rises=F RFO-DIIS coefs:    1.47587   -0.47587
 Iteration  1 RMS(Cart)=  0.00669502 RMS(Int)=  0.00001550
 Iteration  2 RMS(Cart)=  0.00001936 RMS(Int)=  0.00000018
 Iteration  3 RMS(Cart)=  0.00000000 RMS(Int)=  0.00000018
 Variable       Old X    -DE/DX   Delta X   Delta X   Delta X     New X
                                 (Linear)    (Quad)   (Total)
    R1        2.53680  -0.00003   0.00003  -0.00006  -0.00002   2.53678
    R2        2.53597   0.00003   0.00001   0.00004   0.00005   2.53602
    R3        2.86946  -0.00007   0.00008  -0.00024  -0.00015   2.86931
    R4        2.94400   0.00014   0.00008   0.00042   0.00049   2.94449
    R5        2.47892   0.00000   0.00001   0.00000   0.00001   2.47892
    R6        2.48101  -0.00001  -0.00001  -0.00001  -0.00002   2.48099
    R7        2.93820   0.00013  -0.00019   0.00048   0.00029   2.93849
    R8        2.53633  -0.00010   0.00000  -0.00015  -0.00015   2.53618
    R9        2.53197  -0.00003   0.00000  -0.00004  -0.00004   2.53193
   R10        2.50419   0.00002  -0.00000   0.00003   0.00003   2.50422
   R11        2.50643  -0.00001   0.00003  -0.00002   0.00000   2.50643
   R12        2.50906  -0.00007  -0.00003  -0.00008  -0.00012   2.50894
    A1        1.91010   0.00002  -0.00027   0.00047   0.00020   1.91030
    A2        1.88132  -0.00009   0.00020  -0.00063  -0.00044   1.88088
    A3        1.89714   0.00012  -0.00042   0.00079   0.00038   1.89751
    A4        1.88308  -0.00003   0.00030  -0.00046  -0.00016   1.88293
    A5        1.89050   0.00004  -0.00022   0.00031   0.00009   1.89059
    A6        2.00052  -0.00005   0.00039  -0.00045  -0.00006   2.00046
    A7        2.02251  -0.00008   0.00002  -0.00044  -0.00042   2.02209
    A8        2.01807   0.00002  -0.00003  -0.00009  -0.00011   2.01796
    A9        1.95855   0.00002   0.00003  -0.00017  -0.00014   1.95842
   A10        2.01963   0.00027  -0.00129   0.00163   0.00035   2.01997
   A11        1.89252  -0.00013   0.00040  -0.00055  -0.00015   1.89237
   A12        1.88859  -0.00004   0.00057  -0.00038   0.00018   1.88877
   A13        1.87717  -0.00001   0.00023   0.00012   0.00036   1.87753
   A14        1.88274  -0.00012   0.00015  -0.00053  -0.00037   1.88237
   A15        1.90071   0.00002  -0.00002  -0.00039  -0.00041   1.90030
   A16        1.93273   0.00022  -0.00030   0.00101   0.00070   1.93343
   A17        1.93270   0.00006  -0.00039   0.00043   0.00004   1.93274
   A18        1.89673  -0.00000   0.00029  -0.00034  -0.00005   1.89668
   A19        1.90452  -0.00007   0.00003   0.00017   0.00020   1.90472
   A20        1.89753  -0.00013   0.00030  -0.00073  -0.00044   1.89709
   A21        1.89899  -0.00008   0.00009  -0.00058  -0.00049   1.89850
    D1        0.87387   0.00007  -0.00011   0.00320   0.00309   0.87696
    D2       -3.06473   0.00003  -0.00006   0.00232   0.00226  -3.06247
    D3        2.93500   0.00002  -0.00017   0.00317   0.00300   2.93800
    D4       -1.00360  -0.00001  -0.00012   0.00229   0.00217  -1.00143
    D5       -1.24076   0.00001   0.00002   0.00294   0.00297  -1.23779
    D6        1.10383  -0.00002   0.00007   0.00206   0.00213   1.10597
    D7        0.91969   0.00010   0.00338   0.00614   0.00952   0.92920
    D8       -1.19024   0.00003   0.00364   0.00529   0.00894  -1.18131
    D9        3.03385   0.00010   0.00314   0.00627   0.00941   3.04326
   D10       -1.15425  -0.00001   0.00407   0.00495   0.00902  -1.14523
   D11        3.01901  -0.00008   0.00433   0.00411   0.00844   3.02745
   D12        0.95992  -0.00001   0.00383   0.00508   0.00891   0.96883
   D13        3.02560   0.00004   0.00358   0.00561   0.00919   3.03479
   D14        0.91567  -0.00004   0.00385   0.00476   0.00861   0.92428
   D15       -1.14342   0.00003   0.00335   0.00574   0.00908  -1.13433
   D16       -1.14307  -0.00004   0.00613  -0.00387   0.00226  -1.14081
   D17        0.97206   0.00006   0.00570  -0.00269   0.00301   0.97507
   D18        3.05698  -0.00000   0.00576  -0.00335   0.00240   3.05938
   D19        0.97512  -0.00003   0.00596  -0.00340   0.00256   0.97768
   D20        3.09025   0.00007   0.00553  -0.00222   0.00331   3.09356
   D21       -1.10802   0.00000   0.00559  -0.00289   0.00271  -1.10532
   D22        3.02281  -0.00007   0.00614  -0.00407   0.00207   3.02488
   D23       -1.14525   0.00003   0.00571  -0.00289   0.00282  -1.14242
   D24        0.93967  -0.00004   0.00577  -0.00355   0.00222   0.94188
         Item               Value     Threshold  Converged?
 Maximum Force            0.000274     0.000450     YES
 RMS     Force            0.000077     0.000300     YES
 Maximum Displacement     0.015934     0.001800     NO 
 RMS     Displacement     0.006695     0.001200     NO 
 Predicted change in Energy=-1.295984D-06
 GradGradGradGradGradGradGradGradGradGradGradGradGradGradGradGradGradGrad

                          Input orientation:                          
 ---------------------------------------------------------------------
 Center     Atomic      Atomic             Coordinates (Angstroms)
 Number     Number       Type             X           Y           Z
 ---------------------------------------------------------------------
      1          6           0        0.765569    0.630450   -0.156025
      2          9           0        0.558907    1.594642    0.754842
      3          9           0        0.627448    1.143014   -1.388570
      4          6           0        2.199125    0.152562   -0.007726
      5          9           0        2.575241   -0.159110    1.209726
      6          9           0        2.596760   -0.732740   -0.891912
      7          6           0       -0.311617   -0.478765    0.036751
      8          6           0       -1.788668    0.007329    0.037826
      9          9           0       -0.085437   -1.090415    1.209754
     10          9           0       -0.174084   -1.372577   -0.951865
     11          9           0       -2.026341    0.786603    1.082973
     12          9           0       -2.063964    0.675646   -1.074272
     13          9           0       -2.584966   -1.052750    0.107556
 ---------------------------------------------------------------------
                    Distance matrix (angstroms):
                    1          2          3          4          5
     1  C    0.000000
     2  F    1.342406   0.000000
     3  F    1.342001   2.191548   0.000000
     4  C    1.518372   2.313314   2.314713   0.000000
     5  F    2.400748   2.710750   3.498652   1.311789   0.000000
     6  F    2.398557   3.504475   2.764654   1.312881   2.178623
     7  C    1.558156   2.360611   2.354475   2.589282   3.132411
     8  C    2.636282   2.923146   3.026880   3.990697   4.521587
     9  F    2.356043   2.798510   3.499671   2.871667   2.818960
    10  F    2.351261   3.500645   2.676072   2.974823   3.701860
    11  F    3.058474   2.728389   3.643920   4.409785   4.699468
    12  F    2.975143   3.327111   2.749711   4.425502   5.237908
    13  F    3.758818   4.160721   4.168858   4.934936   5.351738
                    6          7          8          9         10
     6  F    0.000000
     7  C    3.063588   0.000000
     8  C    4.543576   1.554981   0.000000
     9  F    3.426238   1.342091   2.340823   0.000000
    10  F    2.844392   1.339842   2.343183   2.181758   0.000000
    11  F    5.251822   2.374029   1.325175   2.703032   3.497639
    12  F    4.872284   2.374396   1.326348   3.500045   2.789596
    13  F    5.286929   2.345759   1.327674   2.732014   2.652736
                   11         12         13
    11  F    0.000000
    12  F    2.160424   0.000000
    13  F    2.155624   2.157664   0.000000
 Stoichiometry    C4F9(2)
 Framework group  C1[X(C4F9)]
 Deg. of freedom    33
 Full point group                 C1      NOp   1
 Largest Abelian subgroup         C1      NOp   1
 Largest concise Abelian subgroup C1      NOp   1
                         Standard orientation:                         
 ---------------------------------------------------------------------
 Center     Atomic      Atomic             Coordinates (Angstroms)
 Number     Number       Type             X           Y           Z
 ---------------------------------------------------------------------
      1          6           0       -0.765428    0.630566    0.156204
      2          9           0       -0.559129    1.594566   -0.754947
      3          9           0       -0.626605    1.143339    1.388584
      4          6           0       -2.199117    0.152818    0.008740
      5          9           0       -2.575903   -0.159033   -1.208459
      6          9           0       -2.596394   -0.732276    0.893295
      7          6           0        0.311528   -0.478811   -0.036930
      8          6           0        1.788634    0.007110   -0.038864
      9          9           0        0.084665   -1.090649   -1.209703
     10          9           0        0.174406   -1.372426    0.951921
     11          9           0        2.025854    0.786165   -1.084277
     12          9           0        2.064588    0.675599    1.072968
     13          9           0        2.584772   -1.053074   -0.108815
 ---------------------------------------------------------------------
 Rotational constants (GHZ):           1.3599336           0.6024388           0.5944074
 Standard basis: 6-311+G(2d,2p) (5D, 7F)
 There are   377 symmetry adapted cartesian basis functions of A   symmetry.
 There are   351 symmetry adapted basis functions of A   symmetry.
   351 basis functions,   546 primitive gaussians,   377 cartesian basis functions
    53 alpha electrons       52 beta electrons
       nuclear repulsion energy      1021.5032558095 Hartrees.
 NAtoms=   13 NActive=   13 NUniq=   13 SFac= 1.00D+00 NAtFMM=   60 NAOKFM=F Big=F
 Integral buffers will be    131072 words long.
 Raffenetti 2 integral format.
 Two-electron integral symmetry is turned on.
 Nuclear repulsion after empirical dispersion term =     1021.4960366330 Hartrees.
 One-electron integrals computed using PRISM.
 NBasis=   351 RedAO= T EigKep=  1.13D-05  NBF=   351
 NBsUse=   351 1.00D-06 EigRej= -1.00D+00 NBFU=   351
 Initial guess from the checkpoint file:  "c4_rad.chk"
 B after Tr=    -0.000000   -0.000000    0.000000
         Rot=    0.999996    0.002712    0.000013   -0.000002 Ang=   0.31 deg.
 Initial guess <Sx>= 0.0000 <Sy>= 0.0000 <Sz>= 0.5000 <S**2>= 0.7528 S= 0.5014
 Requested convergence on RMS density matrix=1.00D-08 within  32 cycles.
 Requested convergence on MAX density matrix=1.00D-06.
 Requested convergence on             energy=1.00D-06.
 No special actions if energy rises.
 SCF Done:  E(UwB97XD) =  -1050.98335656     A.U. after    9 cycles
            NFock=  9  Conv=0.82D-08     -V/T= 2.0025
 <Sx>= 0.0000 <Sy>= 0.0000 <Sz>= 0.5000 <S**2>= 0.7528 S= 0.5014
 <L.S>= 0.000000000000E+00
 Annihilation of the first spin contaminant:
 S**2 before annihilation     0.7528,   after     0.7500
 QCSCF skips out because SCF is already converged.
 Calling FoFJK, ICntrl=      2127 FMM=F ISym2X=0 I1Cent= 0 IOpClX= 1 NMat=1 NMatS=1 NMatT=0.
 ***** Axes restored to original set *****
 -------------------------------------------------------------------
 Center     Atomic                   Forces (Hartrees/Bohr)
 Number     Number              X              Y              Z
 -------------------------------------------------------------------
      1        6          -0.000014043    0.000000506    0.000068587
      2        9          -0.000011917   -0.000057782   -0.000011671
      3        9           0.000040542   -0.000012902   -0.000033702
      4        6          -0.000032496   -0.000066242   -0.000065181
      5        9          -0.000001515   -0.000020126    0.000043754
      6        9           0.000056439    0.000040184   -0.000006888
      7        6           0.000002149    0.000040592    0.000147441
      8        6          -0.000035017   -0.000019593   -0.000074414
      9        9           0.000012239    0.000097186   -0.000044699
     10        9          -0.000019646    0.000030312   -0.000067096
     11        9           0.000016547    0.000029764   -0.000008658
     12        9          -0.000020837    0.000000043    0.000032957
     13        9           0.000007555   -0.000061943    0.000019569
 -------------------------------------------------------------------
 Cartesian Forces:  Max     0.000147441 RMS     0.000046215

 GradGradGradGradGradGradGradGradGradGradGradGradGradGradGradGradGradGrad
 Berny optimization.
 Using GEDIIS/GDIIS optimizer.
 FormGI is forming the generalized inverse of G from B-inverse, IUseBI=4.
 Internal  Forces:  Max     0.000221709 RMS     0.000051350
 Search for a local minimum.
 Step number   3 out of a maximum of   67
 All quantities printed in internal units (Hartrees-Bohrs-Radians)
 Mixed Optimization -- En-DIIS/RFO-DIIS
 Swapping is turned off.
 Update second derivatives using D2CorX and points    1    2    3
 DE= -1.63D-06 DEPred=-1.30D-06 R= 1.26D+00
 TightC=F SS=  1.41D+00  RLast= 2.90D-02 DXNew= 5.0454D-01 8.6868D-02
 Trust test= 1.26D+00 RLast= 2.90D-02 DXMaxT set to 3.00D-01
 ITU=  1  1  0
     Eigenvalues ---    0.00060   0.00321   0.00560   0.03528   0.05016
     Eigenvalues ---    0.05999   0.07188   0.07972   0.08875   0.09181
     Eigenvalues ---    0.13577   0.15530   0.19015   0.20925   0.24720
     Eigenvalues ---    0.25000   0.25000   0.25000   0.25000   0.26262
     Eigenvalues ---    0.27123   0.29784   0.33311   0.34132   0.56604
     Eigenvalues ---    0.56758   0.56804   0.57385   0.60356   0.60662
     Eigenvalues ---    0.60773   0.63728   0.64204
 En-DIIS/RFO-DIIS/Sim-DIIS IScMMF=       -3 using points:     3    2    1
 RFO step:  Lambda=-3.03611531D-06.
 DidBck=F Rises=F RFO-DIIS coefs:    1.66798    0.03368   -0.70166
 Iteration  1 RMS(Cart)=  0.01045288 RMS(Int)=  0.00005160
 Iteration  2 RMS(Cart)=  0.00005790 RMS(Int)=  0.00000016
 Iteration  3 RMS(Cart)=  0.00000000 RMS(Int)=  0.00000016
 Variable       Old X    -DE/DX   Delta X   Delta X   Delta X     New X
                                 (Linear)    (Quad)   (Total)
    R1        2.53678  -0.00005   0.00003  -0.00012  -0.00009   2.53669
    R2        2.53602   0.00002   0.00004   0.00005   0.00009   2.53611
    R3        2.86931   0.00003   0.00002  -0.00002   0.00001   2.86931
    R4        2.94449  -0.00006   0.00044  -0.00013   0.00031   2.94480
    R5        2.47892   0.00004   0.00001   0.00007   0.00008   2.47900
    R6        2.48099  -0.00000  -0.00003  -0.00001  -0.00003   2.48095
    R7        2.93849   0.00001  -0.00009   0.00031   0.00022   2.93871
    R8        2.53618  -0.00008  -0.00009  -0.00019  -0.00028   2.53590
    R9        2.53193   0.00003  -0.00002   0.00003   0.00001   2.53194
   R10        2.50422   0.00001   0.00001   0.00002   0.00004   2.50426
   R11        2.50643  -0.00002   0.00004  -0.00006  -0.00002   2.50641
   R12        2.50894   0.00005  -0.00013   0.00007  -0.00005   2.50889
    A1        1.91030   0.00002  -0.00027   0.00058   0.00030   1.91060
    A2        1.88088   0.00003  -0.00000  -0.00032  -0.00032   1.88056
    A3        1.89751  -0.00006  -0.00036   0.00012  -0.00024   1.89727
    A4        1.88293  -0.00004   0.00034  -0.00046  -0.00013   1.88280
    A5        1.89059   0.00006  -0.00027   0.00060   0.00033   1.89093
    A6        2.00046  -0.00000   0.00054  -0.00047   0.00007   2.00053
    A7        2.02209  -0.00004  -0.00025  -0.00010  -0.00034   2.02174
    A8        2.01796   0.00010  -0.00011   0.00061   0.00050   2.01845
    A9        1.95842  -0.00002  -0.00005   0.00015   0.00011   1.95852
   A10        2.01997   0.00022  -0.00167   0.00214   0.00047   2.02045
   A11        1.89237  -0.00012   0.00048  -0.00106  -0.00057   1.89180
   A12        1.88877  -0.00005   0.00096  -0.00060   0.00036   1.88913
   A13        1.87753  -0.00004   0.00058  -0.00026   0.00032   1.87785
   A14        1.88237  -0.00009  -0.00002  -0.00054  -0.00056   1.88180
   A15        1.90030   0.00007  -0.00031   0.00028  -0.00003   1.90027
   A16        1.93343  -0.00002   0.00003   0.00037   0.00039   1.93382
   A17        1.93274   0.00007  -0.00055   0.00068   0.00013   1.93287
   A18        1.89668  -0.00008   0.00040  -0.00060  -0.00020   1.89648
   A19        1.90472  -0.00003   0.00018  -0.00009   0.00009   1.90481
   A20        1.89709   0.00004   0.00015  -0.00030  -0.00015   1.89694
   A21        1.89850   0.00002  -0.00019  -0.00009  -0.00028   1.89822
    D1        0.87696  -0.00002   0.00190   0.00474   0.00664   0.88360
    D2       -3.06247   0.00002   0.00142   0.00557   0.00699  -3.05548
    D3        2.93800  -0.00000   0.00176   0.00500   0.00676   2.94476
    D4       -1.00143   0.00004   0.00127   0.00583   0.00710  -0.99433
    D5       -1.23779   0.00004   0.00202   0.00513   0.00714  -1.23065
    D6        1.10597   0.00007   0.00153   0.00595   0.00748   1.11345
    D7        0.92920   0.00002   0.01133  -0.00057   0.01077   0.93997
    D8       -1.18131   0.00001   0.01134  -0.00087   0.01047  -1.17084
    D9        3.04326   0.00001   0.01091  -0.00029   0.01063   3.05389
   D10       -1.14523  -0.00001   0.01202  -0.00167   0.01035  -1.13487
   D11        3.02745  -0.00002   0.01203  -0.00197   0.01006   3.03750
   D12        0.96883  -0.00001   0.01160  -0.00139   0.01021   0.97904
   D13        3.03479   0.00001   0.01143  -0.00120   0.01022   3.04502
   D14        0.92428  -0.00000   0.01143  -0.00150   0.00993   0.93421
   D15       -1.13433   0.00000   0.01100  -0.00092   0.01008  -1.12425
   D16       -1.14081   0.00003   0.01055   0.00006   0.01061  -1.13020
   D17        0.97507   0.00002   0.01042   0.00066   0.01108   0.98615
   D18        3.05938   0.00004   0.01010   0.00059   0.01069   3.07007
   D19        0.97768  -0.00001   0.01051  -0.00008   0.01042   0.98810
   D20        3.09356  -0.00001   0.01037   0.00051   0.01089   3.10445
   D21       -1.10532   0.00000   0.01006   0.00044   0.01050  -1.09482
   D22        3.02488   0.00001   0.01044  -0.00018   0.01026   3.03514
   D23       -1.14242   0.00001   0.01031   0.00042   0.01072  -1.13170
   D24        0.94188   0.00002   0.00999   0.00035   0.01033   0.95222
         Item               Value     Threshold  Converged?
 Maximum Force            0.000222     0.000450     YES
 RMS     Force            0.000051     0.000300     YES
 Maximum Displacement     0.028242     0.001800     NO 
 RMS     Displacement     0.010452     0.001200     NO 
 Predicted change in Energy=-1.439539D-06
 GradGradGradGradGradGradGradGradGradGradGradGradGradGradGradGradGradGrad

                          Input orientation:                          
 ---------------------------------------------------------------------
 Center     Atomic      Atomic             Coordinates (Angstroms)
 Number     Number       Type             X           Y           Z
 ---------------------------------------------------------------------
      1          6           0        0.765862    0.631594   -0.150776
      2          9           0        0.563055    1.591025    0.765896
      3          9           0        0.624399    1.150588   -1.380301
      4          6           0        2.199556    0.152008   -0.009420
      5          9           0        2.576469   -0.173608    1.204175
      6          9           0        2.597001   -0.722739   -0.904107
      7          6           0       -0.311670   -0.477831    0.040168
      8          6           0       -1.789289    0.006878    0.034256
      9          9           0       -0.089144   -1.086428    1.215283
     10          9           0       -0.170175   -1.373976   -0.945780
     11          9           0       -2.028908    0.798818    1.069416
     12          9           0       -2.064775    0.660701   -1.086365
     13          9           0       -2.584409   -1.053142    0.116613
 ---------------------------------------------------------------------
                    Distance matrix (angstroms):
                    1          2          3          4          5
     1  C    0.000000
     2  F    1.342358   0.000000
     3  F    1.342050   2.191782   0.000000
     4  C    1.518375   2.313011   2.314648   0.000000
     5  F    2.400529   2.712905   3.499083   1.311831   0.000000
     6  F    2.398916   3.504190   2.761751   1.312863   2.178719
     7  C    1.558319   2.360506   2.354932   2.589481   3.128707
     8  C    2.636912   2.928881   3.022405   3.991723   4.523398
     9  F    2.355579   2.792144   3.500063   2.876069   2.817598
    10  F    2.351703   3.501241   2.682085   2.970020   3.688800
    11  F    3.054107   2.727268   3.628346   4.411594   4.708850
    12  F    2.981389   3.346919   2.749190   4.427539   5.242499
    13  F    3.759542   4.161697   4.170567   4.935038   5.347059
                    6          7          8          9         10
     6  F    0.000000
     7  C    3.067898   0.000000
     8  C    4.544491   1.555100   0.000000
     9  F    3.440851   1.341941   2.341076   0.000000
    10  F    2.843080   1.339847   2.342809   2.181615   0.000000
    11  F    5.254423   2.374466   1.325196   2.708895   3.498133
    12  F    4.866136   2.374597   1.326337   3.500452   2.783736
    13  F    5.291318   2.345671   1.327645   2.726634   2.657093
                   11         12         13
    11  F    0.000000
    12  F    2.160499   0.000000
    13  F    2.155498   2.157414   0.000000
 Stoichiometry    C4F9(2)
 Framework group  C1[X(C4F9)]
 Deg. of freedom    33
 Full point group                 C1      NOp   1
 Largest Abelian subgroup         C1      NOp   1
 Largest concise Abelian subgroup C1      NOp   1
                         Standard orientation:                         
 ---------------------------------------------------------------------
 Center     Atomic      Atomic             Coordinates (Angstroms)
 Number     Number       Type             X           Y           Z
 ---------------------------------------------------------------------
      1          6           0       -0.765674    0.634073    0.141006
      2          9           0       -0.562941    1.579111   -0.790512
      3          9           0       -0.623674    1.172051    1.362282
      4          6           0       -2.199531    0.152706    0.007585
      5          9           0       -2.576929   -0.191611   -1.200686
      6          9           0       -2.596889   -0.707952    0.915870
      7          6           0        0.311525   -0.478449   -0.033052
      8          6           0        1.789263    0.005927   -0.035151
      9          9           0        0.088459   -1.105155   -1.198507
     10          9           0        0.170142   -1.359149    0.966732
     11          9           0        2.028729    0.781647   -1.082557
     12          9           0        2.065283    0.676995    1.075097
     13          9           0        2.584099   -1.055441   -0.101310
 ---------------------------------------------------------------------
 Rotational constants (GHZ):           1.3603512           0.6021149           0.5942313
 Standard basis: 6-311+G(2d,2p) (5D, 7F)
 There are   377 symmetry adapted cartesian basis functions of A   symmetry.
 There are   351 symmetry adapted basis functions of A   symmetry.
   351 basis functions,   546 primitive gaussians,   377 cartesian basis functions
    53 alpha electrons       52 beta electrons
       nuclear repulsion energy      1021.4326303639 Hartrees.
 NAtoms=   13 NActive=   13 NUniq=   13 SFac= 1.00D+00 NAtFMM=   60 NAOKFM=F Big=F
 Integral buffers will be    131072 words long.
 Raffenetti 2 integral format.
 Two-electron integral symmetry is turned on.
 Nuclear repulsion after empirical dispersion term =     1021.4254129767 Hartrees.
 One-electron integrals computed using PRISM.
 NBasis=   351 RedAO= T EigKep=  1.12D-05  NBF=   351
 NBsUse=   351 1.00D-06 EigRej= -1.00D+00 NBFU=   351
 Initial guess from the checkpoint file:  "c4_rad.chk"
 B after Tr=    -0.000000    0.000000   -0.000000
         Rot=    0.999971    0.007655    0.000073    0.000063 Ang=   0.88 deg.
 Initial guess <Sx>= 0.0000 <Sy>= 0.0000 <Sz>= 0.5000 <S**2>= 0.7528 S= 0.5014
 ExpMin= 4.38D-02 ExpMax= 1.14D+04 ExpMxC= 1.72D+03 IAcc=3 IRadAn=         5 AccDes= 0.00D+00
 Harris functional with IExCor= 4639 and IRadAn=       5 diagonalized for initial guess.
 HarFok:  IExCor= 4639 AccDes= 0.00D+00 IRadAn=         5 IDoV= 1 UseB2=F ITyADJ=14
 ICtDFT=  3500011 ScaDFX=  1.000000  1.000000  1.000000  1.000000
 FoFCou: FMM=F IPFlag=           0 FMFlag=      100000 FMFlg1=           0
         NFxFlg=           0 DoJE=T BraDBF=F KetDBF=T FulRan=T
         wScrn=  0.000000 ICntrl=       500 IOpCl=  0 I1Cent=   200000004 NGrid=           0
         NMat0=    1 NMatS0=      1 NMatT0=    0 NMatD0=    1 NMtDS0=    0 NMtDT0=    0
 Petite list used in FoFCou.
 Requested convergence on RMS density matrix=1.00D-08 within  32 cycles.
 Requested convergence on MAX density matrix=1.00D-06.
 Requested convergence on             energy=1.00D-06.
 No special actions if energy rises.
 SCF Done:  E(UwB97XD) =  -1050.98335862     A.U. after    9 cycles
            NFock=  9  Conv=0.83D-08     -V/T= 2.0025
 <Sx>= 0.0000 <Sy>= 0.0000 <Sz>= 0.5000 <S**2>= 0.7528 S= 0.5014
 <L.S>= 0.000000000000E+00
 Annihilation of the first spin contaminant:
 S**2 before annihilation     0.7528,   after     0.7500
 QCSCF skips out because SCF is already converged.
 Calling FoFJK, ICntrl=      2127 FMM=F ISym2X=0 I1Cent= 0 IOpClX= 1 NMat=1 NMatS=1 NMatT=0.
 ***** Axes restored to original set *****
 -------------------------------------------------------------------
 Center     Atomic                   Forces (Hartrees/Bohr)
 Number     Number              X              Y              Z
 -------------------------------------------------------------------
      1        6          -0.000032545   -0.000102595    0.000018161
      2        9          -0.000045015   -0.000037729   -0.000030946
      3        9           0.000023470   -0.000007224    0.000012646
      4        6          -0.000043111   -0.000084983   -0.000090524
      5        9           0.000033447   -0.000026881    0.000025312
      6        9           0.000033234    0.000055945    0.000034128
      7        6           0.000000308    0.000196400    0.000160525
      8        6          -0.000045603   -0.000024926   -0.000093985
      9        9          -0.000036377    0.000093923    0.000020727
     10        9           0.000015559    0.000009575   -0.000139439
     11        9           0.000051325    0.000052354   -0.000006905
     12        9           0.000042238    0.000018216    0.000076071
     13        9           0.000003071   -0.000142074    0.000014230
 -------------------------------------------------------------------
 Cartesian Forces:  Max     0.000196400 RMS     0.000068349

 GradGradGradGradGradGradGradGradGradGradGradGradGradGradGradGradGradGrad
 Berny optimization.
 Using GEDIIS/GDIIS optimizer.
 FormGI is forming the generalized inverse of G from B-inverse, IUseBI=4.
 Internal  Forces:  Max     0.000230357 RMS     0.000062999
 Search for a local minimum.
 Step number   4 out of a maximum of   67
 All quantities printed in internal units (Hartrees-Bohrs-Radians)
 Mixed Optimization -- En-DIIS/RFO-DIIS
 Swapping is turned off.
 Update second derivatives using D2CorX and points    1    2    3    4
 DE= -2.07D-06 DEPred=-1.44D-06 R= 1.44D+00
 TightC=F SS=  1.41D+00  RLast= 4.76D-02 DXNew= 5.0454D-01 1.4288D-01
 Trust test= 1.44D+00 RLast= 4.76D-02 DXMaxT set to 3.00D-01
 ITU=  1  1  1  0
     Eigenvalues ---    0.00024   0.00369   0.00551   0.03523   0.05049
     Eigenvalues ---    0.06119   0.07202   0.07983   0.08893   0.09467
     Eigenvalues ---    0.13577   0.15594   0.19636   0.20938   0.24760
     Eigenvalues ---    0.25000   0.25000   0.25000   0.25699   0.26305
     Eigenvalues ---    0.27198   0.30278   0.32401   0.41810   0.56557
     Eigenvalues ---    0.56731   0.56796   0.58032   0.60358   0.60664
     Eigenvalues ---    0.63114   0.64028   0.66432
 En-DIIS/RFO-DIIS/Sim-DIIS IScMMF=       -3 using points:     4    3    2    1
 RFO step:  Lambda=-4.25239075D-06.
 DidBck=F Rises=F RFO-DIIS coefs:    2.48859   -0.39118   -1.15729    0.05988
 Iteration  1 RMS(Cart)=  0.02206625 RMS(Int)=  0.00020649
 Iteration  2 RMS(Cart)=  0.00023833 RMS(Int)=  0.00000031
 Iteration  3 RMS(Cart)=  0.00000002 RMS(Int)=  0.00000031
 Variable       Old X    -DE/DX   Delta X   Delta X   Delta X     New X
                                 (Linear)    (Quad)   (Total)
    R1        2.53669  -0.00004  -0.00017  -0.00003  -0.00020   2.53649
    R2        2.53611  -0.00002   0.00019  -0.00008   0.00011   2.53622
    R3        2.86931   0.00004  -0.00017   0.00022   0.00005   2.86936
    R4        2.94480  -0.00016   0.00099  -0.00089   0.00010   2.94490
    R5        2.47900   0.00004   0.00013   0.00004   0.00017   2.47917
    R6        2.48095  -0.00005  -0.00008  -0.00009  -0.00017   2.48078
    R7        2.93871  -0.00008   0.00067  -0.00063   0.00005   2.93876
    R8        2.53590  -0.00003  -0.00059   0.00007  -0.00051   2.53539
    R9        2.53194   0.00010  -0.00003   0.00022   0.00019   2.53213
   R10        2.50426   0.00002   0.00009   0.00002   0.00010   2.50436
   R11        2.50641  -0.00006  -0.00003  -0.00011  -0.00014   2.50627
   R12        2.50889   0.00011  -0.00021   0.00025   0.00004   2.50893
    A1        1.91060   0.00000   0.00070  -0.00035   0.00035   1.91095
    A2        1.88056   0.00006  -0.00098   0.00075  -0.00023   1.88033
    A3        1.89727  -0.00007   0.00010  -0.00064  -0.00054   1.89673
    A4        1.88280  -0.00004  -0.00040   0.00006  -0.00034   1.88246
    A5        1.89093   0.00004   0.00062  -0.00011   0.00051   1.89144
    A6        2.00053   0.00000  -0.00001   0.00027   0.00026   2.00079
    A7        2.02174   0.00003  -0.00098   0.00065  -0.00032   2.02142
    A8        2.01845   0.00007   0.00061   0.00038   0.00100   2.01945
    A9        1.95852  -0.00005   0.00000   0.00010   0.00010   1.95862
   A10        2.02045   0.00023   0.00125  -0.00010   0.00114   2.02159
   A11        1.89180  -0.00007  -0.00107   0.00022  -0.00086   1.89094
   A12        1.88913  -0.00011   0.00066  -0.00044   0.00022   1.88935
   A13        1.87785  -0.00009   0.00083  -0.00051   0.00033   1.87818
   A14        1.88180  -0.00006  -0.00127   0.00006  -0.00121   1.88060
   A15        1.90027   0.00010  -0.00050   0.00086   0.00036   1.90063
   A16        1.93382  -0.00006   0.00140  -0.00083   0.00057   1.93439
   A17        1.93287   0.00001   0.00029  -0.00033  -0.00004   1.93283
   A18        1.89648  -0.00013  -0.00039  -0.00022  -0.00060   1.89588
   A19        1.90481  -0.00001   0.00034  -0.00030   0.00004   1.90485
   A20        1.89694   0.00010  -0.00075   0.00088   0.00013   1.89707
   A21        1.89822   0.00009  -0.00097   0.00086  -0.00011   1.89811
    D1        0.88360  -0.00002   0.01330  -0.00026   0.01304   0.89664
    D2       -3.05548   0.00002   0.01289   0.00109   0.01397  -3.04151
    D3        2.94476  -0.00001   0.01338  -0.00023   0.01315   2.95790
    D4       -0.99433   0.00003   0.01297   0.00111   0.01408  -0.98025
    D5       -1.23065   0.00002   0.01388  -0.00016   0.01372  -1.21693
    D6        1.11345   0.00006   0.01347   0.00118   0.01465   1.12810
    D7        0.93997  -0.00001   0.02605  -0.00060   0.02545   0.96542
    D8       -1.17084   0.00000   0.02493  -0.00004   0.02490  -1.14594
    D9        3.05389  -0.00002   0.02575  -0.00093   0.02482   3.07870
   D10       -1.13487  -0.00000   0.02480   0.00024   0.02504  -1.10984
   D11        3.03750   0.00002   0.02369   0.00080   0.02449   3.06199
   D12        0.97904  -0.00001   0.02450  -0.00009   0.02441   1.00345
   D13        3.04502   0.00002   0.02486   0.00007   0.02493   3.06995
   D14        0.93421   0.00003   0.02375   0.00064   0.02438   0.95860
   D15       -1.12425   0.00001   0.02456  -0.00026   0.02430  -1.09995
   D16       -1.13020   0.00001   0.01750   0.00025   0.01775  -1.11245
   D17        0.98615  -0.00003   0.01908  -0.00092   0.01816   1.00431
   D18        3.07007   0.00000   0.01782  -0.00020   0.01763   3.08769
   D19        0.98810   0.00001   0.01758   0.00007   0.01765   1.00576
   D20        3.10445  -0.00003   0.01915  -0.00109   0.01806   3.12251
   D21       -1.09482  -0.00000   0.01789  -0.00037   0.01753  -1.07729
   D22        3.03514   0.00004   0.01677   0.00085   0.01762   3.05276
   D23       -1.13170  -0.00000   0.01834  -0.00032   0.01802  -1.11368
   D24        0.95222   0.00003   0.01709   0.00040   0.01749   0.96971
         Item               Value     Threshold  Converged?
 Maximum Force            0.000230     0.000450     YES
 RMS     Force            0.000063     0.000300     YES
 Maximum Displacement     0.056189     0.001800     NO 
 RMS     Displacement     0.022065     0.001200     NO 
 Predicted change in Energy=-1.943466D-06
 GradGradGradGradGradGradGradGradGradGradGradGradGradGradGradGradGradGrad

                          Input orientation:                          
 ---------------------------------------------------------------------
 Center     Atomic      Atomic             Coordinates (Angstroms)
 Number     Number       Type             X           Y           Z
 ---------------------------------------------------------------------
      1          6           0        0.766258    0.633837   -0.139158
      2          9           0        0.572691    1.583350    0.789607
      3          9           0        0.616155    1.166319   -1.361938
      4          6           0        2.200285    0.150519   -0.014623
      5          9           0        2.581422   -0.203341    1.189809
      6          9           0        2.595303   -0.702472   -0.930998
      7          6           0       -0.311855   -0.475543    0.049180
      8          6           0       -1.790458    0.005719    0.026085
      9          9           0       -0.098600   -1.075402    1.230183
     10          9           0       -0.160693   -1.378116   -0.929581
     11          9           0       -2.036451    0.821595    1.041034
     12          9           0       -2.063001    0.631687   -1.110953
     13          9           0       -2.583084   -1.054264    0.130411
 ---------------------------------------------------------------------
                    Distance matrix (angstroms):
                    1          2          3          4          5
     1  C    0.000000
     2  F    1.342254   0.000000
     3  F    1.342110   2.192019   0.000000
     4  C    1.518400   2.312759   2.314427   0.000000
     5  F    2.400383   2.717982   3.499951   1.311922   0.000000
     6  F    2.399613   3.503773   2.755924   1.312775   2.178795
     7  C    1.558372   2.360020   2.355454   2.589763   3.121887
     8  C    2.637922   2.942169   3.010877   3.993576   4.528939
     9  F    2.354692   2.777355   3.500754   2.887438   2.818623
    10  F    2.352013   3.501962   2.695287   2.957717   3.659385
    11  F    3.046848   2.729672   3.595751   4.417543   4.732587
    12  F    2.991504   3.385951   2.743483   4.428213   5.249899
    13  F    3.760378   4.165389   4.170518   4.934892   5.340272
                    6          7          8          9         10
     6  F    0.000000
     7  C    3.076332   0.000000
     8  C    4.544496   1.555125   0.000000
     9  F    3.473744   1.341669   2.341166   0.000000
    10  F    2.837607   1.339948   2.341886   2.181759   0.000000
    11  F    5.259738   2.374989   1.325250   2.718389   3.498645
    12  F    4.848934   2.374527   1.326262   3.500563   2.773261
    13  F    5.297739   2.345207   1.327669   2.717095   2.663914
                   11         12         13
    11  F    0.000000
    12  F    2.160514   0.000000
    13  F    2.155664   2.157291   0.000000
 Stoichiometry    C4F9(2)
 Framework group  C1[X(C4F9)]
 Deg. of freedom    33
 Full point group                 C1      NOp   1
 Largest Abelian subgroup         C1      NOp   1
 Largest concise Abelian subgroup C1      NOp   1
                         Standard orientation:                         
 ---------------------------------------------------------------------
 Center     Atomic      Atomic             Coordinates (Angstroms)
 Number     Number       Type             X           Y           Z
 ---------------------------------------------------------------------
      1          6           0       -0.765987    0.640090    0.108715
      2          9           0       -0.571886    1.544824   -0.863616
      3          9           0       -0.615759    1.229371    1.305142
      4          6           0       -2.200225    0.152112    0.006853
      5          9           0       -2.581405   -0.257778   -1.179668
      6          9           0       -2.595732   -0.656697    0.962248
      7          6           0        0.311630   -0.477409   -0.027155
      8          6           0        1.790454    0.003729   -0.026518
      9          9           0        0.098216   -1.132001   -1.178693
     10          9           0        0.159951   -1.332925    0.992917
     11          9           0        2.036928    0.770899   -1.078653
     12          9           0        2.063173    0.682308    1.079884
     13          9           0        2.582599   -1.060350   -0.080825
 ---------------------------------------------------------------------
 Rotational constants (GHZ):           1.3612508           0.6015702           0.5939328
 Standard basis: 6-311+G(2d,2p) (5D, 7F)
 There are   377 symmetry adapted cartesian basis functions of A   symmetry.
 There are   351 symmetry adapted basis functions of A   symmetry.
   351 basis functions,   546 primitive gaussians,   377 cartesian basis functions
    53 alpha electrons       52 beta electrons
       nuclear repulsion energy      1021.3391572568 Hartrees.
 NAtoms=   13 NActive=   13 NUniq=   13 SFac= 1.00D+00 NAtFMM=   60 NAOKFM=F Big=F
 Integral buffers will be    131072 words long.
 Raffenetti 2 integral format.
 Two-electron integral symmetry is turned on.
 Nuclear repulsion after empirical dispersion term =     1021.3319437837 Hartrees.
 One-electron integrals computed using PRISM.
 NBasis=   351 RedAO= T EigKep=  1.09D-05  NBF=   351
 NBsUse=   351 1.00D-06 EigRej= -1.00D+00 NBFU=   351
 Initial guess from the checkpoint file:  "c4_rad.chk"
 B after Tr=     0.000000   -0.000000    0.000000
         Rot=    0.999876    0.015721    0.000186    0.000107 Ang=   1.80 deg.
 Initial guess <Sx>= 0.0000 <Sy>= 0.0000 <Sz>= 0.5000 <S**2>= 0.7528 S= 0.5014
 ExpMin= 4.38D-02 ExpMax= 1.14D+04 ExpMxC= 1.72D+03 IAcc=3 IRadAn=         5 AccDes= 0.00D+00
 Harris functional with IExCor= 4639 and IRadAn=       5 diagonalized for initial guess.
 HarFok:  IExCor= 4639 AccDes= 0.00D+00 IRadAn=         5 IDoV= 1 UseB2=F ITyADJ=14
 ICtDFT=  3500011 ScaDFX=  1.000000  1.000000  1.000000  1.000000
 FoFCou: FMM=F IPFlag=           0 FMFlag=      100000 FMFlg1=           0
         NFxFlg=           0 DoJE=T BraDBF=F KetDBF=T FulRan=T
         wScrn=  0.000000 ICntrl=       500 IOpCl=  0 I1Cent=   200000004 NGrid=           0
         NMat0=    1 NMatS0=      1 NMatT0=    0 NMatD0=    1 NMtDS0=    0 NMtDT0=    0
 Petite list used in FoFCou.
 Requested convergence on RMS density matrix=1.00D-08 within  32 cycles.
 Requested convergence on MAX density matrix=1.00D-06.
 Requested convergence on             energy=1.00D-06.
 No special actions if energy rises.
 SCF Done:  E(UwB97XD) =  -1050.98336125     A.U. after   10 cycles
            NFock= 10  Conv=0.81D-08     -V/T= 2.0025
 <Sx>= 0.0000 <Sy>= 0.0000 <Sz>= 0.5000 <S**2>= 0.7528 S= 0.5014
 <L.S>= 0.000000000000E+00
 Annihilation of the first spin contaminant:
 S**2 before annihilation     0.7528,   after     0.7500
 QCSCF skips out because SCF is already converged.
 Calling FoFJK, ICntrl=      2127 FMM=F ISym2X=0 I1Cent= 0 IOpClX= 1 NMat=1 NMatS=1 NMatT=0.
 ***** Axes restored to original set *****
 -------------------------------------------------------------------
 Center     Atomic                   Forces (Hartrees/Bohr)
 Number     Number              X              Y              Z
 -------------------------------------------------------------------
      1        6          -0.000068620   -0.000224652   -0.000049945
      2        9          -0.000114148   -0.000016478   -0.000020926
      3        9           0.000044498    0.000009902    0.000031267
      4        6          -0.000037911   -0.000077132   -0.000115825
      5        9           0.000048496   -0.000040285    0.000009017
      6        9          -0.000002813    0.000077768    0.000082526
      7        6           0.000006979    0.000385861    0.000219996
      8        6           0.000012014   -0.000009572   -0.000150003
      9        9          -0.000047896    0.000037721    0.000071351
     10        9           0.000072050   -0.000073514   -0.000212793
     11        9           0.000096607    0.000068306   -0.000006391
     12        9           0.000015747    0.000007051    0.000126865
     13        9          -0.000025003   -0.000144978    0.000014861
 -------------------------------------------------------------------
 Cartesian Forces:  Max     0.000385861 RMS     0.000107327

 GradGradGradGradGradGradGradGradGradGradGradGradGradGradGradGradGradGrad
 Berny optimization.
 Using GEDIIS/GDIIS optimizer.
 FormGI is forming the generalized inverse of G from B-inverse, IUseBI=4.
 Internal  Forces:  Max     0.000275070 RMS     0.000078806
 Search for a local minimum.
 Step number   5 out of a maximum of   67
 All quantities printed in internal units (Hartrees-Bohrs-Radians)
 Mixed Optimization -- En-DIIS/RFO-DIIS
 Swapping is turned off.
 Update second derivatives using D2CorX and points    1    2    3    4    5
 DE= -2.62D-06 DEPred=-1.94D-06 R= 1.35D+00
 TightC=F SS=  1.41D+00  RLast= 9.75D-02 DXNew= 5.0454D-01 2.9240D-01
 Trust test= 1.35D+00 RLast= 9.75D-02 DXMaxT set to 3.00D-01
 ITU=  1  1  1  1  0
     Eigenvalues ---    0.00014   0.00365   0.00551   0.03533   0.05058
     Eigenvalues ---    0.06111   0.07212   0.07999   0.08930   0.09543
     Eigenvalues ---    0.13627   0.15650   0.19801   0.21319   0.24888
     Eigenvalues ---    0.25000   0.25000   0.25291   0.26107   0.26468
     Eigenvalues ---    0.27340   0.29989   0.30704   0.42799   0.56527
     Eigenvalues ---    0.56723   0.56805   0.58807   0.60407   0.60663
     Eigenvalues ---    0.63100   0.64121   0.69800
 En-DIIS/RFO-DIIS/Sim-DIIS IScMMF=       -3 using points:     5    4    3    2    1
 RFO step:  Lambda=-2.73204117D-06.
 DidBck=F Rises=F RFO-DIIS coefs:    1.67641   -0.02967   -0.59753   -0.09899    0.04978
 Iteration  1 RMS(Cart)=  0.02152646 RMS(Int)=  0.00020238
 Iteration  2 RMS(Cart)=  0.00023161 RMS(Int)=  0.00000030
 Iteration  3 RMS(Cart)=  0.00000002 RMS(Int)=  0.00000030
 Variable       Old X    -DE/DX   Delta X   Delta X   Delta X     New X
                                 (Linear)    (Quad)   (Total)
    R1        2.53649  -0.00001  -0.00020   0.00004  -0.00016   2.53633
    R2        2.53622  -0.00003   0.00014  -0.00006   0.00007   2.53629
    R3        2.86936   0.00002   0.00002  -0.00008  -0.00006   2.86930
    R4        2.94490  -0.00028   0.00028  -0.00082  -0.00054   2.94436
    R5        2.47917   0.00003   0.00017   0.00001   0.00017   2.47935
    R6        2.48078  -0.00011  -0.00014  -0.00018  -0.00032   2.48047
    R7        2.93876  -0.00012   0.00021  -0.00036  -0.00015   2.93861
    R8        2.53539   0.00004  -0.00054   0.00014  -0.00040   2.53499
    R9        2.53213   0.00021   0.00013   0.00036   0.00049   2.53263
   R10        2.50436   0.00002   0.00010   0.00003   0.00013   2.50449
   R11        2.50627  -0.00011  -0.00011  -0.00017  -0.00028   2.50599
   R12        2.50893   0.00013  -0.00001   0.00014   0.00013   2.50907
    A1        1.91095  -0.00001   0.00047  -0.00026   0.00021   1.91116
    A2        1.88033   0.00011  -0.00040   0.00050   0.00010   1.88043
    A3        1.89673  -0.00013  -0.00046  -0.00040  -0.00086   1.89587
    A4        1.88246  -0.00006  -0.00035  -0.00021  -0.00056   1.88190
    A5        1.89144   0.00007   0.00059   0.00022   0.00081   1.89225
    A6        2.00079   0.00001   0.00018   0.00013   0.00030   2.00110
    A7        2.02142   0.00008  -0.00046   0.00027  -0.00019   2.02123
    A8        2.01945   0.00003   0.00099  -0.00025   0.00074   2.02020
    A9        1.95862  -0.00006   0.00013  -0.00031  -0.00019   1.95844
   A10        2.02159   0.00012   0.00123  -0.00001   0.00122   2.02281
   A11        1.89094  -0.00000  -0.00100   0.00024  -0.00076   1.89018
   A12        1.88935  -0.00011   0.00033  -0.00040  -0.00007   1.88928
   A13        1.87818  -0.00010   0.00042  -0.00038   0.00004   1.87822
   A14        1.88060   0.00003  -0.00122   0.00040  -0.00082   1.87978
   A15        1.90063   0.00007   0.00021   0.00018   0.00038   1.90101
   A16        1.93439  -0.00015   0.00070  -0.00053   0.00017   1.93456
   A17        1.93283   0.00008   0.00010   0.00028   0.00038   1.93321
   A18        1.89588  -0.00008  -0.00057   0.00003  -0.00054   1.89534
   A19        1.90485  -0.00001   0.00009  -0.00023  -0.00014   1.90471
   A20        1.89707   0.00012  -0.00006   0.00028   0.00022   1.89729
   A21        1.89811   0.00005  -0.00029   0.00019  -0.00010   1.89802
    D1        0.89664  -0.00003   0.01328   0.00039   0.01367   0.91031
    D2       -3.04151  -0.00001   0.01409  -0.00008   0.01400  -3.02751
    D3        2.95790  -0.00001   0.01343   0.00024   0.01367   2.97158
    D4       -0.98025   0.00001   0.01424  -0.00023   0.01401  -0.96624
    D5       -1.21693   0.00005   0.01404   0.00045   0.01450  -1.20243
    D6        1.12810   0.00007   0.01485  -0.00002   0.01483   1.14294
    D7        0.96542  -0.00006   0.02429  -0.00047   0.02382   0.98923
    D8       -1.14594  -0.00001   0.02367  -0.00015   0.02352  -1.12242
    D9        3.07870  -0.00003   0.02379  -0.00027   0.02352   3.10222
   D10       -1.10984  -0.00002   0.02365  -0.00006   0.02359  -1.08625
   D11        3.06199   0.00003   0.02303   0.00026   0.02329   3.08528
   D12        1.00345   0.00001   0.02315   0.00014   0.02329   1.02674
   D13        3.06995  -0.00000   0.02355  -0.00004   0.02352   3.09347
   D14        0.95860   0.00005   0.02294   0.00028   0.02322   0.98181
   D15       -1.09995   0.00003   0.02306   0.00017   0.02322  -1.07672
   D16       -1.11245   0.00001   0.01834   0.00007   0.01841  -1.09404
   D17        1.00431  -0.00005   0.01900  -0.00040   0.01860   1.02291
   D18        3.08769   0.00001   0.01835   0.00002   0.01837   3.10606
   D19        1.00576   0.00002   0.01818   0.00008   0.01826   1.02402
   D20        3.12251  -0.00005   0.01884  -0.00039   0.01846   3.14096
   D21       -1.07729   0.00001   0.01819   0.00003   0.01823  -1.05906
   D22        3.05276   0.00006   0.01801   0.00029   0.01831   3.07106
   D23       -1.11368  -0.00001   0.01867  -0.00017   0.01850  -1.09518
   D24        0.96971   0.00005   0.01802   0.00025   0.01827   0.98798
         Item               Value     Threshold  Converged?
 Maximum Force            0.000275     0.000450     YES
 RMS     Force            0.000079     0.000300     YES
 Maximum Displacement     0.056193     0.001800     NO 
 RMS     Displacement     0.021525     0.001200     NO 
 Predicted change in Energy=-1.320509D-06
 GradGradGradGradGradGradGradGradGradGradGradGradGradGradGradGradGradGrad

                          Input orientation:                          
 ---------------------------------------------------------------------
 Center     Atomic      Atomic             Coordinates (Angstroms)
 Number     Number       Type             X           Y           Z
 ---------------------------------------------------------------------
      1          6           0        0.766550    0.635854   -0.127969
      2          9           0        0.581168    1.575611    0.812196
      3          9           0        0.608903    1.181448   -1.344044
      4          6           0        2.200708    0.149216   -0.019248
      5          9           0        2.585143   -0.233078    1.175508
      6          9           0        2.593518   -0.681698   -0.956381
      7          6           0       -0.311955   -0.473220    0.057557
      8          6           0       -1.791265    0.004543    0.018196
      9          9           0       -0.107900   -1.064878    1.244068
     10          9           0       -0.151117   -1.381774   -0.914463
     11          9           0       -2.042301    0.843970    1.012584
     12          9           0       -2.061699    0.602524   -1.134134
     13          9           0       -2.581780   -1.054632    0.145187
 ---------------------------------------------------------------------
                    Distance matrix (angstroms):
                    1          2          3          4          5
     1  C    0.000000
     2  F    1.342170   0.000000
     3  F    1.342149   2.192146   0.000000
     4  C    1.518369   2.312750   2.313964   0.000000
     5  F    2.400286   2.723833   3.500650   1.312014   0.000000
     6  F    2.400005   3.503265   2.749599   1.312607   2.178596
     7  C    1.558088   2.358995   2.355927   2.589749   3.114589
     8  C    2.638624   2.954172   3.000268   3.994769   4.533076
     9  F    2.353643   2.762881   3.501158   2.898217   2.819410
    10  F    2.351916   3.501959   2.707818   2.945576   3.629683
    11  F    3.038720   2.730942   3.563210   4.421593   4.753926
    12  F    3.002078   3.423426   2.740681   4.429060   5.256027
    13  F    3.760808   4.167412   4.171130   4.934418   5.332317
                    6          7          8          9         10
     6  F    0.000000
     7  C    3.084365   0.000000
     8  C    4.543902   1.555045   0.000000
     9  F    3.505205   1.341456   2.340970   0.000000
    10  F    2.832822   1.340209   2.341327   2.182096   0.000000
    11  F    5.262633   2.375113   1.325317   2.727488   3.499146
    12  F    4.832377   2.374649   1.326114   3.500486   2.763335
    13  F    5.304360   2.344744   1.327740   2.706977   2.671704
                   11         12         13
    11  F    0.000000
    12  F    2.160340   0.000000
    13  F    2.155947   2.157154   0.000000
 Stoichiometry    C4F9(2)
 Framework group  C1[X(C4F9)]
 Deg. of freedom    33
 Full point group                 C1      NOp   1
 Largest Abelian subgroup         C1      NOp   1
 Largest concise Abelian subgroup C1      NOp   1
                         Standard orientation:                         
 ---------------------------------------------------------------------
 Center     Atomic      Atomic             Coordinates (Angstroms)
 Number     Number       Type             X           Y           Z
 ---------------------------------------------------------------------
      1          6           0       -0.766177    0.644854    0.073780
      2          9           0       -0.579540    1.503474   -0.940793
      3          9           0       -0.608893    1.289094    1.240648
      4          6           0       -2.200615    0.151838    0.004726
      5          9           0       -2.584583   -0.327747   -1.154561
      6          9           0       -2.594600   -0.598426    1.007132
      7          6           0        0.311649   -0.476482   -0.018613
      8          6           0        1.791275    0.001920   -0.017916
      9          9           0        0.107906   -1.164150   -1.152238
     10          9           0        0.149558   -1.301386    1.025140
     11          9           0        2.043529    0.756024   -1.078180
     12          9           0        2.061423    0.693018    1.081167
     13          9           0        2.581111   -1.064654   -0.056299
 ---------------------------------------------------------------------
 Rotational constants (GHZ):           1.3619880           0.6012033           0.5937705
 Standard basis: 6-311+G(2d,2p) (5D, 7F)
 There are   377 symmetry adapted cartesian basis functions of A   symmetry.
 There are   351 symmetry adapted basis functions of A   symmetry.
   351 basis functions,   546 primitive gaussians,   377 cartesian basis functions
    53 alpha electrons       52 beta electrons
       nuclear repulsion energy      1021.3033696694 Hartrees.
 NAtoms=   13 NActive=   13 NUniq=   13 SFac= 1.00D+00 NAtFMM=   60 NAOKFM=F Big=F
 Integral buffers will be    131072 words long.
 Raffenetti 2 integral format.
 Two-electron integral symmetry is turned on.
 Nuclear repulsion after empirical dispersion term =     1021.2961595023 Hartrees.
 One-electron integrals computed using PRISM.
 NBasis=   351 RedAO= T EigKep=  1.08D-05  NBF=   351
 NBsUse=   351 1.00D-06 EigRej= -1.00D+00 NBFU=   351
 Initial guess from the checkpoint file:  "c4_rad.chk"
 B after Tr=     0.000000    0.000000   -0.000000
         Rot=    0.999840    0.017893    0.000230    0.000112 Ang=   2.05 deg.
 Initial guess <Sx>= 0.0000 <Sy>= 0.0000 <Sz>= 0.5000 <S**2>= 0.7528 S= 0.5014
 ExpMin= 4.38D-02 ExpMax= 1.14D+04 ExpMxC= 1.72D+03 IAcc=3 IRadAn=         5 AccDes= 0.00D+00
 Harris functional with IExCor= 4639 and IRadAn=       5 diagonalized for initial guess.
 HarFok:  IExCor= 4639 AccDes= 0.00D+00 IRadAn=         5 IDoV= 1 UseB2=F ITyADJ=14
 ICtDFT=  3500011 ScaDFX=  1.000000  1.000000  1.000000  1.000000
 FoFCou: FMM=F IPFlag=           0 FMFlag=      100000 FMFlg1=           0
         NFxFlg=           0 DoJE=T BraDBF=F KetDBF=T FulRan=T
         wScrn=  0.000000 ICntrl=       500 IOpCl=  0 I1Cent=   200000004 NGrid=           0
         NMat0=    1 NMatS0=      1 NMatT0=    0 NMatD0=    1 NMtDS0=    0 NMtDT0=    0
 Petite list used in FoFCou.
 Requested convergence on RMS density matrix=1.00D-08 within  32 cycles.
 Requested convergence on MAX density matrix=1.00D-06.
 Requested convergence on             energy=1.00D-06.
 No special actions if energy rises.
 SCF Done:  E(UwB97XD) =  -1050.98336253     A.U. after   10 cycles
            NFock= 10  Conv=0.80D-08     -V/T= 2.0025
 <Sx>= 0.0000 <Sy>= 0.0000 <Sz>= 0.5000 <S**2>= 0.7528 S= 0.5014
 <L.S>= 0.000000000000E+00
 Annihilation of the first spin contaminant:
 S**2 before annihilation     0.7528,   after     0.7500
 QCSCF skips out because SCF is already converged.
 Calling FoFJK, ICntrl=      2127 FMM=F ISym2X=0 I1Cent= 0 IOpClX= 1 NMat=1 NMatS=1 NMatT=0.
 ***** Axes restored to original set *****
 -------------------------------------------------------------------
 Center     Atomic                   Forces (Hartrees/Bohr)
 Number     Number              X              Y              Z
 -------------------------------------------------------------------
      1        6          -0.000072853   -0.000179751   -0.000087084
      2        9          -0.000102719    0.000031431    0.000005575
      3        9           0.000001929    0.000023269    0.000021630
      4        6          -0.000015245   -0.000101596   -0.000071707
      5        9           0.000054709   -0.000014346    0.000031686
      6        9          -0.000012258    0.000066622    0.000042214
      7        6           0.000033779    0.000351670    0.000187721
      8        6           0.000002631    0.000005461   -0.000161434
      9        9          -0.000043945   -0.000011770    0.000072372
     10        9           0.000062057   -0.000122659   -0.000185188
     11        9           0.000084704    0.000065724    0.000026088
     12        9           0.000035028   -0.000003485    0.000110689
     13        9          -0.000027817   -0.000110570    0.000007439
 -------------------------------------------------------------------
 Cartesian Forces:  Max     0.000351670 RMS     0.000097326

 GradGradGradGradGradGradGradGradGradGradGradGradGradGradGradGradGradGrad
 Berny optimization.
 Using GEDIIS/GDIIS optimizer.
 FormGI is forming the generalized inverse of G from B-inverse, IUseBI=4.
 Internal  Forces:  Max     0.000225013 RMS     0.000065511
 Search for a local minimum.
 Step number   6 out of a maximum of   67
 All quantities printed in internal units (Hartrees-Bohrs-Radians)
 Mixed Optimization -- En-DIIS/RFO-DIIS
 Swapping is turned off.
 Update second derivatives using D2CorX and points    1    2    3    4    5
                                                      6
 DE= -1.29D-06 DEPred=-1.32D-06 R= 9.74D-01
 TightC=F SS=  1.41D+00  RLast= 9.59D-02 DXNew= 5.0454D-01 2.8758D-01
 Trust test= 9.74D-01 RLast= 9.59D-02 DXMaxT set to 3.00D-01
 ITU=  1  1  1  1  1  0
     Eigenvalues ---    0.00012   0.00376   0.00546   0.03589   0.05057
     Eigenvalues ---    0.06122   0.07218   0.08016   0.08912   0.09541
     Eigenvalues ---    0.13630   0.15633   0.19895   0.21160   0.24982
     Eigenvalues ---    0.25000   0.25009   0.25250   0.26044   0.26409
     Eigenvalues ---    0.27365   0.29044   0.30735   0.42229   0.56450
     Eigenvalues ---    0.56742   0.56914   0.59206   0.60445   0.60766
     Eigenvalues ---    0.63112   0.64161   0.68464
 En-DIIS/RFO-DIIS/Sim-DIIS IScMMF=       -3 using points:     6    5    4    3    2    1
 RFO step:  Lambda=-1.08230417D-06.
 DIIS inversion failure, remove point   6.
 DIIS inversion failure, remove point   5.
 RFO-DIIS uses    4 points instead of    6
 DidBck=F Rises=F RFO-DIIS coefs:    1.26992    0.21016   -0.61886    0.13877    0.00000
                  RFO-DIIS coefs:    0.00000
 Iteration  1 RMS(Cart)=  0.01492933 RMS(Int)=  0.00009590
 Iteration  2 RMS(Cart)=  0.00010982 RMS(Int)=  0.00000018
 Iteration  3 RMS(Cart)=  0.00000000 RMS(Int)=  0.00000018
 Variable       Old X    -DE/DX   Delta X   Delta X   Delta X     New X
                                 (Linear)    (Quad)   (Total)
    R1        2.53633   0.00004  -0.00012   0.00010  -0.00002   2.53631
    R2        2.53629  -0.00001   0.00006   0.00001   0.00007   2.53637
    R3        2.86930   0.00004   0.00001   0.00003   0.00004   2.86934
    R4        2.94436  -0.00022  -0.00014  -0.00050  -0.00064   2.94372
    R5        2.47935   0.00005   0.00012   0.00006   0.00018   2.47952
    R6        2.48047  -0.00008  -0.00016  -0.00010  -0.00026   2.48021
    R7        2.93861  -0.00010  -0.00005  -0.00013  -0.00018   2.93843
    R8        2.53499   0.00006  -0.00032   0.00010  -0.00021   2.53477
    R9        2.53263   0.00023   0.00022   0.00034   0.00057   2.53320
   R10        2.50449   0.00005   0.00008   0.00008   0.00015   2.50464
   R11        2.50599  -0.00010  -0.00014  -0.00014  -0.00028   2.50571
   R12        2.50907   0.00011   0.00007   0.00007   0.00014   2.50920
    A1        1.91116  -0.00002   0.00018  -0.00018   0.00001   1.91117
    A2        1.88043   0.00009  -0.00004   0.00028   0.00024   1.88067
    A3        1.89587  -0.00009  -0.00045  -0.00026  -0.00072   1.89516
    A4        1.88190  -0.00002  -0.00030  -0.00004  -0.00034   1.88156
    A5        1.89225   0.00003   0.00042   0.00017   0.00059   1.89283
    A6        2.00110   0.00001   0.00020   0.00002   0.00022   2.00131
    A7        2.02123   0.00008  -0.00016   0.00029   0.00012   2.02135
    A8        2.02020  -0.00001   0.00061  -0.00007   0.00054   2.02074
    A9        1.95844  -0.00003  -0.00002   0.00011   0.00010   1.95853
   A10        2.02281  -0.00003   0.00081  -0.00024   0.00058   2.02339
   A11        1.89018   0.00006  -0.00054   0.00023  -0.00031   1.88986
   A12        1.88928  -0.00004   0.00004  -0.00006  -0.00002   1.88925
   A13        1.87822  -0.00005   0.00012  -0.00010   0.00003   1.87824
   A14        1.87978   0.00005  -0.00072   0.00028  -0.00044   1.87934
   A15        1.90101   0.00002   0.00028  -0.00012   0.00017   1.90118
   A16        1.93456  -0.00015   0.00026  -0.00040  -0.00013   1.93443
   A17        1.93321   0.00003   0.00006   0.00027   0.00034   1.93355
   A18        1.89534  -0.00004  -0.00041   0.00012  -0.00028   1.89506
   A19        1.90471   0.00002  -0.00003  -0.00007  -0.00010   1.90460
   A20        1.89729   0.00010   0.00014   0.00008   0.00022   1.89751
   A21        1.89802   0.00004  -0.00004   0.00000  -0.00004   1.89798
    D1        0.91031  -0.00003   0.00903   0.00051   0.00954   0.91985
    D2       -3.02751   0.00000   0.00952   0.00094   0.01046  -3.01705
    D3        2.97158  -0.00002   0.00906   0.00043   0.00950   2.98107
    D4       -0.96624   0.00002   0.00956   0.00086   0.01042  -0.95582
    D5       -1.20243   0.00001   0.00951   0.00063   0.01014  -1.19229
    D6        1.14294   0.00005   0.01000   0.00106   0.01106   1.15399
    D7        0.98923  -0.00006   0.01715  -0.00040   0.01675   1.00598
    D8       -1.12242  -0.00001   0.01685  -0.00028   0.01656  -1.10586
    D9        3.10222  -0.00004   0.01679  -0.00024   0.01655   3.11878
   D10       -1.08625   0.00000   0.01695  -0.00014   0.01681  -1.06944
   D11        3.08528   0.00004   0.01665  -0.00002   0.01663   3.10191
   D12        1.02674   0.00002   0.01659   0.00003   0.01661   1.04336
   D13        3.09347  -0.00000   0.01690  -0.00022   0.01667   3.11014
   D14        0.98181   0.00004   0.01660  -0.00011   0.01649   0.99830
   D15       -1.07672   0.00001   0.01654  -0.00006   0.01648  -1.06025
   D16       -1.09404   0.00001   0.01202  -0.00016   0.01185  -1.08219
   D17        1.02291  -0.00005   0.01220  -0.00034   0.01186   1.03476
   D18        3.10606  -0.00001   0.01194  -0.00010   0.01184   3.11790
   D19        1.02402   0.00002   0.01196  -0.00010   0.01185   1.03587
   D20        3.14096  -0.00004   0.01214  -0.00028   0.01186  -3.13036
   D21       -1.05906   0.00001   0.01188  -0.00004   0.01184  -1.04722
   D22        3.07106   0.00004   0.01198  -0.00014   0.01183   3.08290
   D23       -1.09518  -0.00001   0.01216  -0.00032   0.01184  -1.08334
   D24        0.98798   0.00003   0.01190  -0.00008   0.01182   0.99980
         Item               Value     Threshold  Converged?
 Maximum Force            0.000225     0.000450     YES
 RMS     Force            0.000066     0.000300     YES
 Maximum Displacement     0.038806     0.001800     NO 
 RMS     Displacement     0.014929     0.001200     NO 
 Predicted change in Energy=-5.166270D-07
 GradGradGradGradGradGradGradGradGradGradGradGradGradGradGradGradGradGrad

                          Input orientation:                          
 ---------------------------------------------------------------------
 Center     Atomic      Atomic             Coordinates (Angstroms)
 Number     Number       Type             X           Y           Z
 ---------------------------------------------------------------------
      1          6           0        0.766567    0.637009   -0.120196
      2          9           0        0.586736    1.570104    0.827633
      3          9           0        0.603504    1.191549   -1.331544
      4          6           0        2.200821    0.148252   -0.022560
      5          9           0        2.587928   -0.253613    1.164991
      6          9           0        2.592244   -0.666515   -0.974149
      7          6           0       -0.312040   -0.471763    0.063693
      8          6           0       -1.791613    0.003767    0.012608
      9          9           0       -0.114751   -1.057368    1.254217
     10          9           0       -0.144336   -1.384940   -0.903235
     11          9           0       -2.046045    0.858882    0.992773
     12          9           0       -2.059860    0.582837   -1.149675
     13          9           0       -2.581182   -1.054315    0.154502
 ---------------------------------------------------------------------
                    Distance matrix (angstroms):
                    1          2          3          4          5
     1  C    0.000000
     2  F    1.342157   0.000000
     3  F    1.342188   2.192174   0.000000
     4  C    1.518388   2.312956   2.313727   0.000000
     5  F    2.400473   2.728466   3.501302   1.312107   0.000000
     6  F    2.400315   3.502992   2.745036   1.312471   2.178630
     7  C    1.557749   2.358097   2.356165   2.589659   3.109705
     8  C    2.638734   2.962131   2.992349   3.995203   4.535925
     9  F    2.353007   2.752756   3.501382   2.906123   2.821073
    10  F    2.351844   3.501807   2.716801   2.937010   3.608701
    11  F    3.032938   2.732149   3.540229   4.423999   4.768753
    12  F    3.008563   3.448030   2.738086   4.428618   5.259207
    13  F    3.760779   4.168499   4.170666   4.934073   5.327468
                    6          7          8          9         10
     6  F    0.000000
     7  C    3.090294   0.000000
     8  C    4.543256   1.554952   0.000000
     9  F    3.527918   1.341344   2.340827   0.000000
    10  F    2.830201   1.340510   2.341110   2.182379   0.000000
    11  F    5.263967   2.374990   1.325398   2.733178   3.499439
    12  F    4.820142   2.374725   1.325964   3.500346   2.757192
    13  F    5.309292   2.344487   1.327814   2.700494   2.677001
                   11         12         13
    11  F    0.000000
    12  F    2.160203   0.000000
    13  F    2.156245   2.157063   0.000000
 Stoichiometry    C4F9(2)
 Framework group  C1[X(C4F9)]
 Deg. of freedom    33
 Full point group                 C1      NOp   1
 Largest Abelian subgroup         C1      NOp   1
 Largest concise Abelian subgroup C1      NOp   1
                         Standard orientation:                         
 ---------------------------------------------------------------------
 Center     Atomic      Atomic             Coordinates (Angstroms)
 Number     Number       Type             X           Y           Z
 ---------------------------------------------------------------------
      1          6           0       -0.766118    0.647026    0.047836
      2          9           0       -0.584473    1.470174   -0.996586
      3          9           0       -0.603818    1.331197    1.191093
      4          6           0       -2.200705    0.151605    0.002882
      5          9           0       -2.586937   -0.378028   -1.133752
      6          9           0       -2.593839   -0.553356    1.037800
      7          6           0        0.311692   -0.476069   -0.011880
      8          6           0        1.791634    0.001055   -0.011690
      9          9           0        0.115116   -1.188802   -1.131064
     10          9           0        0.142173   -1.277330    1.049350
     11          9           0        2.047843    0.743084   -1.079599
     12          9           0        2.059191    0.704134    1.080223
     13          9           0        2.580408   -1.066820   -0.035562
 ---------------------------------------------------------------------
 Rotational constants (GHZ):           1.3623712           0.6010057           0.5936887
 Standard basis: 6-311+G(2d,2p) (5D, 7F)
 There are   377 symmetry adapted cartesian basis functions of A   symmetry.
 There are   351 symmetry adapted basis functions of A   symmetry.
   351 basis functions,   546 primitive gaussians,   377 cartesian basis functions
    53 alpha electrons       52 beta electrons
       nuclear repulsion energy      1021.2842792944 Hartrees.
 NAtoms=   13 NActive=   13 NUniq=   13 SFac= 1.00D+00 NAtFMM=   60 NAOKFM=F Big=F
 Integral buffers will be    131072 words long.
 Raffenetti 2 integral format.
 Two-electron integral symmetry is turned on.
 Nuclear repulsion after empirical dispersion term =     1021.2770708818 Hartrees.
 One-electron integrals computed using PRISM.
 NBasis=   351 RedAO= T EigKep=  1.07D-05  NBF=   351
 NBsUse=   351 1.00D-06 EigRej= -1.00D+00 NBFU=   351
 Initial guess from the checkpoint file:  "c4_rad.chk"
 B after Tr=    -0.000000   -0.000000    0.000000
         Rot=    0.999907    0.013624    0.000191    0.000070 Ang=   1.56 deg.
 Initial guess <Sx>= 0.0000 <Sy>= 0.0000 <Sz>= 0.5000 <S**2>= 0.7528 S= 0.5014
 ExpMin= 4.38D-02 ExpMax= 1.14D+04 ExpMxC= 1.72D+03 IAcc=3 IRadAn=         5 AccDes= 0.00D+00
 Harris functional with IExCor= 4639 and IRadAn=       5 diagonalized for initial guess.
 HarFok:  IExCor= 4639 AccDes= 0.00D+00 IRadAn=         5 IDoV= 1 UseB2=F ITyADJ=14
 ICtDFT=  3500011 ScaDFX=  1.000000  1.000000  1.000000  1.000000
 FoFCou: FMM=F IPFlag=           0 FMFlag=      100000 FMFlg1=           0
         NFxFlg=           0 DoJE=T BraDBF=F KetDBF=T FulRan=T
         wScrn=  0.000000 ICntrl=       500 IOpCl=  0 I1Cent=   200000004 NGrid=           0
         NMat0=    1 NMatS0=      1 NMatT0=    0 NMatD0=    1 NMtDS0=    0 NMtDT0=    0
 Petite list used in FoFCou.
 Requested convergence on RMS density matrix=1.00D-08 within  32 cycles.
 Requested convergence on MAX density matrix=1.00D-06.
 Requested convergence on             energy=1.00D-06.
 No special actions if energy rises.
 SCF Done:  E(UwB97XD) =  -1050.98336256     A.U. after   10 cycles
            NFock= 10  Conv=0.58D-08     -V/T= 2.0025
 <Sx>= 0.0000 <Sy>= 0.0000 <Sz>= 0.5000 <S**2>= 0.7528 S= 0.5014
 <L.S>= 0.000000000000E+00
 Annihilation of the first spin contaminant:
 S**2 before annihilation     0.7528,   after     0.7500
 QCSCF skips out because SCF is already converged.
 Calling FoFJK, ICntrl=      2127 FMM=F ISym2X=0 I1Cent= 0 IOpClX= 1 NMat=1 NMatS=1 NMatT=0.
 ***** Axes restored to original set *****
 -------------------------------------------------------------------
 Center     Atomic                   Forces (Hartrees/Bohr)
 Number     Number              X              Y              Z
 -------------------------------------------------------------------
      1        6          -0.000030696   -0.000118968   -0.000080304
      2        9          -0.000058249    0.000045858    0.000014689
      3        9          -0.000002913    0.000014604    0.000021179
      4        6           0.000009142   -0.000028194   -0.000039072
      5        9           0.000020764   -0.000014628    0.000004385
      6        9          -0.000024472    0.000034802    0.000037191
      7        6           0.000022037    0.000203075    0.000133027
      8        6          -0.000016397   -0.000002102   -0.000128970
      9        9          -0.000026959   -0.000021757    0.000033794
     10        9           0.000043118   -0.000094112   -0.000112745
     11        9           0.000052239    0.000048676    0.000038881
     12        9           0.000032308   -0.000010385    0.000072995
     13        9          -0.000019923   -0.000056869    0.000004950
 -------------------------------------------------------------------
 Cartesian Forces:  Max     0.000203075 RMS     0.000062641

 GradGradGradGradGradGradGradGradGradGradGradGradGradGradGradGradGradGrad
 Berny optimization.
 Using GEDIIS/GDIIS optimizer.
 FormGI is forming the generalized inverse of G from B-inverse, IUseBI=4.
 Internal  Forces:  Max     0.000150970 RMS     0.000040611
 Search for a local minimum.
 Step number   7 out of a maximum of   67
 All quantities printed in internal units (Hartrees-Bohrs-Radians)
 Mixed Optimization -- En-DIIS/RFO-DIIS
 Swapping is turned off.
 Update second derivatives using D2CorX and points    1    2    3    4    5
                                                      6    7
 DE= -2.48D-08 DEPred=-5.17D-07 R= 4.79D-02
 Trust test= 4.79D-02 RLast= 6.61D-02 DXMaxT set to 1.50D-01
 ITU= -1  1  1  1  1  1  0
     Eigenvalues ---    0.00012   0.00356   0.00542   0.03709   0.05060
     Eigenvalues ---    0.06121   0.07226   0.08029   0.08902   0.09502
     Eigenvalues ---    0.13652   0.15669   0.19796   0.20861   0.24621
     Eigenvalues ---    0.24999   0.25011   0.25182   0.25974   0.26373
     Eigenvalues ---    0.27148   0.29547   0.31212   0.39948   0.56135
     Eigenvalues ---    0.56801   0.56995   0.58771   0.60356   0.60707
     Eigenvalues ---    0.61365   0.63810   0.64247
 En-DIIS/RFO-DIIS/Sim-DIIS IScMMF=       -3 using points:     7    6    5    4    3    2    1
 RFO step:  Lambda=-2.74354230D-07.
 DIIS inversion failure, remove point   7.
 DIIS inversion failure, remove point   6.
 DIIS inversion failure, remove point   5.
 RFO-DIIS uses    4 points instead of    7
 DidBck=F Rises=F RFO-DIIS coefs:    2.14197   -1.52767    0.12396    0.26174    0.00000
                  RFO-DIIS coefs:    0.00000    0.00000
 Iteration  1 RMS(Cart)=  0.00307242 RMS(Int)=  0.00000438
 Iteration  2 RMS(Cart)=  0.00000475 RMS(Int)=  0.00000015
 Iteration  3 RMS(Cart)=  0.00000000 RMS(Int)=  0.00000015
 Variable       Old X    -DE/DX   Delta X   Delta X   Delta X     New X
                                 (Linear)    (Quad)   (Total)
    R1        2.53631   0.00005   0.00008   0.00005   0.00014   2.53645
    R2        2.53637  -0.00001   0.00002  -0.00003  -0.00001   2.53636
    R3        2.86934   0.00001   0.00005  -0.00009  -0.00004   2.86930
    R4        2.94372  -0.00010  -0.00055   0.00009  -0.00046   2.94326
    R5        2.47952   0.00002   0.00009  -0.00004   0.00005   2.47957
    R6        2.48021  -0.00006  -0.00013  -0.00004  -0.00017   2.48004
    R7        2.93843  -0.00005  -0.00015   0.00003  -0.00013   2.93831
    R8        2.53477   0.00004   0.00005  -0.00004   0.00000   2.53478
    R9        2.53320   0.00015   0.00041   0.00006   0.00047   2.53366
   R10        2.50464   0.00005   0.00010   0.00007   0.00017   2.50481
   R11        2.50571  -0.00007  -0.00018  -0.00005  -0.00023   2.50548
   R12        2.50920   0.00006   0.00010   0.00002   0.00012   2.50932
    A1        1.91117  -0.00002  -0.00016  -0.00007  -0.00023   1.91094
    A2        1.88067   0.00005   0.00030   0.00002   0.00032   1.88099
    A3        1.89516  -0.00004  -0.00035   0.00009  -0.00026   1.89490
    A4        1.88156  -0.00001  -0.00008  -0.00003  -0.00011   1.88145
    A5        1.89283   0.00002   0.00022   0.00000   0.00022   1.89305
    A6        2.00131  -0.00000   0.00006  -0.00002   0.00004   2.00136
    A7        2.02135   0.00004   0.00030  -0.00030   0.00000   2.02135
    A8        2.02074  -0.00003   0.00007  -0.00029  -0.00022   2.02052
    A9        1.95853  -0.00001   0.00015  -0.00034  -0.00019   1.95834
   A10        2.02339  -0.00006  -0.00011  -0.00002  -0.00013   2.02325
   A11        1.88986   0.00006   0.00016   0.00010   0.00026   1.89012
   A12        1.88925  -0.00001  -0.00006  -0.00010  -0.00015   1.88910
   A13        1.87824  -0.00002  -0.00007   0.00004  -0.00003   1.87821
   A14        1.87934   0.00005   0.00013  -0.00003   0.00010   1.87944
   A15        1.90118  -0.00001  -0.00005   0.00001  -0.00004   1.90113
   A16        1.93443  -0.00010  -0.00037  -0.00017  -0.00054   1.93389
   A17        1.93355  -0.00000   0.00025  -0.00013   0.00012   1.93367
   A18        1.89506  -0.00000   0.00004   0.00005   0.00009   1.89515
   A19        1.90460   0.00003  -0.00008   0.00004  -0.00004   1.90457
   A20        1.89751   0.00006   0.00013   0.00008   0.00022   1.89773
   A21        1.89798   0.00002   0.00002   0.00014   0.00016   1.89814
    D1        0.91985  -0.00000   0.00221   0.00133   0.00354   0.92338
    D2       -3.01705  -0.00001   0.00288   0.00010   0.00299  -3.01406
    D3        2.98107  -0.00000   0.00213   0.00124   0.00337   2.98445
    D4       -0.95582  -0.00000   0.00281   0.00001   0.00282  -0.95300
    D5       -1.19229   0.00001   0.00240   0.00121   0.00360  -1.18869
    D6        1.15399   0.00001   0.00307  -0.00002   0.00305   1.15704
    D7        1.00598  -0.00003   0.00328  -0.00001   0.00327   1.00925
    D8       -1.10586  -0.00001   0.00333  -0.00012   0.00320  -1.10266
    D9        3.11878  -0.00003   0.00333  -0.00014   0.00319   3.12197
   D10       -1.06944   0.00000   0.00355   0.00002   0.00357  -1.06587
   D11        3.10191   0.00002   0.00359  -0.00009   0.00350   3.10541
   D12        1.04336   0.00001   0.00360  -0.00011   0.00349   1.04685
   D13        3.11014   0.00000   0.00345   0.00008   0.00353   3.11367
   D14        0.99830   0.00002   0.00349  -0.00004   0.00346   1.00176
   D15       -1.06025   0.00001   0.00350  -0.00005   0.00345  -1.05680
   D16       -1.08219  -0.00000   0.00179  -0.00032   0.00147  -1.08072
   D17        1.03476  -0.00004   0.00162  -0.00047   0.00114   1.03591
   D18        3.11790  -0.00001   0.00182  -0.00035   0.00147   3.11938
   D19        1.03587   0.00002   0.00187  -0.00018   0.00169   1.03757
   D20       -3.13036  -0.00002   0.00170  -0.00033   0.00137  -3.12899
   D21       -1.04722   0.00001   0.00190  -0.00020   0.00170  -1.04553
   D22        3.08290   0.00002   0.00184  -0.00016   0.00168   3.08458
   D23       -1.08334  -0.00001   0.00167  -0.00031   0.00136  -1.08198
   D24        0.99980   0.00002   0.00187  -0.00018   0.00169   1.00149
         Item               Value     Threshold  Converged?
 Maximum Force            0.000151     0.000450     YES
 RMS     Force            0.000041     0.000300     YES
 Maximum Displacement     0.009599     0.001800     NO 
 RMS     Displacement     0.003073     0.001200     NO 
 Predicted change in Energy=-9.805696D-08
 GradGradGradGradGradGradGradGradGradGradGradGradGradGradGradGradGradGrad

                          Input orientation:                          
 ---------------------------------------------------------------------
 Center     Atomic      Atomic             Coordinates (Angstroms)
 Number     Number       Type             X           Y           Z
 ---------------------------------------------------------------------
      1          6           0        0.766388    0.637170   -0.118736
      2          9           0        0.587227    1.569401    0.830172
      3          9           0        0.602188    1.193105   -1.329286
      4          6           0        2.200720    0.148282   -0.023208
      5          9           0        2.587898   -0.258692    1.162609
      6          9           0        2.591832   -0.662686   -0.978039
      7          6           0       -0.311926   -0.471526    0.065284
      8          6           0       -1.791462    0.003592    0.011432
      9          9           0       -0.116289   -1.055571    1.256849
     10          9           0       -0.142452   -1.386085   -0.900370
     11          9           0       -2.046302    0.861486    0.989182
     12          9           0       -2.058721    0.579598   -1.152461
     13          9           0       -2.581127   -1.054185    0.155629
 ---------------------------------------------------------------------
                    Distance matrix (angstroms):
                    1          2          3          4          5
     1  C    0.000000
     2  F    1.342230   0.000000
     3  F    1.342184   2.192050   0.000000
     4  C    1.518369   2.313265   2.313611   0.000000
     5  F    2.400481   2.730407   3.501471   1.312134   0.000000
     6  F    2.400057   3.502896   2.743359   1.312380   2.178440
     7  C    1.557508   2.357735   2.356146   2.589475   3.107796
     8  C    2.638364   2.963150   2.990323   3.994953   4.535725
     9  F    2.353024   2.750903   3.501549   2.907978   2.820731
    10  F    2.351703   3.501729   2.718581   2.934987   3.603014
    11  F    3.031340   2.731648   3.535501   4.423888   4.770816
    12  F    3.008844   3.451316   2.736439   4.427650   5.258645
    13  F    3.760560   4.168534   4.169985   4.933960   5.325939
                    6          7          8          9         10
     6  F    0.000000
     7  C    3.091419   0.000000
     8  C    4.542714   1.554885   0.000000
     9  F    3.533129   1.341346   2.340747   0.000000
    10  F    2.829426   1.340756   2.341329   2.182549   0.000000
    11  F    5.263587   2.374567   1.325488   2.733442   3.499518
    12  F    4.816777   2.374670   1.325842   3.500227   2.756728
    13  F    5.310177   2.344552   1.327876   2.699650   2.678138
                   11         12         13
    11  F    0.000000
    12  F    2.160150   0.000000
    13  F    2.156535   2.157141   0.000000
 Stoichiometry    C4F9(2)
 Framework group  C1[X(C4F9)]
 Deg. of freedom    33
 Full point group                 C1      NOp   1
 Largest Abelian subgroup         C1      NOp   1
 Largest concise Abelian subgroup C1      NOp   1
                         Standard orientation:                         
 ---------------------------------------------------------------------
 Center     Atomic      Atomic             Coordinates (Angstroms)
 Number     Number       Type             X           Y           Z
 ---------------------------------------------------------------------
      1          6           0       -0.765895    0.647510    0.039841
      2          9           0       -0.584609    1.459435   -1.013485
      3          9           0       -0.602667    1.344073    1.175453
      4          6           0       -2.200591    0.151910    0.001492
      5          9           0       -2.586680   -0.393615   -1.127682
      6          9           0       -2.593715   -0.538735    1.045907
      7          6           0        0.311545   -0.476139   -0.008808
      8          6           0        1.791485    0.000769   -0.010128
      9          9           0        0.116828   -1.198313   -1.122253
     10          9           0        0.139943   -1.268524    1.059044
     11          9           0        2.048411    0.735377   -1.083095
     12          9           0        2.057851    0.711592    1.076903
     13          9           0        2.580276   -1.067323   -0.025724
 ---------------------------------------------------------------------
 Rotational constants (GHZ):           1.3623675           0.6011176           0.5937970
 Standard basis: 6-311+G(2d,2p) (5D, 7F)
 There are   377 symmetry adapted cartesian basis functions of A   symmetry.
 There are   351 symmetry adapted basis functions of A   symmetry.
   351 basis functions,   546 primitive gaussians,   377 cartesian basis functions
    53 alpha electrons       52 beta electrons
       nuclear repulsion energy      1021.3270835747 Hartrees.
 NAtoms=   13 NActive=   13 NUniq=   13 SFac= 1.00D+00 NAtFMM=   60 NAOKFM=F Big=F
 Integral buffers will be    131072 words long.
 Raffenetti 2 integral format.
 Two-electron integral symmetry is turned on.
 Nuclear repulsion after empirical dispersion term =     1021.3198755814 Hartrees.
 One-electron integrals computed using PRISM.
 NBasis=   351 RedAO= T EigKep=  1.07D-05  NBF=   351
 NBsUse=   351 1.00D-06 EigRej= -1.00D+00 NBFU=   351
 Initial guess from the checkpoint file:  "c4_rad.chk"
 B after Tr=    -0.000000    0.000000   -0.000000
         Rot=    0.999988    0.004875    0.000112    0.000038 Ang=   0.56 deg.
 Initial guess <Sx>= 0.0000 <Sy>= 0.0000 <Sz>= 0.5000 <S**2>= 0.7528 S= 0.5014
 Requested convergence on RMS density matrix=1.00D-08 within  32 cycles.
 Requested convergence on MAX density matrix=1.00D-06.
 Requested convergence on             energy=1.00D-06.
 No special actions if energy rises.
 SCF Done:  E(UwB97XD) =  -1050.98336253     A.U. after    9 cycles
            NFock=  9  Conv=0.40D-08     -V/T= 2.0025
 <Sx>= 0.0000 <Sy>= 0.0000 <Sz>= 0.5000 <S**2>= 0.7528 S= 0.5014
 <L.S>= 0.000000000000E+00
 Annihilation of the first spin contaminant:
 S**2 before annihilation     0.7528,   after     0.7500
 QCSCF skips out because SCF is already converged.
 Calling FoFJK, ICntrl=      2127 FMM=F ISym2X=0 I1Cent= 0 IOpClX= 1 NMat=1 NMatS=1 NMatT=0.
 ***** Axes restored to original set *****
 -------------------------------------------------------------------
 Center     Atomic                   Forces (Hartrees/Bohr)
 Number     Number              X              Y              Z
 -------------------------------------------------------------------
      1        6          -0.000015885    0.000021517   -0.000040378
      2        9          -0.000002662    0.000007795    0.000014752
      3        9           0.000004658   -0.000007917    0.000006913
      4        6          -0.000000863   -0.000042279    0.000011763
      5        9           0.000018384    0.000019128    0.000026157
      6        9           0.000011765    0.000006935   -0.000030233
      7        6          -0.000001930   -0.000000455    0.000043792
      8        6           0.000019672   -0.000007339   -0.000035189
      9        9          -0.000013545    0.000007311   -0.000019453
     10        9           0.000003183   -0.000008380   -0.000011955
     11        9          -0.000014250   -0.000000268    0.000013352
     12        9          -0.000015581   -0.000018778    0.000021375
     13        9           0.000007055    0.000022731   -0.000000897
 -------------------------------------------------------------------
 Cartesian Forces:  Max     0.000043792 RMS     0.000018687

 GradGradGradGradGradGradGradGradGradGradGradGradGradGradGradGradGradGrad
 Berny optimization.
 Using GEDIIS/GDIIS optimizer.
 FormGI is forming the generalized inverse of G from B-inverse, IUseBI=4.
 Internal  Forces:  Max     0.000034220 RMS     0.000013226
 Search for a local minimum.
 Step number   8 out of a maximum of   67
 All quantities printed in internal units (Hartrees-Bohrs-Radians)
 Mixed Optimization -- En-DIIS/RFO-DIIS
 Swapping is turned off.
 Update second derivatives using D2CorX and points    1    2    3    4    5
                                                      6    7    8
 DE=  3.37D-08 DEPred=-9.81D-08 R=-3.44D-01
 Trust test=-3.44D-01 RLast= 1.38D-02 DXMaxT set to 7.50D-02
 ITU= -1 -1  1  1  1  1  1  0
     Eigenvalues ---    0.00011   0.00357   0.00543   0.04106   0.05037
     Eigenvalues ---    0.06119   0.07190   0.07960   0.08816   0.09568
     Eigenvalues ---    0.13684   0.15619   0.18380   0.20639   0.23655
     Eigenvalues ---    0.25004   0.25043   0.25343   0.25899   0.26440
     Eigenvalues ---    0.27209   0.31057   0.31793   0.35973   0.51200
     Eigenvalues ---    0.56715   0.56970   0.57417   0.59691   0.60614
     Eigenvalues ---    0.62353   0.63833   0.64781
 En-DIIS/RFO-DIIS/Sim-DIIS IScMMF=       -3 using points:     8    7    6    5    4    3    2    1
 RFO step:  Lambda=-7.16891070D-08.
 DIIS inversion failure, remove point   8.
 DIIS inversion failure, remove point   7.
 DIIS inversion failure, remove point   6.
 RFO-DIIS uses    5 points instead of    8
 DidBck=T Rises=F RFO-DIIS coefs:    0.69307    0.85455   -0.74757    0.02602    0.17393
                  RFO-DIIS coefs:    0.00000    0.00000    0.00000
 Iteration  1 RMS(Cart)=  0.00089192 RMS(Int)=  0.00000037
 Iteration  2 RMS(Cart)=  0.00000041 RMS(Int)=  0.00000009
 Variable       Old X    -DE/DX   Delta X   Delta X   Delta X     New X
                                 (Linear)    (Quad)   (Total)
    R1        2.53645   0.00002   0.00001   0.00002   0.00003   2.53648
    R2        2.53636  -0.00001   0.00001  -0.00002  -0.00002   2.53634
    R3        2.86930   0.00003   0.00003   0.00002   0.00006   2.86936
    R4        2.94326   0.00001  -0.00012   0.00014   0.00002   2.94328
    R5        2.47957   0.00002   0.00002  -0.00000   0.00001   2.47959
    R6        2.48004   0.00002   0.00000   0.00002   0.00002   2.48006
    R7        2.93831   0.00000  -0.00003   0.00004   0.00000   2.93831
    R8        2.53478  -0.00002   0.00005  -0.00006  -0.00000   2.53477
    R9        2.53366   0.00001   0.00004  -0.00002   0.00002   2.53368
   R10        2.50481   0.00001  -0.00001   0.00003   0.00002   2.50483
   R11        2.50548  -0.00002  -0.00000  -0.00002  -0.00002   2.50545
   R12        2.50932  -0.00002   0.00001  -0.00003  -0.00002   2.50930
    A1        1.91094   0.00001  -0.00003   0.00002  -0.00001   1.91093
    A2        1.88099  -0.00000   0.00005  -0.00005   0.00000   1.88099
    A3        1.89490  -0.00001  -0.00005   0.00006   0.00001   1.89491
    A4        1.88145  -0.00001   0.00002  -0.00003  -0.00001   1.88144
    A5        1.89305  -0.00000   0.00000  -0.00002  -0.00002   1.89303
    A6        2.00136   0.00002  -0.00000   0.00002   0.00002   2.00138
    A7        2.02135   0.00002   0.00016  -0.00001   0.00015   2.02151
    A8        2.02052   0.00000   0.00004   0.00001   0.00005   2.02057
    A9        1.95834   0.00001   0.00013   0.00003   0.00016   1.95850
   A10        2.02325   0.00001  -0.00009   0.00007  -0.00002   2.02323
   A11        1.89012   0.00001   0.00005   0.00004   0.00009   1.89021
   A12        1.88910  -0.00001   0.00001  -0.00005  -0.00004   1.88906
   A13        1.87821  -0.00002  -0.00004  -0.00001  -0.00005   1.87816
   A14        1.87944  -0.00000   0.00010  -0.00007   0.00004   1.87948
   A15        1.90113   0.00000  -0.00004   0.00001  -0.00002   1.90111
   A16        1.93389   0.00001  -0.00004   0.00003  -0.00001   1.93388
   A17        1.93367   0.00003   0.00008  -0.00001   0.00007   1.93374
   A18        1.89515   0.00000   0.00003  -0.00001   0.00002   1.89517
   A19        1.90457  -0.00001  -0.00003   0.00004   0.00002   1.90458
   A20        1.89773  -0.00002  -0.00001  -0.00005  -0.00006   1.89767
   A21        1.89814  -0.00002  -0.00003  -0.00001  -0.00004   1.89810
    D1        0.92338  -0.00002  -0.00086   0.00003  -0.00083   0.92255
    D2       -3.01406   0.00002  -0.00042   0.00008  -0.00034  -3.01440
    D3        2.98445  -0.00002  -0.00085   0.00001  -0.00085   2.98360
    D4       -0.95300   0.00002  -0.00041   0.00006  -0.00035  -0.95335
    D5       -1.18869  -0.00002  -0.00084  -0.00003  -0.00086  -1.18956
    D6        1.15704   0.00002  -0.00039   0.00002  -0.00037   1.15667
    D7        1.00925  -0.00000  -0.00102   0.00005  -0.00097   1.00828
    D8       -1.10266   0.00000  -0.00095  -0.00001  -0.00096  -1.10362
    D9        3.12197   0.00000  -0.00094  -0.00003  -0.00096   3.12101
   D10       -1.06587  -0.00000  -0.00096   0.00001  -0.00095  -1.06682
   D11        3.10541   0.00000  -0.00089  -0.00006  -0.00094   3.10446
   D12        1.04685  -0.00000  -0.00088  -0.00007  -0.00095   1.04590
   D13        3.11367  -0.00000  -0.00099   0.00005  -0.00094   3.11272
   D14        1.00176   0.00000  -0.00091  -0.00002  -0.00093   1.00083
   D15       -1.05680  -0.00000  -0.00091  -0.00003  -0.00094  -1.05774
   D16       -1.08072  -0.00001  -0.00073  -0.00009  -0.00082  -1.08153
   D17        1.03591   0.00000  -0.00073  -0.00002  -0.00075   1.03515
   D18        3.11938  -0.00000  -0.00071  -0.00004  -0.00075   3.11863
   D19        1.03757  -0.00000  -0.00075  -0.00000  -0.00075   1.03681
   D20       -3.12899   0.00001  -0.00076   0.00007  -0.00069  -3.12968
   D21       -1.04553   0.00001  -0.00073   0.00005  -0.00069  -1.04621
   D22        3.08458  -0.00001  -0.00076  -0.00002  -0.00078   3.08379
   D23       -1.08198   0.00000  -0.00077   0.00005  -0.00072  -1.08270
   D24        1.00149   0.00000  -0.00074   0.00002  -0.00072   1.00077
         Item               Value     Threshold  Converged?
 Maximum Force            0.000034     0.000450     YES
 RMS     Force            0.000013     0.000300     YES
 Maximum Displacement     0.002573     0.001800     NO 
 RMS     Displacement     0.000892     0.001200     YES
 Predicted change in Energy=-3.130489D-08
 GradGradGradGradGradGradGradGradGradGradGradGradGradGradGradGradGradGrad

                          Input orientation:                          
 ---------------------------------------------------------------------
 Center     Atomic      Atomic             Coordinates (Angstroms)
 Number     Number       Type             X           Y           Z
 ---------------------------------------------------------------------
      1          6           0        0.766378    0.637026   -0.119183
      2          9           0        0.586884    1.569683    0.829267
      3          9           0        0.602538    1.192426   -1.330018
      4          6           0        2.200730    0.148232   -0.023000
      5          9           0        2.588044   -0.257331    1.163264
      6          9           0        2.592113   -0.663468   -0.977114
      7          6           0       -0.311978   -0.471625    0.064952
      8          6           0       -1.791482    0.003670    0.011732
      9          9           0       -0.116075   -1.056035    1.256292
     10          9           0       -0.142883   -1.385954   -0.901001
     11          9           0       -2.046143    0.860595    0.990389
     12          9           0       -2.058920    0.580821   -1.151538
     13          9           0       -2.581234   -1.054152    0.155014
 ---------------------------------------------------------------------
                    Distance matrix (angstroms):
                    1          2          3          4          5
     1  C    0.000000
     2  F    1.342246   0.000000
     3  F    1.342175   2.192049   0.000000
     4  C    1.518400   2.313306   2.313624   0.000000
     5  F    2.400628   2.730234   3.501498   1.312142   0.000000
     6  F    2.400132   3.502987   2.743591   1.312391   2.178573
     7  C    1.557519   2.357767   2.356129   2.589529   3.108431
     8  C    2.638358   2.962666   2.990780   3.994980   4.535901
     9  F    2.353107   2.751526   3.501568   2.907651   2.821142
    10  F    2.351690   3.501739   2.718042   2.935496   3.604572
    11  F    3.031734   2.731592   3.536935   4.423839   4.770255
    12  F    3.008525   3.449886   2.736653   4.427793   5.258810
    13  F    3.760556   4.168465   4.169992   4.934025   5.326625
                    6          7          8          9         10
     6  F    0.000000
     7  C    3.091351   0.000000
     8  C    4.542994   1.554886   0.000000
     9  F    3.532208   1.341344   2.340704   0.000000
    10  F    2.829838   1.340767   2.341371   2.182539   0.000000
    11  F    5.263768   2.374567   1.325497   2.733008   3.499534
    12  F    4.817757   2.374720   1.325829   3.500227   2.757204
    13  F    5.310167   2.344562   1.327865   2.699968   2.677838
                   11         12         13
    11  F    0.000000
    12  F    2.160159   0.000000
    13  F    2.156486   2.157088   0.000000
 Stoichiometry    C4F9(2)
 Framework group  C1[X(C4F9)]
 Deg. of freedom    33
 Full point group                 C1      NOp   1
 Largest Abelian subgroup         C1      NOp   1
 Largest concise Abelian subgroup C1      NOp   1
                         Standard orientation:                         
 ---------------------------------------------------------------------
 Center     Atomic      Atomic             Coordinates (Angstroms)
 Number     Number       Type             X           Y           Z
 ---------------------------------------------------------------------
      1          6           0       -0.765894    0.647331    0.041481
      2          9           0       -0.584309    1.461612   -1.009994
      3          9           0       -0.603015    1.341371    1.178675
      4          6           0       -2.200602    0.151792    0.001614
      5          9           0       -2.586839   -0.390376   -1.129134
      6          9           0       -2.593964   -0.541532    1.044177
      7          6           0        0.311606   -0.476181   -0.009314
      8          6           0        1.791507    0.000853   -0.010460
      9          9           0        0.116612   -1.196707   -1.123775
     10          9           0        0.140417   -1.270210    1.057396
     11          9           0        2.048221    0.736309   -1.082908
     12          9           0        2.058063    0.710804    1.077078
     13          9           0        2.580402   -1.067134   -0.027063
 ---------------------------------------------------------------------
 Rotational constants (GHZ):           1.3623692           0.6010719           0.5937594
 Standard basis: 6-311+G(2d,2p) (5D, 7F)
 There are   377 symmetry adapted cartesian basis functions of A   symmetry.
 There are   351 symmetry adapted basis functions of A   symmetry.
   351 basis functions,   546 primitive gaussians,   377 cartesian basis functions
    53 alpha electrons       52 beta electrons
       nuclear repulsion energy      1021.3098409359 Hartrees.
 NAtoms=   13 NActive=   13 NUniq=   13 SFac= 1.00D+00 NAtFMM=   60 NAOKFM=F Big=F
 Integral buffers will be    131072 words long.
 Raffenetti 2 integral format.
 Two-electron integral symmetry is turned on.
 Nuclear repulsion after empirical dispersion term =     1021.3026328264 Hartrees.
 One-electron integrals computed using PRISM.
 NBasis=   351 RedAO= T EigKep=  1.07D-05  NBF=   351
 NBsUse=   351 1.00D-06 EigRej= -1.00D+00 NBFU=   351
 Initial guess from the checkpoint file:  "c4_rad.chk"
 B after Tr=     0.000000    0.000000    0.000000
         Rot=    1.000000   -0.000891   -0.000009   -0.000007 Ang=  -0.10 deg.
 Initial guess <Sx>= 0.0000 <Sy>= 0.0000 <Sz>= 0.5000 <S**2>= 0.7528 S= 0.5014
 Requested convergence on RMS density matrix=1.00D-08 within  32 cycles.
 Requested convergence on MAX density matrix=1.00D-06.
 Requested convergence on             energy=1.00D-06.
 No special actions if energy rises.
 SCF Done:  E(UwB97XD) =  -1050.98336259     A.U. after    8 cycles
            NFock=  8  Conv=0.43D-08     -V/T= 2.0025
 <Sx>= 0.0000 <Sy>= 0.0000 <Sz>= 0.5000 <S**2>= 0.7528 S= 0.5014
 <L.S>= 0.000000000000E+00
 Annihilation of the first spin contaminant:
 S**2 before annihilation     0.7528,   after     0.7500
 QCSCF skips out because SCF is already converged.
 Calling FoFJK, ICntrl=      2127 FMM=F ISym2X=0 I1Cent= 0 IOpClX= 1 NMat=1 NMatS=1 NMatT=0.
 ***** Axes restored to original set *****
 -------------------------------------------------------------------
 Center     Atomic                   Forces (Hartrees/Bohr)
 Number     Number              X              Y              Z
 -------------------------------------------------------------------
      1        6           0.000000819    0.000001919   -0.000017656
      2        9           0.000002663   -0.000001653    0.000007707
      3        9           0.000003317   -0.000010327    0.000005043
      4        6          -0.000001657    0.000003374    0.000005230
      5        9           0.000001263    0.000003455   -0.000002598
      6        9           0.000002428   -0.000000165   -0.000000980
      7        6          -0.000006916   -0.000002591    0.000024731
      8        6           0.000003181   -0.000007479   -0.000020295
      9        9          -0.000002062    0.000011720   -0.000015829
     10        9           0.000001580    0.000001319   -0.000004762
     11        9          -0.000005220    0.000003529    0.000006894
     12        9          -0.000004891   -0.000007038    0.000010873
     13        9           0.000005494    0.000003937    0.000001642
 -------------------------------------------------------------------
 Cartesian Forces:  Max     0.000024731 RMS     0.000007986

 GradGradGradGradGradGradGradGradGradGradGradGradGradGradGradGradGradGrad
 Berny optimization.
 Using GEDIIS/GDIIS optimizer.
 FormGI is forming the generalized inverse of G from B-inverse, IUseBI=4.
 Internal  Forces:  Max     0.000020383 RMS     0.000005829
 Search for a local minimum.
 Step number   9 out of a maximum of   67
 All quantities printed in internal units (Hartrees-Bohrs-Radians)
 Mixed Optimization -- En-DIIS/RFO-DIIS
 Swapping is turned off.
 Update second derivatives using D2CorX and points    1    2    3    4    5
                                                      6    7    8    9
 DE= -6.33D-08 DEPred=-3.13D-08 R= 2.02D+00
 Trust test= 2.02D+00 RLast= 3.96D-03 DXMaxT set to 7.50D-02
 ITU=  0 -1 -1  1  1  1  1  1  0
     Eigenvalues ---    0.00011   0.00367   0.00548   0.04952   0.05524
     Eigenvalues ---    0.06123   0.07182   0.08225   0.08703   0.09531
     Eigenvalues ---    0.13897   0.15590   0.18154   0.20835   0.23238
     Eigenvalues ---    0.24846   0.25009   0.25137   0.25848   0.26570
     Eigenvalues ---    0.27210   0.31794   0.33604   0.35802   0.49492
     Eigenvalues ---    0.56695   0.57041   0.57462   0.59587   0.60688
     Eigenvalues ---    0.62175   0.63805   0.66305
 En-DIIS/RFO-DIIS/Sim-DIIS IScMMF=       -3 using points:     9    8    7    6    5    4    3    2    1
 RFO step:  Lambda=-5.24816935D-09.
 DIIS inversion failure, remove point   9.
 DIIS inversion failure, remove point   8.
 DIIS inversion failure, remove point   7.
 DIIS inversion failure, remove point   6.
 DIIS inversion failure, remove point   5.
 DIIS inversion failure, remove point   4.
 RFO-DIIS uses    3 points instead of    9
 DidBck=F Rises=F RFO-DIIS coefs:    2.19321   -1.31679    0.12358    0.00000    0.00000
                  RFO-DIIS coefs:    0.00000    0.00000    0.00000    0.00000
 Iteration  1 RMS(Cart)=  0.00146418 RMS(Int)=  0.00000091
 Iteration  2 RMS(Cart)=  0.00000104 RMS(Int)=  0.00000001
 Iteration  3 RMS(Cart)=  0.00000000 RMS(Int)=  0.00000001
 Variable       Old X    -DE/DX   Delta X   Delta X   Delta X     New X
                                 (Linear)    (Quad)   (Total)
    R1        2.53648   0.00000   0.00002  -0.00000   0.00002   2.53650
    R2        2.53634  -0.00001  -0.00002  -0.00001  -0.00003   2.53632
    R3        2.86936   0.00000   0.00007  -0.00007   0.00000   2.86936
    R4        2.94328   0.00000   0.00008  -0.00006   0.00002   2.94331
    R5        2.47959  -0.00000   0.00001  -0.00003  -0.00002   2.47957
    R6        2.48006   0.00000   0.00005  -0.00003   0.00002   2.48008
    R7        2.93831   0.00000   0.00002  -0.00002  -0.00000   2.93831
    R8        2.53477  -0.00002  -0.00000  -0.00001  -0.00001   2.53476
    R9        2.53368   0.00000  -0.00003   0.00001  -0.00002   2.53366
   R10        2.50483   0.00001  -0.00000   0.00001   0.00001   2.50483
   R11        2.50545  -0.00001  -0.00000  -0.00001  -0.00001   2.50545
   R12        2.50930  -0.00001  -0.00004   0.00002  -0.00002   2.50928
    A1        1.91093   0.00001   0.00002   0.00003   0.00004   1.91097
    A2        1.88099  -0.00001  -0.00004  -0.00001  -0.00004   1.88095
    A3        1.89491  -0.00000   0.00005  -0.00001   0.00003   1.89494
    A4        1.88144  -0.00000   0.00001   0.00001   0.00001   1.88145
    A5        1.89303  -0.00000  -0.00006   0.00000  -0.00005   1.89298
    A6        2.00138   0.00001   0.00002  -0.00001   0.00001   2.00139
    A7        2.02151   0.00000   0.00018  -0.00014   0.00004   2.02155
    A8        2.02057   0.00000   0.00009  -0.00012  -0.00003   2.02054
    A9        1.95850  -0.00000   0.00022  -0.00020   0.00001   1.95852
   A10        2.02323   0.00002  -0.00001   0.00003   0.00002   2.02325
   A11        1.89021  -0.00001   0.00007  -0.00004   0.00003   1.89024
   A12        1.88906  -0.00001  -0.00002  -0.00003  -0.00005   1.88901
   A13        1.87816  -0.00001  -0.00006   0.00002  -0.00004   1.87813
   A14        1.87948  -0.00000   0.00003   0.00001   0.00004   1.87951
   A15        1.90111   0.00001  -0.00002   0.00002   0.00000   1.90112
   A16        1.93388   0.00000   0.00005  -0.00006  -0.00000   1.93387
   A17        1.93374   0.00001   0.00007  -0.00003   0.00004   1.93378
   A18        1.89517  -0.00001   0.00001  -0.00002  -0.00000   1.89516
   A19        1.90458  -0.00000   0.00002  -0.00002   0.00001   1.90459
   A20        1.89767  -0.00000  -0.00010   0.00006  -0.00004   1.89763
   A21        1.89810  -0.00000  -0.00007   0.00007  -0.00000   1.89810
    D1        0.92255  -0.00000  -0.00143   0.00043  -0.00100   0.92156
    D2       -3.01440  -0.00000  -0.00077  -0.00019  -0.00096  -3.01536
    D3        2.98360  -0.00000  -0.00143   0.00046  -0.00096   2.98264
    D4       -0.95335   0.00000  -0.00077  -0.00016  -0.00092  -0.95428
    D5       -1.18956  -0.00000  -0.00148   0.00046  -0.00101  -1.19057
    D6        1.15667   0.00000  -0.00082  -0.00015  -0.00097   1.15570
    D7        1.00828   0.00000  -0.00156  -0.00008  -0.00164   1.00664
    D8       -1.10362   0.00000  -0.00154  -0.00009  -0.00163  -1.10525
    D9        3.12101   0.00000  -0.00154  -0.00008  -0.00162   3.11939
   D10       -1.06682  -0.00000  -0.00158  -0.00010  -0.00168  -1.06851
   D11        3.10446  -0.00000  -0.00156  -0.00011  -0.00167   3.10279
   D12        1.04590  -0.00000  -0.00156  -0.00010  -0.00166   1.04424
   D13        3.11272  -0.00000  -0.00156  -0.00011  -0.00167   3.11105
   D14        1.00083  -0.00000  -0.00154  -0.00012  -0.00166   0.99917
   D15       -1.05774  -0.00000  -0.00154  -0.00010  -0.00165  -1.05938
   D16       -1.08153  -0.00000  -0.00116   0.00001  -0.00115  -1.08268
   D17        1.03515   0.00000  -0.00104  -0.00008  -0.00112   1.03404
   D18        3.11863   0.00000  -0.00108  -0.00002  -0.00110   3.11753
   D19        1.03681  -0.00000  -0.00111  -0.00001  -0.00112   1.03569
   D20       -3.12968   0.00000  -0.00099  -0.00010  -0.00109  -3.13077
   D21       -1.04621   0.00000  -0.00103  -0.00005  -0.00107  -1.04729
   D22        3.08379  -0.00000  -0.00114   0.00003  -0.00112   3.08267
   D23       -1.08270   0.00000  -0.00103  -0.00006  -0.00109  -1.08379
   D24        1.00077   0.00000  -0.00106  -0.00001  -0.00107   0.99970
         Item               Value     Threshold  Converged?
 Maximum Force            0.000020     0.000450     YES
 RMS     Force            0.000006     0.000300     YES
 Maximum Displacement     0.003772     0.001800     NO 
 RMS     Displacement     0.001464     0.001200     NO 
 Predicted change in Energy=-5.627966D-09
 GradGradGradGradGradGradGradGradGradGradGradGradGradGradGradGradGradGrad

                          Input orientation:                          
 ---------------------------------------------------------------------
 Center     Atomic      Atomic             Coordinates (Angstroms)
 Number     Number       Type             X           Y           Z
 ---------------------------------------------------------------------
      1          6           0        0.766390    0.636894   -0.119959
      2          9           0        0.586348    1.570195    0.827767
      3          9           0        0.603144    1.191396   -1.331270
      4          6           0        2.200732    0.148287   -0.022643
      5          9           0        2.587830   -0.255335    1.164344
      6          9           0        2.592336   -0.664933   -0.975383
      7          6           0       -0.311995   -0.471719    0.064330
      8          6           0       -1.791481    0.003756    0.012269
      9          9           0       -0.115457   -1.056732    1.255263
     10          9           0       -0.143548   -1.385580   -0.902166
     11          9           0       -2.045806    0.859165    0.992344
     12          9           0       -2.059268    0.582719   -1.150015
     13          9           0       -2.581252   -1.054226    0.154176
 ---------------------------------------------------------------------
                    Distance matrix (angstroms):
                    1          2          3          4          5
     1  C    0.000000
     2  F    1.342256   0.000000
     3  F    1.342160   2.192079   0.000000
     4  C    1.518402   2.313278   2.313626   0.000000
     5  F    2.400656   2.729794   3.501442   1.312134   0.000000
     6  F    2.400122   3.503018   2.743992   1.312400   2.178583
     7  C    1.557530   2.357811   2.356083   2.589550   3.108993
     8  C    2.638381   2.961898   2.991624   3.994981   4.535722
     9  F    2.353138   2.752459   3.501517   2.906862   2.821039
    10  F    2.351646   3.501718   2.717073   2.936317   3.606708
    11  F    3.032337   2.731462   3.539279   4.423644   4.768886
    12  F    3.008038   3.447610   2.737111   4.428012   5.258718
    13  F    3.760551   4.168334   4.170101   4.934032   5.327108
                    6          7          8          9         10
     6  F    0.000000
     7  C    3.090869   0.000000
     8  C    4.543177   1.554885   0.000000
     9  F    3.530076   1.341339   2.340668   0.000000
    10  F    2.830151   1.340758   2.341395   2.182529   0.000000
    11  F    5.263762   2.374566   1.325501   2.732405   3.499520
    12  F    4.819185   2.374750   1.325826   3.500224   2.757828
    13  F    5.309752   2.344550   1.327856   2.700472   2.677323
                   11         12         13
    11  F    0.000000
    12  F    2.160164   0.000000
    13  F    2.156454   2.157075   0.000000
 Stoichiometry    C4F9(2)
 Framework group  C1[X(C4F9)]
 Deg. of freedom    33
 Full point group                 C1      NOp   1
 Largest Abelian subgroup         C1      NOp   1
 Largest concise Abelian subgroup C1      NOp   1
                         Standard orientation:                         
 ---------------------------------------------------------------------
 Center     Atomic      Atomic             Coordinates (Angstroms)
 Number     Number       Type             X           Y           Z
 ---------------------------------------------------------------------
      1          6           0       -0.765912    0.647164    0.044080
      2          9           0       -0.583830    1.465042   -1.004525
      3          9           0       -0.603592    1.337257    1.183737
      4          6           0       -2.200605    0.151776    0.001769
      5          9           0       -2.586661   -0.385458   -1.131383
      6          9           0       -2.594139   -0.546068    1.041259
      7          6           0        0.311627   -0.476174   -0.009984
      8          6           0        1.791506    0.000923   -0.011057
      9          9           0        0.115961   -1.194204   -1.125931
     10          9           0        0.141136   -1.272590    1.055044
     11          9           0        2.047835    0.737644   -1.082735
     12          9           0        2.058449    0.709588    1.077221
     13          9           0        2.580429   -1.067005   -0.029225
 ---------------------------------------------------------------------
 Rotational constants (GHZ):           1.3623651           0.6010666           0.5937543
 Standard basis: 6-311+G(2d,2p) (5D, 7F)
 There are   377 symmetry adapted cartesian basis functions of A   symmetry.
 There are   351 symmetry adapted basis functions of A   symmetry.
   351 basis functions,   546 primitive gaussians,   377 cartesian basis functions
    53 alpha electrons       52 beta electrons
       nuclear repulsion energy      1021.3079963535 Hartrees.
 NAtoms=   13 NActive=   13 NUniq=   13 SFac= 1.00D+00 NAtFMM=   60 NAOKFM=F Big=F
 Integral buffers will be    131072 words long.
 Raffenetti 2 integral format.
 Two-electron integral symmetry is turned on.
 Nuclear repulsion after empirical dispersion term =     1021.3007881570 Hartrees.
 One-electron integrals computed using PRISM.
 NBasis=   351 RedAO= T EigKep=  1.07D-05  NBF=   351
 NBsUse=   351 1.00D-06 EigRej= -1.00D+00 NBFU=   351
 Initial guess from the checkpoint file:  "c4_rad.chk"
 B after Tr=    -0.000000   -0.000000   -0.000000
         Rot=    0.999999   -0.001366   -0.000017   -0.000005 Ang=  -0.16 deg.
 Initial guess <Sx>= 0.0000 <Sy>= 0.0000 <Sz>= 0.5000 <S**2>= 0.7528 S= 0.5014
 Requested convergence on RMS density matrix=1.00D-08 within  32 cycles.
 Requested convergence on MAX density matrix=1.00D-06.
 Requested convergence on             energy=1.00D-06.
 No special actions if energy rises.
 SCF Done:  E(UwB97XD) =  -1050.98336265     A.U. after    8 cycles
            NFock=  8  Conv=0.52D-08     -V/T= 2.0025
 <Sx>= 0.0000 <Sy>= 0.0000 <Sz>= 0.5000 <S**2>= 0.7528 S= 0.5014
 <L.S>= 0.000000000000E+00
 Annihilation of the first spin contaminant:
 S**2 before annihilation     0.7528,   after     0.7500
 QCSCF skips out because SCF is already converged.
 Calling FoFJK, ICntrl=      2127 FMM=F ISym2X=0 I1Cent= 0 IOpClX= 1 NMat=1 NMatS=1 NMatT=0.
 ***** Axes restored to original set *****
 -------------------------------------------------------------------
 Center     Atomic                   Forces (Hartrees/Bohr)
 Number     Number              X              Y              Z
 -------------------------------------------------------------------
      1        6           0.000001540   -0.000005339   -0.000003085
      2        9           0.000000628    0.000001183   -0.000000008
      3        9          -0.000001118   -0.000002545    0.000002357
      4        6          -0.000002558    0.000003969    0.000001312
      5        9          -0.000000751    0.000001665   -0.000004085
      6        9           0.000002052   -0.000000344    0.000001705
      7        6          -0.000000251    0.000002810    0.000008679
      8        6          -0.000001930   -0.000003250   -0.000007640
      9        9           0.000000268    0.000005537   -0.000003565
     10        9          -0.000000811   -0.000000239   -0.000003274
     11        9          -0.000000315    0.000002973    0.000001382
     12        9           0.000001895   -0.000000667    0.000004132
     13        9           0.000001350   -0.000005752    0.000002090
 -------------------------------------------------------------------
 Cartesian Forces:  Max     0.000008679 RMS     0.000003157

 GradGradGradGradGradGradGradGradGradGradGradGradGradGradGradGradGradGrad
 Berny optimization.
 Using GEDIIS/GDIIS optimizer.
 FormGI is forming the generalized inverse of G from B-inverse, IUseBI=4.
 Internal  Forces:  Max     0.000007761 RMS     0.000002414
 Search for a local minimum.
 Step number  10 out of a maximum of   67
 All quantities printed in internal units (Hartrees-Bohrs-Radians)
 Mixed Optimization -- En-DIIS/RFO-DIIS
 Swapping is turned off.
 Update second derivatives using D2CorX and points    1    2    3    4    5
                                                      6    7    8    9   10
 DE= -6.29D-08 DEPred=-5.63D-09 R= 1.12D+01
 Trust test= 1.12D+01 RLast= 6.42D-03 DXMaxT set to 7.50D-02
 ITU=  0  0 -1 -1  1  1  1  1  1  0
     Eigenvalues ---    0.00008   0.00378   0.00553   0.04840   0.05632
     Eigenvalues ---    0.06124   0.07174   0.08205   0.08728   0.09912
     Eigenvalues ---    0.13862   0.15625   0.18849   0.20944   0.23400
     Eigenvalues ---    0.23928   0.25012   0.25100   0.25861   0.26516
     Eigenvalues ---    0.27186   0.28946   0.33415   0.37064   0.48526
     Eigenvalues ---    0.56355   0.56664   0.57175   0.59410   0.60723
     Eigenvalues ---    0.62918   0.63560   0.67620
 Eigenvalue     1 is   7.93D-05 Eigenvector:
                          D7        D10       D13       D9        D8
   1                   -0.25269  -0.25237  -0.25093  -0.24984  -0.24968
                          D12       D11       D15       D14       D17
   1                   -0.24952  -0.24936  -0.24809  -0.24792  -0.19087
 En-DIIS/RFO-DIIS/Sim-DIIS IScMMF=       -3 using points:    10    9    8    7    6    5    4    3    2    1
 RFO step:  Lambda=-9.48236734D-10.
 DIIS inversion failure, remove point  10.
 DIIS inversion failure, remove point   9.
 DIIS inversion failure, remove point   8.
 DIIS inversion failure, remove point   7.
 DIIS inversion failure, remove point   6.
 DIIS inversion failure, remove point   5.
 DIIS inversion failure, remove point   4.
 DIIS inversion failure, remove point   3.
 RFO-DIIS uses    2 points instead of   10
 DidBck=F Rises=F RFO-DIIS coefs:    1.72206   -0.72206    0.00000    0.00000    0.00000
                  RFO-DIIS coefs:    0.00000    0.00000    0.00000    0.00000    0.00000
 Iteration  1 RMS(Cart)=  0.00104868 RMS(Int)=  0.00000048
 Iteration  2 RMS(Cart)=  0.00000055 RMS(Int)=  0.00000000
 Variable       Old X    -DE/DX   Delta X   Delta X   Delta X     New X
                                 (Linear)    (Quad)   (Total)
    R1        2.53650   0.00000   0.00001  -0.00000   0.00001   2.53651
    R2        2.53632  -0.00000  -0.00002   0.00000  -0.00002   2.53630
    R3        2.86936  -0.00000   0.00000  -0.00001  -0.00000   2.86936
    R4        2.94331  -0.00000   0.00001  -0.00001   0.00000   2.94331
    R5        2.47957  -0.00000  -0.00001  -0.00000  -0.00001   2.47956
    R6        2.48008  -0.00000   0.00001  -0.00000   0.00001   2.48009
    R7        2.93831  -0.00000  -0.00000  -0.00000  -0.00001   2.93830
    R8        2.53476  -0.00001  -0.00001   0.00000  -0.00000   2.53476
    R9        2.53366   0.00000  -0.00001   0.00000  -0.00001   2.53366
   R10        2.50483   0.00000   0.00001  -0.00000   0.00001   2.50484
   R11        2.50545  -0.00000  -0.00000   0.00000  -0.00000   2.50544
   R12        2.50928   0.00000  -0.00001   0.00001  -0.00000   2.50928
    A1        1.91097   0.00000   0.00003  -0.00003   0.00000   1.91097
    A2        1.88095  -0.00000  -0.00003   0.00001  -0.00003   1.88092
    A3        1.89494   0.00000   0.00002   0.00001   0.00003   1.89498
    A4        1.88145   0.00000   0.00001   0.00001   0.00002   1.88147
    A5        1.89298  -0.00000  -0.00004  -0.00000  -0.00004   1.89294
    A6        2.00139   0.00000   0.00001   0.00000   0.00001   2.00140
    A7        2.02155  -0.00000   0.00003  -0.00001   0.00002   2.02157
    A8        2.02054   0.00000  -0.00002   0.00001  -0.00001   2.02054
    A9        1.95852  -0.00000   0.00001  -0.00001  -0.00000   1.95851
   A10        2.02325   0.00001   0.00001  -0.00001   0.00001   2.02326
   A11        1.89024  -0.00000   0.00002   0.00000   0.00002   1.89026
   A12        1.88901  -0.00000  -0.00004   0.00001  -0.00003   1.88898
   A13        1.87813  -0.00000  -0.00003   0.00001  -0.00002   1.87811
   A14        1.87951  -0.00000   0.00003  -0.00002   0.00001   1.87952
   A15        1.90112   0.00000   0.00000   0.00001   0.00001   1.90113
   A16        1.93387   0.00000  -0.00000  -0.00001  -0.00001   1.93387
   A17        1.93378  -0.00000   0.00003  -0.00002   0.00001   1.93379
   A18        1.89516  -0.00001  -0.00000  -0.00000  -0.00001   1.89516
   A19        1.90459  -0.00000   0.00000  -0.00001  -0.00001   1.90458
   A20        1.89763   0.00000  -0.00003   0.00002  -0.00000   1.89763
   A21        1.89810   0.00000  -0.00000   0.00003   0.00002   1.89812
    D1        0.92156   0.00000  -0.00072   0.00009  -0.00062   0.92093
    D2       -3.01536   0.00000  -0.00069   0.00008  -0.00061  -3.01597
    D3        2.98264   0.00000  -0.00069   0.00007  -0.00062   2.98201
    D4       -0.95428  -0.00000  -0.00067   0.00005  -0.00061  -0.95489
    D5       -1.19057   0.00000  -0.00073   0.00008  -0.00065  -1.19122
    D6        1.15570  -0.00000  -0.00070   0.00006  -0.00064   1.15506
    D7        1.00664   0.00000  -0.00119   0.00004  -0.00115   1.00549
    D8       -1.10525   0.00000  -0.00118   0.00003  -0.00115  -1.10639
    D9        3.11939  -0.00000  -0.00117   0.00002  -0.00116   3.11823
   D10       -1.06851   0.00000  -0.00122   0.00007  -0.00115  -1.06965
   D11        3.10279   0.00000  -0.00121   0.00006  -0.00115   3.10165
   D12        1.04424  -0.00000  -0.00120   0.00005  -0.00115   1.04309
   D13        3.11105   0.00000  -0.00120   0.00006  -0.00115   3.10991
   D14        0.99917  -0.00000  -0.00120   0.00005  -0.00115   0.99802
   D15       -1.05938  -0.00000  -0.00119   0.00003  -0.00116  -1.06054
   D16       -1.08268   0.00000  -0.00083  -0.00010  -0.00093  -1.08361
   D17        1.03404  -0.00000  -0.00081  -0.00014  -0.00094   1.03310
   D18        3.11753  -0.00000  -0.00079  -0.00012  -0.00091   3.11661
   D19        1.03569   0.00000  -0.00081  -0.00010  -0.00091   1.03478
   D20       -3.13077  -0.00000  -0.00079  -0.00013  -0.00092  -3.13170
   D21       -1.04729  -0.00000  -0.00078  -0.00012  -0.00089  -1.04818
   D22        3.08267   0.00000  -0.00081  -0.00009  -0.00090   3.08178
   D23       -1.08379  -0.00000  -0.00079  -0.00013  -0.00091  -1.08470
   D24        0.99970   0.00000  -0.00077  -0.00011  -0.00088   0.99881
         Item               Value     Threshold  Converged?
 Maximum Force            0.000008     0.000450     YES
 RMS     Force            0.000002     0.000300     YES
 Maximum Displacement     0.002727     0.001800     NO 
 RMS     Displacement     0.001049     0.001200     YES
 Predicted change in Energy=-1.476305D-09
 GradGradGradGradGradGradGradGradGradGradGradGradGradGradGradGradGradGrad

                          Input orientation:                          
 ---------------------------------------------------------------------
 Center     Atomic      Atomic             Coordinates (Angstroms)
 Number     Number       Type             X           Y           Z
 ---------------------------------------------------------------------
      1          6           0        0.766390    0.636792   -0.120515
      2          9           0        0.585970    1.570590    0.826658
      3          9           0        0.603532    1.190635   -1.332169
      4          6           0        2.200725    0.148329   -0.022408
      5          9           0        2.587654   -0.253950    1.165082
      6          9           0        2.592506   -0.665948   -0.974182
      7          6           0       -0.312004   -0.471787    0.063927
      8          6           0       -1.791475    0.003812    0.012653
      9          9           0       -0.115016   -1.057176    1.254600
     10          9           0       -0.144029   -1.385355   -0.902923
     11          9           0       -2.045598    0.858087    0.993773
     12          9           0       -2.059418    0.584162   -1.148901
     13          9           0       -2.581264   -1.054302    0.153463
 ---------------------------------------------------------------------
                    Distance matrix (angstroms):
                    1          2          3          4          5
     1  C    0.000000
     2  F    1.342262   0.000000
     3  F    1.342151   2.192079   0.000000
     4  C    1.518400   2.313261   2.313634   0.000000
     5  F    2.400664   2.729509   3.501404   1.312126   0.000000
     6  F    2.400121   3.503044   2.744280   1.312407   2.178582
     7  C    1.557530   2.357843   2.356043   2.589557   3.109343
     8  C    2.638384   2.961358   2.992182   3.994969   4.535560
     9  F    2.353157   2.753120   3.501477   2.906312   2.820924
    10  F    2.351616   3.501708   2.716399   2.936897   3.608159
    11  F    3.032802   2.731435   3.540973   4.423533   4.767914
    12  F    3.007580   3.445860   2.737280   4.428065   5.258539
    13  F    3.760538   4.168287   4.170104   4.934032   5.327443
                    6          7          8          9         10
     6  F    0.000000
     7  C    3.090558   0.000000
     8  C    4.543315   1.554882   0.000000
     9  F    3.528627   1.341338   2.340650   0.000000
    10  F    2.830415   1.340753   2.341397   2.182533   0.000000
    11  F    5.263795   2.374558   1.325504   2.731923   3.499493
    12  F    4.820135   2.374750   1.325824   3.500216   2.758300
    13  F    5.309453   2.344542   1.327855   2.700905   2.676875
                   11         12         13
    11  F    0.000000
    12  F    2.160158   0.000000
    13  F    2.156453   2.157091   0.000000
 Stoichiometry    C4F9(2)
 Framework group  C1[X(C4F9)]
 Deg. of freedom    33
 Full point group                 C1      NOp   1
 Largest Abelian subgroup         C1      NOp   1
 Largest concise Abelian subgroup C1      NOp   1
                         Standard orientation:                         
 ---------------------------------------------------------------------
 Center     Atomic      Atomic             Coordinates (Angstroms)
 Number     Number       Type             X           Y           Z
 ---------------------------------------------------------------------
      1          6           0       -0.765916    0.647042    0.045785
      2          9           0       -0.583482    1.467284   -1.000919
      3          9           0       -0.603967    1.334556    1.187042
      4          6           0       -2.200599    0.151771    0.001846
      5          9           0       -2.586503   -0.382234   -1.132874
      6          9           0       -2.594284   -0.549026    1.039299
      7          6           0        0.311639   -0.476177   -0.010393
      8          6           0        1.791500    0.000967   -0.011468
      9          9           0        0.115505   -1.192627   -1.127272
     10          9           0        0.141647   -1.274097    1.053583
     11          9           0        2.047601    0.738288   -1.082791
     12          9           0        2.058620    0.709052    1.077141
     13          9           0        2.580447   -1.066931   -0.030389
 ---------------------------------------------------------------------
 Rotational constants (GHZ):           1.3623584           0.6010693           0.5937548
 Standard basis: 6-311+G(2d,2p) (5D, 7F)
 There are   377 symmetry adapted cartesian basis functions of A   symmetry.
 There are   351 symmetry adapted basis functions of A   symmetry.
   351 basis functions,   546 primitive gaussians,   377 cartesian basis functions
    53 alpha electrons       52 beta electrons
       nuclear repulsion energy      1021.3085301042 Hartrees.
 NAtoms=   13 NActive=   13 NUniq=   13 SFac= 1.00D+00 NAtFMM=   60 NAOKFM=F Big=F
 Integral buffers will be    131072 words long.
 Raffenetti 2 integral format.
 Two-electron integral symmetry is turned on.
 Nuclear repulsion after empirical dispersion term =     1021.3013218494 Hartrees.
 One-electron integrals computed using PRISM.
 NBasis=   351 RedAO= T EigKep=  1.07D-05  NBF=   351
 NBsUse=   351 1.00D-06 EigRej= -1.00D+00 NBFU=   351
 Initial guess from the checkpoint file:  "c4_rad.chk"
 B after Tr=    -0.000000    0.000000   -0.000000
         Rot=    1.000000   -0.000861   -0.000008   -0.000003 Ang=  -0.10 deg.
 Initial guess <Sx>= 0.0000 <Sy>= 0.0000 <Sz>= 0.5000 <S**2>= 0.7528 S= 0.5014
 Requested convergence on RMS density matrix=1.00D-08 within  32 cycles.
 Requested convergence on MAX density matrix=1.00D-06.
 Requested convergence on             energy=1.00D-06.
 No special actions if energy rises.
 SCF Done:  E(UwB97XD) =  -1050.98336269     A.U. after    8 cycles
            NFock=  8  Conv=0.37D-08     -V/T= 2.0025
 <Sx>= 0.0000 <Sy>= 0.0000 <Sz>= 0.5000 <S**2>= 0.7528 S= 0.5014
 <L.S>= 0.000000000000E+00
 Annihilation of the first spin contaminant:
 S**2 before annihilation     0.7528,   after     0.7500
 QCSCF skips out because SCF is already converged.
 Calling FoFJK, ICntrl=      2127 FMM=F ISym2X=0 I1Cent= 0 IOpClX= 1 NMat=1 NMatS=1 NMatT=0.
 ***** Axes restored to original set *****
 -------------------------------------------------------------------
 Center     Atomic                   Forces (Hartrees/Bohr)
 Number     Number              X              Y              Z
 -------------------------------------------------------------------
      1        6           0.000000713   -0.000004048    0.000002042
      2        9          -0.000001209    0.000000739   -0.000001320
      3        9          -0.000000689    0.000000285   -0.000001616
      4        6          -0.000001318    0.000003166   -0.000001704
      5        9          -0.000000811    0.000000888   -0.000002191
      6        9           0.000000125    0.000000328    0.000002238
      7        6           0.000000879    0.000002931   -0.000000464
      8        6          -0.000000089    0.000001105    0.000001877
      9        9           0.000001333    0.000000389    0.000002042
     10        9           0.000000708   -0.000000705   -0.000000212
     11        9           0.000000449   -0.000000594   -0.000001213
     12        9           0.000000147   -0.000000723   -0.000000864
     13        9          -0.000000239   -0.000003760    0.000001385
 -------------------------------------------------------------------
 Cartesian Forces:  Max     0.000004048 RMS     0.000001560

 GradGradGradGradGradGradGradGradGradGradGradGradGradGradGradGradGradGrad
 Berny optimization.
 Using GEDIIS/GDIIS optimizer.
 FormGI is forming the generalized inverse of G from B-inverse, IUseBI=4.
 Internal  Forces:  Max     0.000003178 RMS     0.000000983
 Search for a local minimum.
 Step number  11 out of a maximum of   67
 All quantities printed in internal units (Hartrees-Bohrs-Radians)
 Mixed Optimization -- En-DIIS/RFO-DIIS
 Swapping is turned off.
 Update second derivatives using D2CorX and points    1    2    3    4    5
                                                      6    7    8    9   10
                                                     11
 DE= -3.70D-08 DEPred=-1.48D-09 R= 2.51D+01
 Trust test= 2.51D+01 RLast= 4.66D-03 DXMaxT set to 7.50D-02
 ITU=  0  0  0 -1 -1  1  1  1  1  1  0
     Eigenvalues ---    0.00007   0.00376   0.00559   0.04862   0.05843
     Eigenvalues ---    0.06107   0.07184   0.08245   0.08769   0.09851
     Eigenvalues ---    0.13949   0.15613   0.19057   0.20753   0.22963
     Eigenvalues ---    0.23914   0.25011   0.25031   0.25768   0.26303
     Eigenvalues ---    0.27378   0.27984   0.33569   0.35710   0.48248
     Eigenvalues ---    0.56598   0.56698   0.57125   0.59514   0.60704
     Eigenvalues ---    0.62865   0.63468   0.67587
 Eigenvalue     1 is   7.12D-05 Eigenvector:
                          D7        D10       D13       D8        D9
   1                   -0.25430  -0.25384  -0.25216  -0.25130  -0.25110
                          D11       D12       D14       D15       D17
   1                   -0.25084  -0.25064  -0.24916  -0.24895  -0.18969
 En-DIIS/RFO-DIIS/Sim-DIIS IScMMF=       -3 using points:    11   10    9    8    7    6    5    4    3    2
 RFO step:  Lambda=-1.34714350D-10.
 DIIS inversion failure, remove point  10.
 DIIS inversion failure, remove point   9.
 DIIS inversion failure, remove point   8.
 DIIS inversion failure, remove point   7.
 DIIS inversion failure, remove point   6.
 DIIS inversion failure, remove point   5.
 DIIS inversion failure, remove point   4.
 DIIS inversion failure, remove point   3.
 RFO-DIIS uses    2 points instead of   10
 DidBck=F Rises=F RFO-DIIS coefs:    1.12835   -0.12835    0.00000    0.00000    0.00000
                  RFO-DIIS coefs:    0.00000    0.00000    0.00000    0.00000    0.00000
 Iteration  1 RMS(Cart)=  0.00013706 RMS(Int)=  0.00000001
 Iteration  2 RMS(Cart)=  0.00000001 RMS(Int)=  0.00000000
 Variable       Old X    -DE/DX   Delta X   Delta X   Delta X     New X
                                 (Linear)    (Quad)   (Total)
    R1        2.53651  -0.00000   0.00000  -0.00000   0.00000   2.53651
    R2        2.53630   0.00000  -0.00000   0.00000   0.00000   2.53630
    R3        2.86936  -0.00000  -0.00000  -0.00001  -0.00001   2.86936
    R4        2.94331  -0.00000   0.00000  -0.00001  -0.00001   2.94330
    R5        2.47956  -0.00000  -0.00000  -0.00000  -0.00000   2.47956
    R6        2.48009  -0.00000   0.00000  -0.00000   0.00000   2.48009
    R7        2.93830  -0.00000  -0.00000   0.00000  -0.00000   2.93830
    R8        2.53476   0.00000  -0.00000   0.00000   0.00000   2.53476
    R9        2.53366   0.00000  -0.00000   0.00000   0.00000   2.53366
   R10        2.50484  -0.00000   0.00000  -0.00000  -0.00000   2.50484
   R11        2.50544   0.00000  -0.00000   0.00000   0.00000   2.50545
   R12        2.50928   0.00000  -0.00000   0.00000   0.00000   2.50929
    A1        1.91097  -0.00000   0.00000  -0.00000  -0.00000   1.91097
    A2        1.88092   0.00000  -0.00000   0.00001   0.00000   1.88093
    A3        1.89498  -0.00000   0.00000  -0.00000   0.00000   1.89498
    A4        1.88147   0.00000   0.00000  -0.00000   0.00000   1.88147
    A5        1.89294   0.00000  -0.00001   0.00000  -0.00000   1.89294
    A6        2.00140  -0.00000   0.00000  -0.00000  -0.00000   2.00140
    A7        2.02157  -0.00000   0.00000  -0.00001  -0.00001   2.02157
    A8        2.02054   0.00000  -0.00000  -0.00000  -0.00000   2.02053
    A9        1.95851  -0.00000  -0.00000  -0.00001  -0.00001   1.95851
   A10        2.02326   0.00000   0.00000   0.00000   0.00000   2.02326
   A11        1.89026  -0.00000   0.00000  -0.00000   0.00000   1.89027
   A12        1.88898  -0.00000  -0.00000  -0.00000  -0.00001   1.88897
   A13        1.87811   0.00000  -0.00000   0.00000  -0.00000   1.87811
   A14        1.87952  -0.00000   0.00000   0.00000   0.00000   1.87953
   A15        1.90113   0.00000   0.00000  -0.00000   0.00000   1.90113
   A16        1.93387  -0.00000  -0.00000   0.00000   0.00000   1.93387
   A17        1.93379  -0.00000   0.00000  -0.00000  -0.00000   1.93379
   A18        1.89516  -0.00000  -0.00000  -0.00000  -0.00000   1.89515
   A19        1.90458   0.00000  -0.00000   0.00000   0.00000   1.90458
   A20        1.89763   0.00000  -0.00000   0.00000   0.00000   1.89763
   A21        1.89812   0.00000   0.00000   0.00000   0.00000   1.89812
    D1        0.92093   0.00000  -0.00008   0.00002  -0.00006   0.92087
    D2       -3.01597  -0.00000  -0.00008  -0.00001  -0.00009  -3.01606
    D3        2.98201   0.00000  -0.00008   0.00002  -0.00006   2.98195
    D4       -0.95489  -0.00000  -0.00008  -0.00001  -0.00009  -0.95498
    D5       -1.19122   0.00000  -0.00008   0.00002  -0.00006  -1.19129
    D6        1.15506  -0.00000  -0.00008  -0.00001  -0.00009   1.15497
    D7        1.00549  -0.00000  -0.00015  -0.00002  -0.00016   1.00533
    D8       -1.10639  -0.00000  -0.00015  -0.00002  -0.00016  -1.10656
    D9        3.11823  -0.00000  -0.00015  -0.00001  -0.00016   3.11807
   D10       -1.06965   0.00000  -0.00015  -0.00001  -0.00016  -1.06981
   D11        3.10165  -0.00000  -0.00015  -0.00001  -0.00016   3.10149
   D12        1.04309   0.00000  -0.00015  -0.00001  -0.00016   1.04293
   D13        3.10991   0.00000  -0.00015  -0.00001  -0.00016   3.10974
   D14        0.99802  -0.00000  -0.00015  -0.00001  -0.00016   0.99786
   D15       -1.06054   0.00000  -0.00015  -0.00001  -0.00016  -1.06070
   D16       -1.08361   0.00000  -0.00012   0.00001  -0.00010  -1.08371
   D17        1.03310  -0.00000  -0.00012   0.00002  -0.00011   1.03299
   D18        3.11661   0.00000  -0.00012   0.00001  -0.00010   3.11651
   D19        1.03478   0.00000  -0.00012   0.00001  -0.00010   1.03468
   D20       -3.13170  -0.00000  -0.00012   0.00001  -0.00010  -3.13180
   D21       -1.04818  -0.00000  -0.00011   0.00001  -0.00010  -1.04828
   D22        3.08178   0.00000  -0.00012   0.00001  -0.00010   3.08167
   D23       -1.08470   0.00000  -0.00012   0.00002  -0.00010  -1.08480
   D24        0.99881   0.00000  -0.00011   0.00001  -0.00010   0.99871
         Item               Value     Threshold  Converged?
 Maximum Force            0.000003     0.000450     YES
 RMS     Force            0.000001     0.000300     YES
 Maximum Displacement     0.000347     0.001800     YES
 RMS     Displacement     0.000137     0.001200     YES
 Predicted change in Energy=-1.028519D-10
 Optimization completed.
    -- Stationary point found.
                           ----------------------------
                           !   Optimized Parameters   !
                           ! (Angstroms and Degrees)  !
 --------------------------                            --------------------------
 ! Name  Definition              Value          Derivative Info.                !
 --------------------------------------------------------------------------------
 ! R1    R(1,2)                  1.3423         -DE/DX =    0.0                 !
 ! R2    R(1,3)                  1.3422         -DE/DX =    0.0                 !
 ! R3    R(1,4)                  1.5184         -DE/DX =    0.0                 !
 ! R4    R(1,7)                  1.5575         -DE/DX =    0.0                 !
 ! R5    R(4,5)                  1.3121         -DE/DX =    0.0                 !
 ! R6    R(4,6)                  1.3124         -DE/DX =    0.0                 !
 ! R7    R(7,8)                  1.5549         -DE/DX =    0.0                 !
 ! R8    R(7,9)                  1.3413         -DE/DX =    0.0                 !
 ! R9    R(7,10)                 1.3408         -DE/DX =    0.0                 !
 ! R10   R(8,11)                 1.3255         -DE/DX =    0.0                 !
 ! R11   R(8,12)                 1.3258         -DE/DX =    0.0                 !
 ! R12   R(8,13)                 1.3279         -DE/DX =    0.0                 !
 ! A1    A(2,1,3)              109.4908         -DE/DX =    0.0                 !
 ! A2    A(2,1,4)              107.769          -DE/DX =    0.0                 !
 ! A3    A(2,1,7)              108.5742         -DE/DX =    0.0                 !
 ! A4    A(3,1,4)              107.8004         -DE/DX =    0.0                 !
 ! A5    A(3,1,7)              108.4575         -DE/DX =    0.0                 !
 ! A6    A(4,1,7)              114.6719         -DE/DX =    0.0                 !
 ! A7    A(1,4,5)              115.8275         -DE/DX =    0.0                 !
 ! A8    A(1,4,6)              115.7681         -DE/DX =    0.0                 !
 ! A9    A(5,4,6)              112.2146         -DE/DX =    0.0                 !
 ! A10   A(1,7,8)              115.9242         -DE/DX =    0.0                 !
 ! A11   A(1,7,9)              108.3042         -DE/DX =    0.0                 !
 ! A12   A(1,7,10)             108.2304         -DE/DX =    0.0                 !
 ! A13   A(8,7,9)              107.6078         -DE/DX =    0.0                 !
 ! A14   A(8,7,10)             107.6887         -DE/DX =    0.0                 !
 ! A15   A(9,7,10)             108.9265         -DE/DX =    0.0                 !
 ! A16   A(7,8,11)             110.8023         -DE/DX =    0.0                 !
 ! A17   A(7,8,12)             110.7981         -DE/DX =    0.0                 !
 ! A18   A(7,8,13)             108.5845         -DE/DX =    0.0                 !
 ! A19   A(11,8,12)            109.1244         -DE/DX =    0.0                 !
 ! A20   A(11,8,13)            108.7261         -DE/DX =    0.0                 !
 ! A21   A(12,8,13)            108.7542         -DE/DX =    0.0                 !
 ! D1    D(2,1,4,5)             52.7655         -DE/DX =    0.0                 !
 ! D2    D(2,1,4,6)           -172.8025         -DE/DX =    0.0                 !
 ! D3    D(3,1,4,5)            170.8568         -DE/DX =    0.0                 !
 ! D4    D(3,1,4,6)            -54.7112         -DE/DX =    0.0                 !
 ! D5    D(7,1,4,5)            -68.252          -DE/DX =    0.0                 !
 ! D6    D(7,1,4,6)             66.18           -DE/DX =    0.0                 !
 ! D7    D(2,1,7,8)             57.6104         -DE/DX =    0.0                 !
 ! D8    D(2,1,7,9)            -63.3917         -DE/DX =    0.0                 !
 ! D9    D(2,1,7,10)           178.6614         -DE/DX =    0.0                 !
 ! D10   D(3,1,7,8)            -61.2866         -DE/DX =    0.0                 !
 ! D11   D(3,1,7,9)            177.7113         -DE/DX =    0.0                 !
 ! D12   D(3,1,7,10)            59.7645         -DE/DX =    0.0                 !
 ! D13   D(4,1,7,8)            178.1844         -DE/DX =    0.0                 !
 ! D14   D(4,1,7,9)             57.1823         -DE/DX =    0.0                 !
 ! D15   D(4,1,7,10)           -60.7645         -DE/DX =    0.0                 !
 ! D16   D(1,7,8,11)           -62.0862         -DE/DX =    0.0                 !
 ! D17   D(1,7,8,12)            59.1921         -DE/DX =    0.0                 !
 ! D18   D(1,7,8,13)           178.5689         -DE/DX =    0.0                 !
 ! D19   D(9,7,8,11)            59.2887         -DE/DX =    0.0                 !
 ! D20   D(9,7,8,12)          -179.4329         -DE/DX =    0.0                 !
 ! D21   D(9,7,8,13)           -60.0562         -DE/DX =    0.0                 !
 ! D22   D(10,7,8,11)          176.5728         -DE/DX =    0.0                 !
 ! D23   D(10,7,8,12)          -62.1489         -DE/DX =    0.0                 !
 ! D24   D(10,7,8,13)           57.2279         -DE/DX =    0.0                 !
 --------------------------------------------------------------------------------
 GradGradGradGradGradGradGradGradGradGradGradGradGradGradGradGradGradGrad

                          Input orientation:                          
 ---------------------------------------------------------------------
 Center     Atomic      Atomic             Coordinates (Angstroms)
 Number     Number       Type             X           Y           Z
 ---------------------------------------------------------------------
      1          6           0        0.766390    0.636792   -0.120515
      2          9           0        0.585970    1.570590    0.826658
      3          9           0        0.603532    1.190635   -1.332169
      4          6           0        2.200725    0.148329   -0.022408
      5          9           0        2.587654   -0.253950    1.165082
      6          9           0        2.592506   -0.665948   -0.974182
      7          6           0       -0.312004   -0.471787    0.063927
      8          6           0       -1.791475    0.003812    0.012653
      9          9           0       -0.115016   -1.057176    1.254600
     10          9           0       -0.144029   -1.385355   -0.902923
     11          9           0       -2.045598    0.858087    0.993773
     12          9           0       -2.059418    0.584162   -1.148901
     13          9           0       -2.581264   -1.054302    0.153463
 ---------------------------------------------------------------------
                    Distance matrix (angstroms):
                    1          2          3          4          5
     1  C    0.000000
     2  F    1.342262   0.000000
     3  F    1.342151   2.192079   0.000000
     4  C    1.518400   2.313261   2.313634   0.000000
     5  F    2.400664   2.729509   3.501404   1.312126   0.000000
     6  F    2.400121   3.503044   2.744280   1.312407   2.178582
     7  C    1.557530   2.357843   2.356043   2.589557   3.109343
     8  C    2.638384   2.961358   2.992182   3.994969   4.535560
     9  F    2.353157   2.753120   3.501477   2.906312   2.820924
    10  F    2.351616   3.501708   2.716399   2.936897   3.608159
    11  F    3.032802   2.731435   3.540973   4.423533   4.767914
    12  F    3.007580   3.445860   2.737280   4.428065   5.258539
    13  F    3.760538   4.168287   4.170104   4.934032   5.327443
                    6          7          8          9         10
     6  F    0.000000
     7  C    3.090558   0.000000
     8  C    4.543315   1.554882   0.000000
     9  F    3.528627   1.341338   2.340650   0.000000
    10  F    2.830415   1.340753   2.341397   2.182533   0.000000
    11  F    5.263795   2.374558   1.325504   2.731923   3.499493
    12  F    4.820135   2.374750   1.325824   3.500216   2.758300
    13  F    5.309453   2.344542   1.327855   2.700905   2.676875
                   11         12         13
    11  F    0.000000
    12  F    2.160158   0.000000
    13  F    2.156453   2.157091   0.000000
 Stoichiometry    C4F9(2)
 Framework group  C1[X(C4F9)]
 Deg. of freedom    33
 Full point group                 C1      NOp   1
 Largest Abelian subgroup         C1      NOp   1
 Largest concise Abelian subgroup C1      NOp   1
                         Standard orientation:                         
 ---------------------------------------------------------------------
 Center     Atomic      Atomic             Coordinates (Angstroms)
 Number     Number       Type             X           Y           Z
 ---------------------------------------------------------------------
      1          6           0       -0.765916    0.647042    0.045785
      2          9           0       -0.583482    1.467284   -1.000919
      3          9           0       -0.603967    1.334556    1.187042
      4          6           0       -2.200599    0.151771    0.001846
      5          9           0       -2.586503   -0.382234   -1.132874
      6          9           0       -2.594284   -0.549026    1.039299
      7          6           0        0.311639   -0.476177   -0.010393
      8          6           0        1.791500    0.000967   -0.011468
      9          9           0        0.115505   -1.192627   -1.127272
     10          9           0        0.141647   -1.274097    1.053583
     11          9           0        2.047601    0.738288   -1.082791
     12          9           0        2.058620    0.709052    1.077141
     13          9           0        2.580447   -1.066931   -0.030389
 ---------------------------------------------------------------------
 Rotational constants (GHZ):           1.3623584           0.6010693           0.5937548

 **********************************************************************

            Population analysis using the SCF density.

 **********************************************************************

 Orbital symmetries:
 Alpha Orbitals:
       Occupied  (A) (A) (A) (A) (A) (A) (A) (A) (A) (A) (A) (A)
                 (A) (A) (A) (A) (A) (A) (A) (A) (A) (A) (A) (A)
                 (A) (A) (A) (A) (A) (A) (A) (A) (A) (A) (A) (A)
                 (A) (A) (A) (A) (A) (A) (A) (A) (A) (A) (A) (A)
                 (A) (A) (A) (A) (A)
       Virtual   (A) (A) (A) (A) (A) (A) (A) (A) (A) (A) (A) (A)
                 (A) (A) (A) (A) (A) (A) (A) (A) (A) (A) (A) (A)
                 (A) (A) (A) (A) (A) (A) (A) (A) (A) (A) (A) (A)
                 (A) (A) (A) (A) (A) (A) (A) (A) (A) (A) (A) (A)
                 (A) (A) (A) (A) (A) (A) (A) (A) (A) (A) (A) (A)
                 (A) (A) (A) (A) (A) (A) (A) (A) (A) (A) (A) (A)
                 (A) (A) (A) (A) (A) (A) (A) (A) (A) (A) (A) (A)
                 (A) (A) (A) (A) (A) (A) (A) (A) (A) (A) (A) (A)
                 (A) (A) (A) (A) (A) (A) (A) (A) (A) (A) (A) (A)
                 (A) (A) (A) (A) (A) (A) (A) (A) (A) (A) (A) (A)
                 (A) (A) (A) (A) (A) (A) (A) (A) (A) (A) (A) (A)
                 (A) (A) (A) (A) (A) (A) (A) (A) (A) (A) (A) (A)
                 (A) (A) (A) (A) (A) (A) (A) (A) (A) (A) (A) (A)
                 (A) (A) (A) (A) (A) (A) (A) (A) (A) (A) (A) (A)
                 (A) (A) (A) (A) (A) (A) (A) (A) (A) (A) (A) (A)
                 (A) (A) (A) (A) (A) (A) (A) (A) (A) (A) (A) (A)
                 (A) (A) (A) (A) (A) (A) (A) (A) (A) (A) (A) (A)
                 (A) (A) (A) (A) (A) (A) (A) (A) (A) (A) (A) (A)
                 (A) (A) (A) (A) (A) (A) (A) (A) (A) (A) (A) (A)
                 (A) (A) (A) (A) (A) (A) (A) (A) (A) (A) (A) (A)
                 (A) (A) (A) (A) (A) (A) (A) (A) (A) (A) (A) (A)
                 (A) (A) (A) (A) (A) (A) (A) (A) (A) (A) (A) (A)
                 (A) (A) (A) (A) (A) (A) (A) (A) (A) (A) (A) (A)
                 (A) (A) (A) (A) (A) (A) (A) (A) (A) (A) (A) (A)
                 (A) (A) (A) (A) (A) (A) (A) (A) (A) (A)
 Beta  Orbitals:
       Occupied  (A) (A) (A) (A) (A) (A) (A) (A) (A) (A) (A) (A)
                 (A) (A) (A) (A) (A) (A) (A) (A) (A) (A) (A) (A)
                 (A) (A) (A) (A) (A) (A) (A) (A) (A) (A) (A) (A)
                 (A) (A) (A) (A) (A) (A) (A) (A) (A) (A) (A) (A)
                 (A) (A) (A) (A)
       Virtual   (A) (A) (A) (A) (A) (A) (A) (A) (A) (A) (A) (A)
                 (A) (A) (A) (A) (A) (A) (A) (A) (A) (A) (A) (A)
                 (A) (A) (A) (A) (A) (A) (A) (A) (A) (A) (A) (A)
                 (A) (A) (A) (A) (A) (A) (A) (A) (A) (A) (A) (A)
                 (A) (A) (A) (A) (A) (A) (A) (A) (A) (A) (A) (A)
                 (A) (A) (A) (A) (A) (A) (A) (A) (A) (A) (A) (A)
                 (A) (A) (A) (A) (A) (A) (A) (A) (A) (A) (A) (A)
                 (A) (A) (A) (A) (A) (A) (A) (A) (A) (A) (A) (A)
                 (A) (A) (A) (A) (A) (A) (A) (A) (A) (A) (A) (A)
                 (A) (A) (A) (A) (A) (A) (A) (A) (A) (A) (A) (A)
                 (A) (A) (A) (A) (A) (A) (A) (A) (A) (A) (A) (A)
                 (A) (A) (A) (A) (A) (A) (A) (A) (A) (A) (A) (A)
                 (A) (A) (A) (A) (A) (A) (A) (A) (A) (A) (A) (A)
                 (A) (A) (A) (A) (A) (A) (A) (A) (A) (A) (A) (A)
                 (A) (A) (A) (A) (A) (A) (A) (A) (A) (A) (A) (A)
                 (A) (A) (A) (A) (A) (A) (A) (A) (A) (A) (A) (A)
                 (A) (A) (A) (A) (A) (A) (A) (A) (A) (A) (A) (A)
                 (A) (A) (A) (A) (A) (A) (A) (A) (A) (A) (A) (A)
                 (A) (A) (A) (A) (A) (A) (A) (A) (A) (A) (A) (A)
                 (A) (A) (A) (A) (A) (A) (A) (A) (A) (A) (A) (A)
                 (A) (A) (A) (A) (A) (A) (A) (A) (A) (A) (A) (A)
                 (A) (A) (A) (A) (A) (A) (A) (A) (A) (A) (A) (A)
                 (A) (A) (A) (A) (A) (A) (A) (A) (A) (A) (A) (A)
                 (A) (A) (A) (A) (A) (A) (A) (A) (A) (A) (A) (A)
                 (A) (A) (A) (A) (A) (A) (A) (A) (A) (A) (A)
 The electronic state is 2-A.
 Alpha  occ. eigenvalues --  -24.89044 -24.89036 -24.88059 -24.88045 -24.88039
 Alpha  occ. eigenvalues --  -24.88026 -24.87895 -24.87651 -24.87605 -10.58474
 Alpha  occ. eigenvalues --  -10.53022 -10.52818 -10.50428  -1.47476  -1.45075
 Alpha  occ. eigenvalues --   -1.43495  -1.42355  -1.38787  -1.38189  -1.37655
 Alpha  occ. eigenvalues --   -1.37110  -1.36488  -0.95389  -0.90648  -0.83163
 Alpha  occ. eigenvalues --   -0.79598  -0.75588  -0.75099  -0.74341  -0.72910
 Alpha  occ. eigenvalues --   -0.72310  -0.71845  -0.70618  -0.68501  -0.66842
 Alpha  occ. eigenvalues --   -0.61431  -0.60767  -0.60574  -0.60466  -0.59942
 Alpha  occ. eigenvalues --   -0.59560  -0.58412  -0.57548  -0.57198  -0.56045
 Alpha  occ. eigenvalues --   -0.55463  -0.55025  -0.54565  -0.54346  -0.53824
 Alpha  occ. eigenvalues --   -0.52181  -0.47255  -0.35553
 Alpha virt. eigenvalues --    0.06933   0.07554   0.08369   0.08728   0.11029
 Alpha virt. eigenvalues --    0.11400   0.11672   0.12752   0.12790   0.13439
 Alpha virt. eigenvalues --    0.14524   0.15138   0.15949   0.16434   0.17621
 Alpha virt. eigenvalues --    0.18657   0.18856   0.21285   0.22753   0.24564
 Alpha virt. eigenvalues --    0.25651   0.25909   0.27011   0.28787   0.29424
 Alpha virt. eigenvalues --    0.29621   0.30787   0.30840   0.31607   0.32007
 Alpha virt. eigenvalues --    0.32987   0.33133   0.34604   0.35176   0.35909
 Alpha virt. eigenvalues --    0.36070   0.37239   0.37779   0.39336   0.40189
 Alpha virt. eigenvalues --    0.40268   0.40758   0.41494   0.41766   0.42814
 Alpha virt. eigenvalues --    0.43335   0.44204   0.44377   0.44440   0.45745
 Alpha virt. eigenvalues --    0.45937   0.46076   0.47276   0.47645   0.47886
 Alpha virt. eigenvalues --    0.48748   0.51471   0.52350   0.53361   0.55406
 Alpha virt. eigenvalues --    0.55865   0.58816   0.62464   0.62578   0.63535
 Alpha virt. eigenvalues --    0.65319   0.66822   0.69558   0.70602   0.72599
 Alpha virt. eigenvalues --    0.74440   0.74581   0.78275   0.78998   0.79641
 Alpha virt. eigenvalues --    0.83571   0.85726   0.87400   0.91634   0.97066
 Alpha virt. eigenvalues --    1.00895   1.03060   1.06385   1.07067   1.09508
 Alpha virt. eigenvalues --    1.12408   1.12991   1.13891   1.16222   1.25904
 Alpha virt. eigenvalues --    1.26649   1.28195   1.30061   1.30216   1.33528
 Alpha virt. eigenvalues --    1.35941   1.36871   1.38026   1.39086   1.40841
 Alpha virt. eigenvalues --    1.41847   1.42975   1.43688   1.43999   1.45918
 Alpha virt. eigenvalues --    1.46527   1.46743   1.46970   1.47323   1.48018
 Alpha virt. eigenvalues --    1.48778   1.50112   1.50320   1.51317   1.51939
 Alpha virt. eigenvalues --    1.52554   1.53081   1.53581   1.54697   1.57422
 Alpha virt. eigenvalues --    1.58893   1.60402   1.64475   1.66099   1.67972
 Alpha virt. eigenvalues --    1.71185   1.72455   1.87393   1.89490   1.97174
 Alpha virt. eigenvalues --    1.98807   2.00329   2.01403   2.03129   2.04574
 Alpha virt. eigenvalues --    2.05059   2.05579   2.08962   2.09371   2.11540
 Alpha virt. eigenvalues --    2.12481   2.13435   2.13508   2.16282   2.16574
 Alpha virt. eigenvalues --    2.17887   2.19364   2.20558   2.21299   2.24890
 Alpha virt. eigenvalues --    2.26074   2.27481   2.31872   2.35445   2.36679
 Alpha virt. eigenvalues --    2.37420   2.39297   2.42524   2.46756   2.47148
 Alpha virt. eigenvalues --    2.52977   2.53439   2.59766   2.60934   2.61280
 Alpha virt. eigenvalues --    2.69674   2.71381   2.73684   2.74772   2.77046
 Alpha virt. eigenvalues --    2.77146   2.81051   2.81332   2.85007   2.85293
 Alpha virt. eigenvalues --    2.90021   2.97534   3.02589   3.04734   3.06304
 Alpha virt. eigenvalues --    3.21180   3.22841   3.25371   3.34188   3.39197
 Alpha virt. eigenvalues --    3.43761   3.45911   3.46270   3.47839   3.49419
 Alpha virt. eigenvalues --    3.52181   3.55654   3.57267   3.59145   3.60656
 Alpha virt. eigenvalues --    3.64538   3.66471   3.69898   3.74022   3.74497
 Alpha virt. eigenvalues --    3.75054   3.78258   3.80421   3.88532   3.98933
 Alpha virt. eigenvalues --    4.26248   4.31024   4.31895   4.36097   4.36506
 Alpha virt. eigenvalues --    4.37227   4.46007   4.51270   6.38271   6.39277
 Alpha virt. eigenvalues --    6.39350   6.41559   6.43272   6.45055   6.45180
 Alpha virt. eigenvalues --    6.45589   6.46358   6.47998   6.48624   6.49905
 Alpha virt. eigenvalues --    6.50155   6.51530   6.53821   6.54800   6.56466
 Alpha virt. eigenvalues --    6.57989   6.60229   6.63397   6.65456   6.71621
 Alpha virt. eigenvalues --    6.86110   6.87760   6.89741   6.90559   6.99618
 Alpha virt. eigenvalues --    9.07610   9.08442   9.08992   9.10604   9.11055
 Alpha virt. eigenvalues --    9.11620   9.11897   9.14703   9.15640   9.16495
 Alpha virt. eigenvalues --    9.18168   9.18427   9.18856   9.21357   9.21441
 Alpha virt. eigenvalues --    9.22365   9.24400   9.24581   9.25756   9.26659
 Alpha virt. eigenvalues --    9.27991   9.28218   9.33974   9.34646   9.35676
 Alpha virt. eigenvalues --    9.38559   9.41072   9.43831   9.45927   9.52352
 Alpha virt. eigenvalues --    9.63758   9.66129   9.67811   9.68554   9.69030
 Alpha virt. eigenvalues --    9.73226   9.75777   9.76764   9.76954   9.77562
 Alpha virt. eigenvalues --    9.78787   9.81934   9.87260   9.90115   9.91905
 Alpha virt. eigenvalues --   23.92300  23.97692  23.98336  24.06757  66.89528
 Alpha virt. eigenvalues --   66.91851  66.93160  66.95296  66.96671  66.97889
 Alpha virt. eigenvalues --   67.00160  67.03405  67.04383
  Beta  occ. eigenvalues --  -24.88714 -24.88704 -24.88059 -24.88046 -24.88039
  Beta  occ. eigenvalues --  -24.88026 -24.87883 -24.87646 -24.87599 -10.58453
  Beta  occ. eigenvalues --  -10.52997 -10.52758 -10.49136  -1.47456  -1.44470
  Beta  occ. eigenvalues --   -1.43130  -1.42266  -1.38431  -1.37831  -1.37635
  Beta  occ. eigenvalues --   -1.37014  -1.36435  -0.94858  -0.89728  -0.82304
  Beta  occ. eigenvalues --   -0.79015  -0.75368  -0.74812  -0.74287  -0.72522
  Beta  occ. eigenvalues --   -0.71879  -0.71562  -0.70277  -0.68331  -0.63710
  Beta  occ. eigenvalues --   -0.61201  -0.60697  -0.60539  -0.60307  -0.59535
  Beta  occ. eigenvalues --   -0.59146  -0.58131  -0.57135  -0.56287  -0.56008
  Beta  occ. eigenvalues --   -0.55322  -0.54982  -0.54275  -0.54240  -0.53814
  Beta  occ. eigenvalues --   -0.51857  -0.46466
  Beta virt. eigenvalues --   -0.04638   0.07265   0.07741   0.08455   0.09584
  Beta virt. eigenvalues --    0.11333   0.11744   0.11835   0.12899   0.13545
  Beta virt. eigenvalues --    0.13708   0.14603   0.15384   0.16493   0.16582
  Beta virt. eigenvalues --    0.18035   0.18851   0.19412   0.21482   0.23028
  Beta virt. eigenvalues --    0.25086   0.26452   0.26583   0.27062   0.29243
  Beta virt. eigenvalues --    0.29680   0.29960   0.30865   0.31004   0.31971
  Beta virt. eigenvalues --    0.32055   0.33232   0.33960   0.34615   0.35531
  Beta virt. eigenvalues --    0.36204   0.36793   0.37330   0.37811   0.39480
  Beta virt. eigenvalues --    0.40286   0.40321   0.41082   0.41731   0.41918
  Beta virt. eigenvalues --    0.42871   0.43370   0.44243   0.44421   0.44558
  Beta virt. eigenvalues --    0.45797   0.45995   0.46129   0.47270   0.47752
  Beta virt. eigenvalues --    0.47941   0.48853   0.51497   0.52365   0.53486
  Beta virt. eigenvalues --    0.55479   0.55934   0.59275   0.62698   0.63247
  Beta virt. eigenvalues --    0.63731   0.65446   0.67252   0.70668   0.70842
  Beta virt. eigenvalues --    0.72734   0.74709   0.75041   0.78366   0.79177
  Beta virt. eigenvalues --    0.79934   0.83828   0.86241   0.87791   0.92076
  Beta virt. eigenvalues --    0.97470   1.01397   1.03593   1.06684   1.07608
  Beta virt. eigenvalues --    1.10088   1.12855   1.13373   1.14367   1.16623
  Beta virt. eigenvalues --    1.26522   1.26899   1.28426   1.30382   1.30781
  Beta virt. eigenvalues --    1.33801   1.36032   1.37042   1.38200   1.39216
  Beta virt. eigenvalues --    1.40945   1.42082   1.43020   1.43837   1.44200
  Beta virt. eigenvalues --    1.46225   1.46632   1.46884   1.47088   1.47435
  Beta virt. eigenvalues --    1.48047   1.48815   1.50131   1.50379   1.51380
  Beta virt. eigenvalues --    1.52000   1.52647   1.53105   1.53673   1.54795
  Beta virt. eigenvalues --    1.57573   1.58938   1.60525   1.64574   1.66427
  Beta virt. eigenvalues --    1.68024   1.71321   1.72537   1.87456   1.89550
  Beta virt. eigenvalues --    1.97255   1.98943   2.00513   2.01614   2.03357
  Beta virt. eigenvalues --    2.04662   2.05118   2.05633   2.09237   2.09465
  Beta virt. eigenvalues --    2.11720   2.12598   2.13527   2.13670   2.16392
  Beta virt. eigenvalues --    2.16796   2.18253   2.19519   2.20926   2.21301
  Beta virt. eigenvalues --    2.25131   2.26290   2.28034   2.31977   2.35615
  Beta virt. eigenvalues --    2.36929   2.37757   2.39451   2.43073   2.46845
  Beta virt. eigenvalues --    2.47790   2.53049   2.53463   2.59942   2.61365
  Beta virt. eigenvalues --    2.61835   2.69736   2.71544   2.73756   2.75700
  Beta virt. eigenvalues --    2.77201   2.77335   2.81816   2.82337   2.85399
  Beta virt. eigenvalues --    2.85536   2.92027   2.98069   3.02790   3.05830
  Beta virt. eigenvalues --    3.06904   3.22165   3.24654   3.25422   3.35198
  Beta virt. eigenvalues --    3.40872   3.46283   3.47664   3.48280   3.48601
  Beta virt. eigenvalues --    3.50012   3.53604   3.56825   3.58610   3.59805
  Beta virt. eigenvalues --    3.60879   3.64760   3.67100   3.70714   3.74576
  Beta virt. eigenvalues --    3.75234   3.75852   3.78745   3.80565   3.88719
  Beta virt. eigenvalues --    4.00817   4.27667   4.31075   4.31959   4.36298
  Beta virt. eigenvalues --    4.36653   4.37323   4.46567   4.51973   6.39136
  Beta virt. eigenvalues --    6.39473   6.40346   6.41591   6.43346   6.45194
  Beta virt. eigenvalues --    6.45398   6.45697   6.46385   6.48120   6.48765
  Beta virt. eigenvalues --    6.49988   6.50281   6.51556   6.53820   6.54856
  Beta virt. eigenvalues --    6.56479   6.58113   6.60251   6.63430   6.65634
  Beta virt. eigenvalues --    6.71757   6.86271   6.87775   6.90054   6.90584
  Beta virt. eigenvalues --    6.99814   9.08292   9.08525   9.09158   9.10712
  Beta virt. eigenvalues --    9.11167   9.11705   9.12746   9.15193   9.16137
  Beta virt. eigenvalues --    9.17428   9.18262   9.18615   9.19030   9.21375
  Beta virt. eigenvalues --    9.21622   9.22848   9.24497   9.24615   9.25887
  Beta virt. eigenvalues --    9.26706   9.28060   9.28279   9.34000   9.35502
  Beta virt. eigenvalues --    9.35695   9.38854   9.41163   9.43937   9.46401
  Beta virt. eigenvalues --    9.52398   9.63824   9.66363   9.67904   9.68589
  Beta virt. eigenvalues --    9.69106   9.73575   9.75940   9.76773   9.76992
  Beta virt. eigenvalues --    9.77613   9.79040   9.82200   9.87300   9.90128
  Beta virt. eigenvalues --    9.91906  23.92903  23.97772  23.99539  24.07386
  Beta virt. eigenvalues --   66.89748  66.91950  66.93168  66.95309  66.96778
  Beta virt. eigenvalues --   66.97910  67.00164  67.03427  67.04401
          Condensed to atoms (all electrons):
               1          2          3          4          5          6
     1  C    8.702547   0.344568   0.348487  -1.760573  -0.059665  -0.062730
     2  F    0.344568   9.106948   0.020576  -0.159193   0.017818  -0.000208
     3  F    0.348487   0.020576   9.101434  -0.164497  -0.000157   0.017594
     4  C   -1.760573  -0.159193  -0.164497   6.602733   0.179773   0.179599
     5  F   -0.059665   0.017818  -0.000157   0.179773   9.072588   0.018911
     6  F   -0.062730  -0.000208   0.017594   0.179599   0.018911   9.076439
     7  C   -2.559280  -0.094805  -0.085305   0.917390   0.001399  -0.000830
     8  C    0.888221   0.004948  -0.000259  -0.522792  -0.001238   0.002707
     9  F   -0.105353   0.016689  -0.001230   0.021574   0.004876  -0.002484
    10  F   -0.092902  -0.001058   0.017293   0.012246  -0.002831   0.004174
    11  F    0.020995   0.002336  -0.004099  -0.002050  -0.000350   0.000051
    12  F    0.016256  -0.003086   0.001950   0.004937   0.000045  -0.000299
    13  F    0.033419   0.000050  -0.000136   0.003364   0.000031   0.000033
               7          8          9         10         11         12
     1  C   -2.559280   0.888221  -0.105353  -0.092902   0.020995   0.016256
     2  F   -0.094805   0.004948   0.016689  -0.001058   0.002336  -0.003086
     3  F   -0.085305  -0.000259  -0.001230   0.017293  -0.004099   0.001950
     4  C    0.917390  -0.522792   0.021574   0.012246  -0.002050   0.004937
     5  F    0.001399  -0.001238   0.004876  -0.002831  -0.000350   0.000045
     6  F   -0.000830   0.002707  -0.002484   0.004174   0.000051  -0.000299
     7  C    8.726811  -1.519950   0.333076   0.334366  -0.111537  -0.105162
     8  C   -1.519950   5.575784  -0.159219  -0.160010   0.284226   0.270223
     9  F    0.333076  -0.159219   9.108473   0.017141   0.019482  -0.000800
    10  F    0.334366  -0.160010   0.017141   9.103657  -0.000920   0.018737
    11  F   -0.111537   0.284226   0.019482  -0.000920   9.061081   0.017840
    12  F   -0.105162   0.270223  -0.000800   0.018737   0.017840   9.067084
    13  F   -0.142643   0.249393   0.020462   0.020581  -0.005880  -0.004105
              13
     1  C    0.033419
     2  F    0.000050
     3  F   -0.000136
     4  C    0.003364
     5  F    0.000031
     6  F    0.000033
     7  C   -0.142643
     8  C    0.249393
     9  F    0.020462
    10  F    0.020581
    11  F   -0.005880
    12  F   -0.004105
    13  F    9.114016
          Atomic-Atomic Spin Densities.
               1          2          3          4          5          6
     1  C    0.133122   0.007012   0.007710  -0.110890   0.005065   0.005023
     2  F    0.007012   0.004359   0.003014  -0.007245  -0.000401   0.000246
     3  F    0.007710   0.003014   0.005418  -0.009008   0.000321  -0.000310
     4  C   -0.110890  -0.007245  -0.009008   1.192359  -0.122292  -0.121711
     5  F    0.005065  -0.000401   0.000321  -0.122292   0.154184   0.011433
     6  F    0.005023   0.000246  -0.000310  -0.121711   0.011433   0.153492
     7  C   -0.039102  -0.004686  -0.005573   0.033449   0.000405   0.000450
     8  C   -0.002281  -0.001037  -0.000742   0.001980   0.000070   0.000071
     9  F   -0.000432  -0.000076  -0.000265  -0.000773  -0.000328   0.000225
    10  F    0.000213  -0.000217   0.000003  -0.000688   0.000163  -0.000373
    11  F   -0.000550  -0.000277  -0.000089   0.000186   0.000031   0.000008
    12  F   -0.000393  -0.000082  -0.000291   0.000171   0.000006   0.000025
    13  F   -0.000402  -0.000038  -0.000040   0.000082   0.000015   0.000016
               7          8          9         10         11         12
     1  C   -0.039102  -0.002281  -0.000432   0.000213  -0.000550  -0.000393
     2  F   -0.004686  -0.001037  -0.000076  -0.000217  -0.000277  -0.000082
     3  F   -0.005573  -0.000742  -0.000265   0.000003  -0.000089  -0.000291
     4  C    0.033449   0.001980  -0.000773  -0.000688   0.000186   0.000171
     5  F    0.000405   0.000070  -0.000328   0.000163   0.000031   0.000006
     6  F    0.000450   0.000071   0.000225  -0.000373   0.000008   0.000025
     7  C    0.048108  -0.002926   0.000433   0.000521   0.000568   0.000711
     8  C   -0.002926   0.017109  -0.000174  -0.000539   0.000025  -0.000056
     9  F    0.000433  -0.000174  -0.000170   0.000521   0.000172   0.000019
    10  F    0.000521  -0.000539   0.000521  -0.000283   0.000022   0.000117
    11  F    0.000568   0.000025   0.000172   0.000022   0.000016  -0.000035
    12  F    0.000711  -0.000056   0.000019   0.000117  -0.000035  -0.000099
    13  F   -0.000686  -0.002990   0.000390   0.000391   0.000213   0.000196
              13
     1  C   -0.000402
     2  F   -0.000038
     3  F   -0.000040
     4  C    0.000082
     5  F    0.000015
     6  F    0.000016
     7  C   -0.000686
     8  C   -0.002990
     9  F    0.000390
    10  F    0.000391
    11  F    0.000213
    12  F    0.000196
    13  F    0.005003
 Mulliken charges and spin densities:
               1          2
     1  C    0.286009   0.004092
     2  F   -0.255583   0.000571
     3  F   -0.251652   0.000149
     4  C    0.687489   0.855619
     5  F   -0.231199   0.048671
     6  F   -0.232957   0.048593
     7  C    0.306470   0.031670
     8  C    1.087963   0.008510
     9  F   -0.272687  -0.000456
    10  F   -0.270474  -0.000149
    11  F   -0.281175   0.000288
    12  F   -0.283620   0.000291
    13  F   -0.288585   0.002150
 Sum of Mulliken charges =  -0.00000   1.00000
 Mulliken charges and spin densities with hydrogens summed into heavy atoms:
               1          2
     1  C    0.286009   0.004092
     2  F   -0.255583   0.000571
     3  F   -0.251652   0.000149
     4  C    0.687489   0.855619
     5  F   -0.231199   0.048671
     6  F   -0.232957   0.048593
     7  C    0.306470   0.031670
     8  C    1.087963   0.008510
     9  F   -0.272687  -0.000456
    10  F   -0.270474  -0.000149
    11  F   -0.281175   0.000288
    12  F   -0.283620   0.000291
    13  F   -0.288585   0.002150
 Electronic spatial extent (au):  <R**2>=           1908.8969
 Charge=             -0.0000 electrons
 Dipole moment (field-independent basis, Debye):
    X=             -0.5000    Y=              0.1090    Z=             -0.0007  Tot=              0.5117
 Quadrupole moment (field-independent basis, Debye-Ang):
   XX=            -67.4893   YY=            -69.0736   ZZ=            -69.7453
   XY=             -0.5301   XZ=             -0.0355   YZ=              0.0418
 Traceless Quadrupole moment (field-independent basis, Debye-Ang):
   XX=              1.2801   YY=             -0.3042   ZZ=             -0.9759
   XY=             -0.5301   XZ=             -0.0355   YZ=              0.0418
 Octapole moment (field-independent basis, Debye-Ang**2):
  XXX=              1.4973  YYY=             -3.2792  ZZZ=             -0.2909  XYY=              0.8953
  XXY=              2.3584  XXZ=              0.1225  XZZ=              2.9852  YZZ=             -1.4933
  YYZ=             -0.1227  XYZ=             -0.1127
 Hexadecapole moment (field-independent basis, Debye-Ang**3):
 XXXX=          -1199.3412 YYYY=           -354.7089 ZZZZ=           -322.9327 XXXY=              3.8912
 XXXZ=              0.0946 YYYX=              9.9179 YYYZ=             -0.1553 ZZZX=              0.5209
 ZZZY=             -0.7009 XXYY=           -260.9426 XXZZ=           -261.3229 YYZZ=           -114.8112
 XXYZ=              0.2244 YYXZ=              0.3363 ZZXY=              1.8447
 N-N= 1.021301321849D+03 E-N=-4.539921880807D+03  KE= 1.048335121014D+03
                          Isotropic Fermi Contact Couplings
        Atom                 a.u.       MegaHertz       Gauss      10(-4) cm-1
     1  C(13)             -0.00412      -4.62996      -1.65209      -1.54439
     2  F(19)              0.00744      31.29773      11.16781      10.43980
     3  F(19)              0.00831      34.97302      12.47924      11.66574
     4  C(13)              0.33072     371.79318     132.66505     124.01686
     5  F(19)              0.05043     212.20198      75.71894      70.78296
     6  F(19)              0.05024     211.36341      75.41972      70.50324
     7  C(13)              0.01987      22.33236       7.96874       7.44927
     8  C(13)              0.01035      11.63754       4.15256       3.88187
     9  F(19)             -0.00057      -2.37873      -0.84879      -0.79346
    10  F(19)             -0.00048      -2.02597      -0.72292      -0.67579
    11  F(19)             -0.00027      -1.13594      -0.40533      -0.37891
    12  F(19)             -0.00031      -1.29459      -0.46194      -0.43183
    13  F(19)              0.00242      10.18367       3.63379       3.39691
 --------------------------------------------------------
       Center         ----  Spin Dipole Couplings  ----
                      3XX-RR        3YY-RR        3ZZ-RR
 --------------------------------------------------------
     1   Atom        0.056165     -0.015203     -0.040962
     2   Atom       -0.015356     -0.015342      0.030698
     3   Atom       -0.015329     -0.016746      0.032075
     4   Atom        0.007385      0.521862     -0.529247
     5   Atom        0.004410      0.413014     -0.417424
     6   Atom        0.005105      0.433186     -0.438291
     7   Atom        0.012695      0.015184     -0.027879
     8   Atom        0.013638     -0.004782     -0.008857
     9   Atom        0.004021     -0.002842     -0.001179
    10   Atom        0.003942     -0.002679     -0.001263
    11   Atom        0.001448      0.000775     -0.002223
    12   Atom        0.001463      0.000653     -0.002116
    13   Atom        0.026874     -0.013529     -0.013345
 --------------------------------------------------------
                        XY            XZ            YZ
 --------------------------------------------------------
     1   Atom        0.064276      0.005469      0.002599
     2   Atom       -0.001309     -0.008341     -0.002713
     3   Atom       -0.002279      0.009780     -0.001493
     4   Atom       -0.752171     -0.055760      0.078315
     5   Atom       -0.584463     -0.132231      0.139365
     6   Atom       -0.596500      0.045125     -0.012367
     7   Atom       -0.040995     -0.002041      0.002344
     8   Atom        0.008905      0.000088      0.000063
     9   Atom       -0.007282      0.003865     -0.006558
    10   Atom       -0.007939     -0.004863      0.006899
    11   Atom        0.001102     -0.000042      0.001026
    12   Atom        0.000595      0.000061     -0.000998
    13   Atom       -0.005085     -0.000012     -0.000001
 --------------------------------------------------------


 ---------------------------------------------------------------------------------
              Anisotropic Spin Dipole Couplings in Principal Axis System
 ---------------------------------------------------------------------------------

       Atom             a.u.   MegaHertz   Gauss  10(-4) cm-1        Axes

              Baa    -0.0531    -7.120    -2.541    -2.375 -0.5083  0.8600  0.0451
     1 C(13)  Bbb    -0.0412    -5.530    -1.973    -1.844 -0.0155 -0.0615  0.9980
              Bcc     0.0943    12.650     4.514     4.220  0.8610  0.5066  0.0446
 
              Baa    -0.0180    -9.053    -3.230    -3.020  0.8073  0.5652  0.1697
     2 F(19)  Bbb    -0.0143    -7.163    -2.556    -2.389 -0.5649  0.8234 -0.0551
              Bcc     0.0323    16.216     5.786     5.409 -0.1709 -0.0513  0.9840
 
              Baa    -0.0190    -9.542    -3.405    -3.183  0.7370  0.6648 -0.1217
     3 F(19)  Bbb    -0.0151    -7.577    -2.704    -2.527 -0.6469  0.7461  0.1578
              Bcc     0.0341    17.118     6.108     5.710  0.1957 -0.0376  0.9799
 
              Baa    -0.5351   -71.799   -25.620   -23.949  0.0036 -0.0713  0.9974
     4 C(13)  Bbb    -0.5303   -71.163   -25.393   -23.737  0.8143  0.5792  0.0385
              Bcc     1.0654   142.961    51.012    47.687 -0.5805  0.8120  0.0602
 
              Baa    -0.4603  -231.175   -82.489   -77.112  0.4613  0.1697  0.8709
     5 F(19)  Bbb    -0.3960  -198.863   -70.959   -66.334  0.6757  0.5689 -0.4688
              Bcc     0.8563   430.038   153.448   143.445 -0.5750  0.8047  0.1477
 
              Baa    -0.4592  -230.614   -82.289   -76.925 -0.4674 -0.3009  0.8313
     6 F(19)  Bbb    -0.3947  -198.233   -70.734   -66.123  0.6709  0.4917  0.5551
              Bcc     0.8539   428.847   153.023   143.048 -0.5757  0.8171 -0.0279
 
              Baa    -0.0280    -3.761    -1.342    -1.254 -0.0988 -0.1471  0.9842
     7 C(13)  Bbb    -0.0270    -3.629    -1.295    -1.211  0.7114  0.6810  0.1733
              Bcc     0.0551     7.390     2.637     2.465 -0.6958  0.7173  0.0374
 
              Baa    -0.0089    -1.189    -0.424    -0.397  0.0162 -0.0507  0.9986
     8 C(13)  Bbb    -0.0084    -1.125    -0.401    -0.375 -0.3746  0.9257  0.0531
              Bcc     0.0172     2.313     0.825     0.772  0.9271  0.3749  0.0040
 
              Baa    -0.0095    -4.785    -1.707    -1.596  0.2936  0.8130  0.5028
     9 F(19)  Bbb    -0.0027    -1.356    -0.484    -0.452 -0.6513 -0.2149  0.7278
              Bcc     0.0122     6.141     2.191     2.049  0.6998 -0.5411  0.4664
 
              Baa    -0.0097    -4.895    -1.747    -1.633  0.2986  0.8170 -0.4933
    10 F(19)  Bbb    -0.0038    -1.907    -0.681    -0.636  0.6587  0.1975  0.7260
              Bcc     0.0135     6.802     2.427     2.269  0.6906 -0.5417 -0.4792
 
              Baa    -0.0026    -1.294    -0.462    -0.432  0.0976 -0.3205  0.9422
    11 F(19)  Bbb     0.0002     0.118     0.042     0.039 -0.6340  0.7097  0.3071
              Bcc     0.0023     1.176     0.420     0.392  0.7671  0.6274  0.1339
 
              Baa    -0.0025    -1.232    -0.440    -0.411 -0.0628  0.3161  0.9467
    12 F(19)  Bbb     0.0006     0.314     0.112     0.105 -0.5381  0.7881 -0.2988
              Bcc     0.0018     0.918     0.328     0.306  0.8405  0.5281 -0.1206
 
              Baa    -0.0142    -7.111    -2.537    -2.372  0.1230  0.9924  0.0031
    13 F(19)  Bbb    -0.0133    -6.702    -2.392    -2.236 -0.0001 -0.0031  1.0000
              Bcc     0.0275    13.813     4.929     4.608  0.9924 -0.1230 -0.0003
 

 ---------------------------------------------------------------------------------

 1\1\GINC-ORANGE\FOpt\UwB97XD\6-311+G(2d,2p)\C4F9(2)\RAPPE\11-Dec-2024\
 0\\# opt freq uwb97xd/6-311+g(2d,2p) geom=connectivity integral=grid=s
 uperfinegrid scf=(xqc,tight)\\Title Card Required\\0,2\C,0.76638986,0.
 6367917378,-0.1205152893\F,0.5859698404,1.5705903765,0.8266576223\F,0.
 603532282,1.1906347274,-1.332169338\C,2.2007253138,0.148328538,-0.0224
 082465\F,2.5876543831,-0.2539499418,1.165081882\F,2.5925060289,-0.6659
 48352,-0.9741824556\C,-0.3120042892,-0.4717874087,0.0639272455\C,-1.79
 1474727,0.003811955,0.012652614\F,-0.1150164193,-1.0571756795,1.254600
 4867\F,-0.1440291156,-1.3853546878,-0.9029225735\F,-2.0455981329,0.858
 0865256,0.9937734189\F,-2.0594184042,0.5841621243,-1.148901494\F,-2.58
 12636203,-1.0543019148,0.1534631275\\Version=ES64L-G16RevA.03\State=2-
 A\HF=-1050.9833627\S2=0.752835\S2-1=0.\S2A=0.750005\RMSD=3.722e-09\RMS
 F=1.560e-06\Dipole=0.1967312,0.0424346,-0.0048187\Quadrupole=0.9522914
 ,-0.2403418,-0.7119496,0.3873319,-0.072962,-0.0869089\PG=C01 [X(C4F9)]
 \\@


 Not by the face shall a man be known, but by the mask.
                               -- Karen Blixen
 Job cpu time:       0 days  8 hours 40 minutes 10.4 seconds.
 Elapsed time:       0 days  0 hours 17 minutes 26.7 seconds.
 File lengths (MBytes):  RWF=    137 Int=      0 D2E=      0 Chk=     13 Scr=      1
 Normal termination of Gaussian 16 at Wed Dec 11 03:26:08 2024.
 Link1:  Proceeding to internal job step number  2.
 ----------------------------------------------------------------------
 #N Geom=AllCheck Guess=TCheck SCRF=Check GenChk UwB97XD/6-311+G(2d,2p)
  Freq
 ----------------------------------------------------------------------
 1/10=4,29=7,30=1,38=1,40=1/1,3;
 2/12=2,40=1/2;
 3/5=4,6=6,7=212,11=2,14=-4,25=1,30=1,70=2,71=2,74=-58,75=-7,116=2,140=1/1,2,3;
 4/5=101/1;
 5/5=2,8=3,13=1,32=2,38=6,98=1/2,8;
 8/6=4,10=90,11=11/1;
 11/6=1,8=1,9=11,15=111,16=1/1,2,10;
 10/6=1/2;
 6/7=2,8=2,9=2,10=2,28=1/1;
 7/8=1,10=1,25=1/1,2,3,16;
 1/10=4,30=1/3;
 99//99;
 Structure from the checkpoint file:  "c4_rad.chk"
 -------------------
 Title Card Required
 -------------------
 Charge =  0 Multiplicity = 2
 Redundant internal coordinates found in file.  (old form).
 C,0,0.76638986,0.6367917378,-0.1205152893
 F,0,0.5859698404,1.5705903765,0.8266576223
 F,0,0.603532282,1.1906347274,-1.332169338
 C,0,2.2007253138,0.148328538,-0.0224082465
 F,0,2.5876543831,-0.2539499418,1.165081882
 F,0,2.5925060289,-0.665948352,-0.9741824556
 C,0,-0.3120042892,-0.4717874087,0.0639272455
 C,0,-1.791474727,0.003811955,0.012652614
 F,0,-0.1150164193,-1.0571756795,1.2546004867
 F,0,-0.1440291156,-1.3853546878,-0.9029225735
 F,0,-2.0455981329,0.8580865256,0.9937734189
 F,0,-2.0594184042,0.5841621243,-1.148901494
 F,0,-2.5812636203,-1.0543019148,0.1534631275
 Recover connectivity data from disk.

 GradGradGradGradGradGradGradGradGradGradGradGradGradGradGradGradGradGrad
 Berny optimization.
 Initialization pass.
                           ----------------------------
                           !    Initial Parameters    !
                           ! (Angstroms and Degrees)  !
 --------------------------                            --------------------------
 ! Name  Definition              Value          Derivative Info.                !
 --------------------------------------------------------------------------------
 ! R1    R(1,2)                  1.3423         calculate D2E/DX2 analytically  !
 ! R2    R(1,3)                  1.3422         calculate D2E/DX2 analytically  !
 ! R3    R(1,4)                  1.5184         calculate D2E/DX2 analytically  !
 ! R4    R(1,7)                  1.5575         calculate D2E/DX2 analytically  !
 ! R5    R(4,5)                  1.3121         calculate D2E/DX2 analytically  !
 ! R6    R(4,6)                  1.3124         calculate D2E/DX2 analytically  !
 ! R7    R(7,8)                  1.5549         calculate D2E/DX2 analytically  !
 ! R8    R(7,9)                  1.3413         calculate D2E/DX2 analytically  !
 ! R9    R(7,10)                 1.3408         calculate D2E/DX2 analytically  !
 ! R10   R(8,11)                 1.3255         calculate D2E/DX2 analytically  !
 ! R11   R(8,12)                 1.3258         calculate D2E/DX2 analytically  !
 ! R12   R(8,13)                 1.3279         calculate D2E/DX2 analytically  !
 ! A1    A(2,1,3)              109.4908         calculate D2E/DX2 analytically  !
 ! A2    A(2,1,4)              107.769          calculate D2E/DX2 analytically  !
 ! A3    A(2,1,7)              108.5742         calculate D2E/DX2 analytically  !
 ! A4    A(3,1,4)              107.8004         calculate D2E/DX2 analytically  !
 ! A5    A(3,1,7)              108.4575         calculate D2E/DX2 analytically  !
 ! A6    A(4,1,7)              114.6719         calculate D2E/DX2 analytically  !
 ! A7    A(1,4,5)              115.8275         calculate D2E/DX2 analytically  !
 ! A8    A(1,4,6)              115.7681         calculate D2E/DX2 analytically  !
 ! A9    A(5,4,6)              112.2146         calculate D2E/DX2 analytically  !
 ! A10   A(1,7,8)              115.9242         calculate D2E/DX2 analytically  !
 ! A11   A(1,7,9)              108.3042         calculate D2E/DX2 analytically  !
 ! A12   A(1,7,10)             108.2304         calculate D2E/DX2 analytically  !
 ! A13   A(8,7,9)              107.6078         calculate D2E/DX2 analytically  !
 ! A14   A(8,7,10)             107.6887         calculate D2E/DX2 analytically  !
 ! A15   A(9,7,10)             108.9265         calculate D2E/DX2 analytically  !
 ! A16   A(7,8,11)             110.8023         calculate D2E/DX2 analytically  !
 ! A17   A(7,8,12)             110.7981         calculate D2E/DX2 analytically  !
 ! A18   A(7,8,13)             108.5845         calculate D2E/DX2 analytically  !
 ! A19   A(11,8,12)            109.1244         calculate D2E/DX2 analytically  !
 ! A20   A(11,8,13)            108.7261         calculate D2E/DX2 analytically  !
 ! A21   A(12,8,13)            108.7542         calculate D2E/DX2 analytically  !
 ! D1    D(2,1,4,5)             52.7655         calculate D2E/DX2 analytically  !
 ! D2    D(2,1,4,6)           -172.8025         calculate D2E/DX2 analytically  !
 ! D3    D(3,1,4,5)            170.8568         calculate D2E/DX2 analytically  !
 ! D4    D(3,1,4,6)            -54.7112         calculate D2E/DX2 analytically  !
 ! D5    D(7,1,4,5)            -68.252          calculate D2E/DX2 analytically  !
 ! D6    D(7,1,4,6)             66.18           calculate D2E/DX2 analytically  !
 ! D7    D(2,1,7,8)             57.6104         calculate D2E/DX2 analytically  !
 ! D8    D(2,1,7,9)            -63.3917         calculate D2E/DX2 analytically  !
 ! D9    D(2,1,7,10)           178.6614         calculate D2E/DX2 analytically  !
 ! D10   D(3,1,7,8)            -61.2866         calculate D2E/DX2 analytically  !
 ! D11   D(3,1,7,9)            177.7113         calculate D2E/DX2 analytically  !
 ! D12   D(3,1,7,10)            59.7645         calculate D2E/DX2 analytically  !
 ! D13   D(4,1,7,8)            178.1844         calculate D2E/DX2 analytically  !
 ! D14   D(4,1,7,9)             57.1823         calculate D2E/DX2 analytically  !
 ! D15   D(4,1,7,10)           -60.7645         calculate D2E/DX2 analytically  !
 ! D16   D(1,7,8,11)           -62.0862         calculate D2E/DX2 analytically  !
 ! D17   D(1,7,8,12)            59.1921         calculate D2E/DX2 analytically  !
 ! D18   D(1,7,8,13)           178.5689         calculate D2E/DX2 analytically  !
 ! D19   D(9,7,8,11)            59.2887         calculate D2E/DX2 analytically  !
 ! D20   D(9,7,8,12)          -179.4329         calculate D2E/DX2 analytically  !
 ! D21   D(9,7,8,13)           -60.0562         calculate D2E/DX2 analytically  !
 ! D22   D(10,7,8,11)          176.5728         calculate D2E/DX2 analytically  !
 ! D23   D(10,7,8,12)          -62.1489         calculate D2E/DX2 analytically  !
 ! D24   D(10,7,8,13)           57.2279         calculate D2E/DX2 analytically  !
 --------------------------------------------------------------------------------
 Trust Radius=3.00D-01 FncErr=1.00D-07 GrdErr=1.00D-07 EigMax=2.50D+02 EigMin=1.00D-04
 Number of steps in this run=      2 maximum allowed number of steps=      2.
 GradGradGradGradGradGradGradGradGradGradGradGradGradGradGradGradGradGrad

                          Input orientation:                          
 ---------------------------------------------------------------------
 Center     Atomic      Atomic             Coordinates (Angstroms)
 Number     Number       Type             X           Y           Z
 ---------------------------------------------------------------------
      1          6           0        0.766390    0.636792   -0.120515
      2          9           0        0.585970    1.570590    0.826658
      3          9           0        0.603532    1.190635   -1.332169
      4          6           0        2.200725    0.148329   -0.022408
      5          9           0        2.587654   -0.253950    1.165082
      6          9           0        2.592506   -0.665948   -0.974182
      7          6           0       -0.312004   -0.471787    0.063927
      8          6           0       -1.791475    0.003812    0.012653
      9          9           0       -0.115016   -1.057176    1.254600
     10          9           0       -0.144029   -1.385355   -0.902923
     11          9           0       -2.045598    0.858087    0.993773
     12          9           0       -2.059418    0.584162   -1.148901
     13          9           0       -2.581264   -1.054302    0.153463
 ---------------------------------------------------------------------
                    Distance matrix (angstroms):
                    1          2          3          4          5
     1  C    0.000000
     2  F    1.342262   0.000000
     3  F    1.342151   2.192079   0.000000
     4  C    1.518400   2.313261   2.313634   0.000000
     5  F    2.400664   2.729509   3.501404   1.312126   0.000000
     6  F    2.400121   3.503044   2.744280   1.312407   2.178582
     7  C    1.557530   2.357843   2.356043   2.589557   3.109343
     8  C    2.638384   2.961358   2.992182   3.994969   4.535560
     9  F    2.353157   2.753120   3.501477   2.906312   2.820924
    10  F    2.351616   3.501708   2.716399   2.936897   3.608159
    11  F    3.032802   2.731435   3.540973   4.423533   4.767914
    12  F    3.007580   3.445860   2.737280   4.428065   5.258539
    13  F    3.760538   4.168287   4.170104   4.934032   5.327443
                    6          7          8          9         10
     6  F    0.000000
     7  C    3.090558   0.000000
     8  C    4.543315   1.554882   0.000000
     9  F    3.528627   1.341338   2.340650   0.000000
    10  F    2.830415   1.340753   2.341397   2.182533   0.000000
    11  F    5.263795   2.374558   1.325504   2.731923   3.499493
    12  F    4.820135   2.374750   1.325824   3.500216   2.758300
    13  F    5.309453   2.344542   1.327855   2.700905   2.676875
                   11         12         13
    11  F    0.000000
    12  F    2.160158   0.000000
    13  F    2.156453   2.157091   0.000000
 Stoichiometry    C4F9(2)
 Framework group  C1[X(C4F9)]
 Deg. of freedom    33
 Full point group                 C1      NOp   1
 Largest Abelian subgroup         C1      NOp   1
 Largest concise Abelian subgroup C1      NOp   1
                         Standard orientation:                         
 ---------------------------------------------------------------------
 Center     Atomic      Atomic             Coordinates (Angstroms)
 Number     Number       Type             X           Y           Z
 ---------------------------------------------------------------------
      1          6           0       -0.765916    0.647042    0.045785
      2          9           0       -0.583482    1.467284   -1.000919
      3          9           0       -0.603967    1.334556    1.187042
      4          6           0       -2.200599    0.151771    0.001846
      5          9           0       -2.586503   -0.382234   -1.132874
      6          9           0       -2.594284   -0.549026    1.039299
      7          6           0        0.311639   -0.476177   -0.010393
      8          6           0        1.791500    0.000967   -0.011468
      9          9           0        0.115505   -1.192627   -1.127272
     10          9           0        0.141647   -1.274097    1.053583
     11          9           0        2.047601    0.738288   -1.082791
     12          9           0        2.058620    0.709052    1.077141
     13          9           0        2.580447   -1.066931   -0.030389
 ---------------------------------------------------------------------
 Rotational constants (GHZ):           1.3623584           0.6010693           0.5937548
 Standard basis: 6-311+G(2d,2p) (5D, 7F)
 There are   377 symmetry adapted cartesian basis functions of A   symmetry.
 There are   351 symmetry adapted basis functions of A   symmetry.
   351 basis functions,   546 primitive gaussians,   377 cartesian basis functions
    53 alpha electrons       52 beta electrons
       nuclear repulsion energy      1021.3085301042 Hartrees.
 NAtoms=   13 NActive=   13 NUniq=   13 SFac= 1.00D+00 NAtFMM=   60 NAOKFM=F Big=F
 Integral buffers will be    131072 words long.
 Raffenetti 2 integral format.
 Two-electron integral symmetry is turned on.
 Nuclear repulsion after empirical dispersion term =     1021.3013218494 Hartrees.
 One-electron integrals computed using PRISM.
 NBasis=   351 RedAO= T EigKep=  1.07D-05  NBF=   351
 NBsUse=   351 1.00D-06 EigRej= -1.00D+00 NBFU=   351
 Initial guess from the checkpoint file:  "c4_rad.chk"
 B after Tr=    -0.000000    0.000000    0.000000
         Rot=    1.000000   -0.000000    0.000000    0.000000 Ang=   0.00 deg.
 Initial guess <Sx>= 0.0000 <Sy>= 0.0000 <Sz>= 0.5000 <S**2>= 0.7528 S= 0.5014
 Requested convergence on RMS density matrix=1.00D-08 within  32 cycles.
 Requested convergence on MAX density matrix=1.00D-06.
 Requested convergence on             energy=1.00D-06.
 No special actions if energy rises.
 SCF Done:  E(UwB97XD) =  -1050.98336269     A.U. after    1 cycles
            NFock=  1  Conv=0.10D-08     -V/T= 2.0025
 <Sx>= 0.0000 <Sy>= 0.0000 <Sz>= 0.5000 <S**2>= 0.7528 S= 0.5014
 <L.S>= 0.000000000000E+00
 Annihilation of the first spin contaminant:
 S**2 before annihilation     0.7528,   after     0.7500
 QCSCF skips out because SCF is already converged.
 DoSCS=F DFT=T ScalE2(SS,OS)=  1.000000  1.000000
 Range of M.O.s used for correlation:     1   351
 NBasis=   351 NAE=    53 NBE=    52 NFC=     0 NFV=     0
 NROrb=    351 NOA=    53 NOB=    52 NVA=   298 NVB=   299

 **** Warning!!: The largest alpha MO coefficient is  0.68168874D+02


 **** Warning!!: The largest beta MO coefficient is  0.66075818D+02

 Symmetrizing basis deriv contribution to polar:
 IMax=3 JMax=2 DiffMx= 0.00D+00
 G2DrvN: will do    14 centers at a time, making    1 passes.
 Calling FoFCou, ICntrl=  3107 FMM=F I1Cent=   0 AccDes= 0.00D+00.
 End of G2Drv F.D. properties file   721 does not exist.
 End of G2Drv F.D. properties file   722 does not exist.
 End of G2Drv F.D. properties file   788 does not exist.
          IDoAtm=1111111111111
          Differentiating once with respect to electric field.
                with respect to dipole field.
          Differentiating once with respect to nuclear coordinates.
 Keep R1 and R2 ints in memory in canonical form, NReq=7667310316.
          There are    42 degrees of freedom in the 1st order CPHF.  IDoFFX=6 NUNeed=     3.
     39 vectors produced by pass  0 Test12= 7.46D-14 2.38D-09 XBig12= 3.59D+01 1.36D+00.
 AX will form    39 AO Fock derivatives at one time.
     39 vectors produced by pass  1 Test12= 7.46D-14 2.38D-09 XBig12= 7.14D+00 3.54D-01.
     39 vectors produced by pass  2 Test12= 7.46D-14 2.38D-09 XBig12= 3.21D-01 9.63D-02.
     39 vectors produced by pass  3 Test12= 7.46D-14 2.38D-09 XBig12= 1.00D-02 1.68D-02.
     39 vectors produced by pass  4 Test12= 7.46D-14 2.38D-09 XBig12= 1.88D-04 2.75D-03.
     39 vectors produced by pass  5 Test12= 7.46D-14 2.38D-09 XBig12= 2.97D-06 4.46D-04.
     39 vectors produced by pass  6 Test12= 7.46D-14 2.38D-09 XBig12= 3.22D-08 2.54D-05.
     36 vectors produced by pass  7 Test12= 7.46D-14 2.38D-09 XBig12= 3.49D-10 2.71D-06.
     14 vectors produced by pass  8 Test12= 7.46D-14 2.38D-09 XBig12= 3.22D-12 2.63D-07.
      3 vectors produced by pass  9 Test12= 7.46D-14 2.38D-09 XBig12= 4.04D-14 1.75D-08.
      1 vectors produced by pass 10 Test12= 7.46D-14 2.38D-09 XBig12= 1.44D-15 4.07D-09.
 InvSVY:  IOpt=1 It=  1 EMax= 6.22D-15
 Solved reduced A of dimension   327 with    42 vectors.
 Isotropic polarizability for W=    0.000000       54.23 Bohr**3.
 End of Minotr F.D. properties file   721 does not exist.
 End of Minotr F.D. properties file   722 does not exist.
 End of Minotr F.D. properties file   788 does not exist.

 **********************************************************************

            Population analysis using the SCF density.

 **********************************************************************

 Orbital symmetries:
 Alpha Orbitals:
       Occupied  (A) (A) (A) (A) (A) (A) (A) (A) (A) (A) (A) (A)
                 (A) (A) (A) (A) (A) (A) (A) (A) (A) (A) (A) (A)
                 (A) (A) (A) (A) (A) (A) (A) (A) (A) (A) (A) (A)
                 (A) (A) (A) (A) (A) (A) (A) (A) (A) (A) (A) (A)
                 (A) (A) (A) (A) (A)
       Virtual   (A) (A) (A) (A) (A) (A) (A) (A) (A) (A) (A) (A)
                 (A) (A) (A) (A) (A) (A) (A) (A) (A) (A) (A) (A)
                 (A) (A) (A) (A) (A) (A) (A) (A) (A) (A) (A) (A)
                 (A) (A) (A) (A) (A) (A) (A) (A) (A) (A) (A) (A)
                 (A) (A) (A) (A) (A) (A) (A) (A) (A) (A) (A) (A)
                 (A) (A) (A) (A) (A) (A) (A) (A) (A) (A) (A) (A)
                 (A) (A) (A) (A) (A) (A) (A) (A) (A) (A) (A) (A)
                 (A) (A) (A) (A) (A) (A) (A) (A) (A) (A) (A) (A)
                 (A) (A) (A) (A) (A) (A) (A) (A) (A) (A) (A) (A)
                 (A) (A) (A) (A) (A) (A) (A) (A) (A) (A) (A) (A)
                 (A) (A) (A) (A) (A) (A) (A) (A) (A) (A) (A) (A)
                 (A) (A) (A) (A) (A) (A) (A) (A) (A) (A) (A) (A)
                 (A) (A) (A) (A) (A) (A) (A) (A) (A) (A) (A) (A)
                 (A) (A) (A) (A) (A) (A) (A) (A) (A) (A) (A) (A)
                 (A) (A) (A) (A) (A) (A) (A) (A) (A) (A) (A) (A)
                 (A) (A) (A) (A) (A) (A) (A) (A) (A) (A) (A) (A)
                 (A) (A) (A) (A) (A) (A) (A) (A) (A) (A) (A) (A)
                 (A) (A) (A) (A) (A) (A) (A) (A) (A) (A) (A) (A)
                 (A) (A) (A) (A) (A) (A) (A) (A) (A) (A) (A) (A)
                 (A) (A) (A) (A) (A) (A) (A) (A) (A) (A) (A) (A)
                 (A) (A) (A) (A) (A) (A) (A) (A) (A) (A) (A) (A)
                 (A) (A) (A) (A) (A) (A) (A) (A) (A) (A) (A) (A)
                 (A) (A) (A) (A) (A) (A) (A) (A) (A) (A) (A) (A)
                 (A) (A) (A) (A) (A) (A) (A) (A) (A) (A) (A) (A)
                 (A) (A) (A) (A) (A) (A) (A) (A) (A) (A)
 Beta  Orbitals:
       Occupied  (A) (A) (A) (A) (A) (A) (A) (A) (A) (A) (A) (A)
                 (A) (A) (A) (A) (A) (A) (A) (A) (A) (A) (A) (A)
                 (A) (A) (A) (A) (A) (A) (A) (A) (A) (A) (A) (A)
                 (A) (A) (A) (A) (A) (A) (A) (A) (A) (A) (A) (A)
                 (A) (A) (A) (A)
       Virtual   (A) (A) (A) (A) (A) (A) (A) (A) (A) (A) (A) (A)
                 (A) (A) (A) (A) (A) (A) (A) (A) (A) (A) (A) (A)
                 (A) (A) (A) (A) (A) (A) (A) (A) (A) (A) (A) (A)
                 (A) (A) (A) (A) (A) (A) (A) (A) (A) (A) (A) (A)
                 (A) (A) (A) (A) (A) (A) (A) (A) (A) (A) (A) (A)
                 (A) (A) (A) (A) (A) (A) (A) (A) (A) (A) (A) (A)
                 (A) (A) (A) (A) (A) (A) (A) (A) (A) (A) (A) (A)
                 (A) (A) (A) (A) (A) (A) (A) (A) (A) (A) (A) (A)
                 (A) (A) (A) (A) (A) (A) (A) (A) (A) (A) (A) (A)
                 (A) (A) (A) (A) (A) (A) (A) (A) (A) (A) (A) (A)
                 (A) (A) (A) (A) (A) (A) (A) (A) (A) (A) (A) (A)
                 (A) (A) (A) (A) (A) (A) (A) (A) (A) (A) (A) (A)
                 (A) (A) (A) (A) (A) (A) (A) (A) (A) (A) (A) (A)
                 (A) (A) (A) (A) (A) (A) (A) (A) (A) (A) (A) (A)
                 (A) (A) (A) (A) (A) (A) (A) (A) (A) (A) (A) (A)
                 (A) (A) (A) (A) (A) (A) (A) (A) (A) (A) (A) (A)
                 (A) (A) (A) (A) (A) (A) (A) (A) (A) (A) (A) (A)
                 (A) (A) (A) (A) (A) (A) (A) (A) (A) (A) (A) (A)
                 (A) (A) (A) (A) (A) (A) (A) (A) (A) (A) (A) (A)
                 (A) (A) (A) (A) (A) (A) (A) (A) (A) (A) (A) (A)
                 (A) (A) (A) (A) (A) (A) (A) (A) (A) (A) (A) (A)
                 (A) (A) (A) (A) (A) (A) (A) (A) (A) (A) (A) (A)
                 (A) (A) (A) (A) (A) (A) (A) (A) (A) (A) (A) (A)
                 (A) (A) (A) (A) (A) (A) (A) (A) (A) (A) (A) (A)
                 (A) (A) (A) (A) (A) (A) (A) (A) (A) (A) (A)
 The electronic state is 2-A.
 Alpha  occ. eigenvalues --  -24.89045 -24.89036 -24.88059 -24.88045 -24.88039
 Alpha  occ. eigenvalues --  -24.88026 -24.87895 -24.87651 -24.87605 -10.58474
 Alpha  occ. eigenvalues --  -10.53022 -10.52818 -10.50428  -1.47476  -1.45075
 Alpha  occ. eigenvalues --   -1.43495  -1.42355  -1.38787  -1.38189  -1.37655
 Alpha  occ. eigenvalues --   -1.37110  -1.36488  -0.95389  -0.90648  -0.83163
 Alpha  occ. eigenvalues --   -0.79598  -0.75588  -0.75099  -0.74341  -0.72910
 Alpha  occ. eigenvalues --   -0.72310  -0.71845  -0.70618  -0.68501  -0.66842
 Alpha  occ. eigenvalues --   -0.61431  -0.60767  -0.60574  -0.60466  -0.59942
 Alpha  occ. eigenvalues --   -0.59560  -0.58412  -0.57548  -0.57198  -0.56045
 Alpha  occ. eigenvalues --   -0.55463  -0.55025  -0.54565  -0.54346  -0.53824
 Alpha  occ. eigenvalues --   -0.52181  -0.47255  -0.35553
 Alpha virt. eigenvalues --    0.06933   0.07554   0.08369   0.08728   0.11029
 Alpha virt. eigenvalues --    0.11400   0.11672   0.12752   0.12790   0.13439
 Alpha virt. eigenvalues --    0.14524   0.15138   0.15949   0.16434   0.17621
 Alpha virt. eigenvalues --    0.18657   0.18856   0.21285   0.22753   0.24564
 Alpha virt. eigenvalues --    0.25651   0.25909   0.27011   0.28787   0.29424
 Alpha virt. eigenvalues --    0.29621   0.30787   0.30840   0.31607   0.32007
 Alpha virt. eigenvalues --    0.32987   0.33133   0.34604   0.35176   0.35909
 Alpha virt. eigenvalues --    0.36070   0.37239   0.37779   0.39336   0.40189
 Alpha virt. eigenvalues --    0.40268   0.40758   0.41494   0.41766   0.42814
 Alpha virt. eigenvalues --    0.43335   0.44204   0.44377   0.44440   0.45745
 Alpha virt. eigenvalues --    0.45937   0.46076   0.47276   0.47645   0.47886
 Alpha virt. eigenvalues --    0.48748   0.51471   0.52350   0.53361   0.55406
 Alpha virt. eigenvalues --    0.55865   0.58816   0.62464   0.62578   0.63535
 Alpha virt. eigenvalues --    0.65319   0.66822   0.69558   0.70602   0.72599
 Alpha virt. eigenvalues --    0.74440   0.74581   0.78275   0.78998   0.79641
 Alpha virt. eigenvalues --    0.83571   0.85726   0.87400   0.91634   0.97066
 Alpha virt. eigenvalues --    1.00895   1.03060   1.06385   1.07067   1.09508
 Alpha virt. eigenvalues --    1.12408   1.12991   1.13891   1.16222   1.25904
 Alpha virt. eigenvalues --    1.26649   1.28195   1.30061   1.30216   1.33528
 Alpha virt. eigenvalues --    1.35941   1.36871   1.38026   1.39086   1.40841
 Alpha virt. eigenvalues --    1.41847   1.42975   1.43688   1.43999   1.45918
 Alpha virt. eigenvalues --    1.46527   1.46743   1.46970   1.47323   1.48018
 Alpha virt. eigenvalues --    1.48778   1.50112   1.50320   1.51317   1.51939
 Alpha virt. eigenvalues --    1.52554   1.53081   1.53581   1.54697   1.57422
 Alpha virt. eigenvalues --    1.58893   1.60402   1.64475   1.66099   1.67972
 Alpha virt. eigenvalues --    1.71185   1.72455   1.87393   1.89490   1.97174
 Alpha virt. eigenvalues --    1.98807   2.00329   2.01403   2.03129   2.04574
 Alpha virt. eigenvalues --    2.05059   2.05579   2.08962   2.09371   2.11540
 Alpha virt. eigenvalues --    2.12481   2.13435   2.13508   2.16282   2.16574
 Alpha virt. eigenvalues --    2.17887   2.19364   2.20558   2.21299   2.24890
 Alpha virt. eigenvalues --    2.26074   2.27481   2.31872   2.35445   2.36679
 Alpha virt. eigenvalues --    2.37420   2.39297   2.42524   2.46756   2.47148
 Alpha virt. eigenvalues --    2.52977   2.53439   2.59766   2.60934   2.61280
 Alpha virt. eigenvalues --    2.69674   2.71381   2.73684   2.74772   2.77046
 Alpha virt. eigenvalues --    2.77146   2.81051   2.81332   2.85007   2.85293
 Alpha virt. eigenvalues --    2.90021   2.97534   3.02589   3.04734   3.06304
 Alpha virt. eigenvalues --    3.21180   3.22841   3.25371   3.34188   3.39197
 Alpha virt. eigenvalues --    3.43761   3.45911   3.46270   3.47839   3.49419
 Alpha virt. eigenvalues --    3.52181   3.55654   3.57267   3.59145   3.60656
 Alpha virt. eigenvalues --    3.64538   3.66471   3.69898   3.74022   3.74497
 Alpha virt. eigenvalues --    3.75054   3.78258   3.80421   3.88532   3.98933
 Alpha virt. eigenvalues --    4.26248   4.31024   4.31895   4.36097   4.36506
 Alpha virt. eigenvalues --    4.37227   4.46007   4.51270   6.38271   6.39277
 Alpha virt. eigenvalues --    6.39350   6.41559   6.43272   6.45055   6.45180
 Alpha virt. eigenvalues --    6.45589   6.46358   6.47998   6.48624   6.49905
 Alpha virt. eigenvalues --    6.50155   6.51530   6.53821   6.54800   6.56466
 Alpha virt. eigenvalues --    6.57989   6.60229   6.63397   6.65456   6.71621
 Alpha virt. eigenvalues --    6.86110   6.87760   6.89741   6.90559   6.99618
 Alpha virt. eigenvalues --    9.07610   9.08442   9.08992   9.10604   9.11055
 Alpha virt. eigenvalues --    9.11620   9.11897   9.14703   9.15640   9.16495
 Alpha virt. eigenvalues --    9.18168   9.18427   9.18856   9.21357   9.21441
 Alpha virt. eigenvalues --    9.22365   9.24400   9.24581   9.25756   9.26659
 Alpha virt. eigenvalues --    9.27991   9.28218   9.33974   9.34646   9.35676
 Alpha virt. eigenvalues --    9.38559   9.41072   9.43831   9.45927   9.52352
 Alpha virt. eigenvalues --    9.63758   9.66129   9.67811   9.68554   9.69030
 Alpha virt. eigenvalues --    9.73226   9.75777   9.76764   9.76954   9.77562
 Alpha virt. eigenvalues --    9.78787   9.81934   9.87260   9.90115   9.91905
 Alpha virt. eigenvalues --   23.92300  23.97692  23.98336  24.06757  66.89528
 Alpha virt. eigenvalues --   66.91851  66.93160  66.95296  66.96671  66.97889
 Alpha virt. eigenvalues --   67.00160  67.03405  67.04383
  Beta  occ. eigenvalues --  -24.88714 -24.88704 -24.88059 -24.88046 -24.88039
  Beta  occ. eigenvalues --  -24.88026 -24.87883 -24.87646 -24.87599 -10.58453
  Beta  occ. eigenvalues --  -10.52997 -10.52758 -10.49136  -1.47456  -1.44470
  Beta  occ. eigenvalues --   -1.43130  -1.42266  -1.38431  -1.37831  -1.37635
  Beta  occ. eigenvalues --   -1.37014  -1.36435  -0.94858  -0.89728  -0.82304
  Beta  occ. eigenvalues --   -0.79015  -0.75368  -0.74812  -0.74287  -0.72522
  Beta  occ. eigenvalues --   -0.71879  -0.71562  -0.70277  -0.68331  -0.63710
  Beta  occ. eigenvalues --   -0.61201  -0.60697  -0.60539  -0.60307  -0.59535
  Beta  occ. eigenvalues --   -0.59146  -0.58131  -0.57135  -0.56287  -0.56008
  Beta  occ. eigenvalues --   -0.55322  -0.54982  -0.54275  -0.54240  -0.53814
  Beta  occ. eigenvalues --   -0.51857  -0.46466
  Beta virt. eigenvalues --   -0.04638   0.07265   0.07741   0.08455   0.09584
  Beta virt. eigenvalues --    0.11333   0.11744   0.11835   0.12899   0.13545
  Beta virt. eigenvalues --    0.13708   0.14603   0.15384   0.16493   0.16582
  Beta virt. eigenvalues --    0.18035   0.18851   0.19412   0.21482   0.23028
  Beta virt. eigenvalues --    0.25086   0.26452   0.26583   0.27062   0.29243
  Beta virt. eigenvalues --    0.29680   0.29960   0.30865   0.31004   0.31971
  Beta virt. eigenvalues --    0.32055   0.33232   0.33960   0.34615   0.35531
  Beta virt. eigenvalues --    0.36204   0.36793   0.37330   0.37811   0.39480
  Beta virt. eigenvalues --    0.40286   0.40321   0.41082   0.41731   0.41918
  Beta virt. eigenvalues --    0.42871   0.43370   0.44243   0.44421   0.44558
  Beta virt. eigenvalues --    0.45797   0.45995   0.46129   0.47270   0.47752
  Beta virt. eigenvalues --    0.47941   0.48853   0.51497   0.52365   0.53486
  Beta virt. eigenvalues --    0.55479   0.55934   0.59275   0.62698   0.63247
  Beta virt. eigenvalues --    0.63731   0.65446   0.67252   0.70668   0.70842
  Beta virt. eigenvalues --    0.72734   0.74709   0.75041   0.78366   0.79177
  Beta virt. eigenvalues --    0.79934   0.83828   0.86241   0.87791   0.92076
  Beta virt. eigenvalues --    0.97470   1.01397   1.03593   1.06684   1.07608
  Beta virt. eigenvalues --    1.10088   1.12855   1.13373   1.14367   1.16623
  Beta virt. eigenvalues --    1.26522   1.26899   1.28426   1.30382   1.30781
  Beta virt. eigenvalues --    1.33801   1.36032   1.37042   1.38200   1.39216
  Beta virt. eigenvalues --    1.40945   1.42082   1.43020   1.43837   1.44200
  Beta virt. eigenvalues --    1.46225   1.46632   1.46884   1.47088   1.47435
  Beta virt. eigenvalues --    1.48047   1.48815   1.50131   1.50379   1.51380
  Beta virt. eigenvalues --    1.52000   1.52647   1.53105   1.53673   1.54795
  Beta virt. eigenvalues --    1.57573   1.58938   1.60525   1.64574   1.66427
  Beta virt. eigenvalues --    1.68024   1.71321   1.72537   1.87456   1.89550
  Beta virt. eigenvalues --    1.97255   1.98943   2.00513   2.01614   2.03357
  Beta virt. eigenvalues --    2.04662   2.05118   2.05633   2.09237   2.09465
  Beta virt. eigenvalues --    2.11720   2.12598   2.13527   2.13670   2.16392
  Beta virt. eigenvalues --    2.16796   2.18253   2.19519   2.20926   2.21301
  Beta virt. eigenvalues --    2.25131   2.26290   2.28034   2.31977   2.35615
  Beta virt. eigenvalues --    2.36929   2.37757   2.39451   2.43073   2.46845
  Beta virt. eigenvalues --    2.47790   2.53049   2.53463   2.59942   2.61365
  Beta virt. eigenvalues --    2.61835   2.69736   2.71544   2.73756   2.75700
  Beta virt. eigenvalues --    2.77201   2.77335   2.81816   2.82337   2.85399
  Beta virt. eigenvalues --    2.85536   2.92027   2.98069   3.02790   3.05830
  Beta virt. eigenvalues --    3.06904   3.22165   3.24654   3.25422   3.35198
  Beta virt. eigenvalues --    3.40872   3.46283   3.47664   3.48280   3.48601
  Beta virt. eigenvalues --    3.50012   3.53604   3.56825   3.58610   3.59805
  Beta virt. eigenvalues --    3.60879   3.64760   3.67100   3.70714   3.74576
  Beta virt. eigenvalues --    3.75234   3.75852   3.78745   3.80565   3.88719
  Beta virt. eigenvalues --    4.00817   4.27667   4.31075   4.31959   4.36298
  Beta virt. eigenvalues --    4.36653   4.37323   4.46567   4.51973   6.39136
  Beta virt. eigenvalues --    6.39473   6.40346   6.41591   6.43346   6.45194
  Beta virt. eigenvalues --    6.45398   6.45697   6.46385   6.48120   6.48765
  Beta virt. eigenvalues --    6.49988   6.50281   6.51556   6.53820   6.54856
  Beta virt. eigenvalues --    6.56479   6.58113   6.60251   6.63430   6.65634
  Beta virt. eigenvalues --    6.71757   6.86271   6.87775   6.90054   6.90584
  Beta virt. eigenvalues --    6.99814   9.08292   9.08525   9.09158   9.10712
  Beta virt. eigenvalues --    9.11167   9.11705   9.12746   9.15193   9.16137
  Beta virt. eigenvalues --    9.17428   9.18262   9.18615   9.19030   9.21375
  Beta virt. eigenvalues --    9.21622   9.22848   9.24497   9.24615   9.25887
  Beta virt. eigenvalues --    9.26706   9.28060   9.28279   9.34000   9.35502
  Beta virt. eigenvalues --    9.35695   9.38854   9.41163   9.43937   9.46401
  Beta virt. eigenvalues --    9.52398   9.63824   9.66363   9.67904   9.68589
  Beta virt. eigenvalues --    9.69106   9.73575   9.75940   9.76773   9.76992
  Beta virt. eigenvalues --    9.77613   9.79040   9.82200   9.87300   9.90128
  Beta virt. eigenvalues --    9.91906  23.92903  23.97772  23.99539  24.07386
  Beta virt. eigenvalues --   66.89748  66.91950  66.93168  66.95309  66.96778
  Beta virt. eigenvalues --   66.97910  67.00164  67.03427  67.04401
          Condensed to atoms (all electrons):
               1          2          3          4          5          6
     1  C    8.702547   0.344568   0.348487  -1.760573  -0.059665  -0.062730
     2  F    0.344568   9.106948   0.020576  -0.159193   0.017818  -0.000208
     3  F    0.348487   0.020576   9.101434  -0.164497  -0.000157   0.017594
     4  C   -1.760573  -0.159193  -0.164497   6.602733   0.179773   0.179599
     5  F   -0.059665   0.017818  -0.000157   0.179773   9.072588   0.018911
     6  F   -0.062730  -0.000208   0.017594   0.179599   0.018911   9.076439
     7  C   -2.559280  -0.094805  -0.085305   0.917390   0.001399  -0.000830
     8  C    0.888222   0.004948  -0.000259  -0.522792  -0.001238   0.002707
     9  F   -0.105353   0.016689  -0.001230   0.021574   0.004876  -0.002484
    10  F   -0.092902  -0.001058   0.017293   0.012246  -0.002831   0.004174
    11  F    0.020995   0.002336  -0.004099  -0.002050  -0.000350   0.000051
    12  F    0.016256  -0.003086   0.001950   0.004937   0.000045  -0.000299
    13  F    0.033419   0.000050  -0.000136   0.003364   0.000031   0.000033
               7          8          9         10         11         12
     1  C   -2.559280   0.888222  -0.105353  -0.092902   0.020995   0.016256
     2  F   -0.094805   0.004948   0.016689  -0.001058   0.002336  -0.003086
     3  F   -0.085305  -0.000259  -0.001230   0.017293  -0.004099   0.001950
     4  C    0.917390  -0.522792   0.021574   0.012246  -0.002050   0.004937
     5  F    0.001399  -0.001238   0.004876  -0.002831  -0.000350   0.000045
     6  F   -0.000830   0.002707  -0.002484   0.004174   0.000051  -0.000299
     7  C    8.726811  -1.519950   0.333076   0.334366  -0.111537  -0.105162
     8  C   -1.519950   5.575784  -0.159219  -0.160010   0.284226   0.270223
     9  F    0.333076  -0.159219   9.108473   0.017141   0.019482  -0.000800
    10  F    0.334366  -0.160010   0.017141   9.103657  -0.000920   0.018737
    11  F   -0.111537   0.284226   0.019482  -0.000920   9.061081   0.017840
    12  F   -0.105162   0.270223  -0.000800   0.018737   0.017840   9.067083
    13  F   -0.142643   0.249393   0.020462   0.020581  -0.005880  -0.004105
              13
     1  C    0.033419
     2  F    0.000050
     3  F   -0.000136
     4  C    0.003364
     5  F    0.000031
     6  F    0.000033
     7  C   -0.142643
     8  C    0.249393
     9  F    0.020462
    10  F    0.020581
    11  F   -0.005880
    12  F   -0.004105
    13  F    9.114016
          Atomic-Atomic Spin Densities.
               1          2          3          4          5          6
     1  C    0.133122   0.007012   0.007710  -0.110890   0.005065   0.005023
     2  F    0.007012   0.004359   0.003014  -0.007245  -0.000401   0.000246
     3  F    0.007710   0.003014   0.005418  -0.009008   0.000321  -0.000310
     4  C   -0.110890  -0.007245  -0.009008   1.192359  -0.122292  -0.121711
     5  F    0.005065  -0.000401   0.000321  -0.122292   0.154184   0.011433
     6  F    0.005023   0.000246  -0.000310  -0.121711   0.011433   0.153492
     7  C   -0.039102  -0.004686  -0.005574   0.033449   0.000405   0.000450
     8  C   -0.002281  -0.001037  -0.000742   0.001980   0.000070   0.000071
     9  F   -0.000432  -0.000076  -0.000265  -0.000773  -0.000328   0.000225
    10  F    0.000213  -0.000217   0.000003  -0.000688   0.000163  -0.000373
    11  F   -0.000550  -0.000277  -0.000089   0.000186   0.000031   0.000008
    12  F   -0.000393  -0.000082  -0.000291   0.000171   0.000006   0.000025
    13  F   -0.000402  -0.000038  -0.000040   0.000082   0.000015   0.000016
               7          8          9         10         11         12
     1  C   -0.039102  -0.002281  -0.000432   0.000213  -0.000550  -0.000393
     2  F   -0.004686  -0.001037  -0.000076  -0.000217  -0.000277  -0.000082
     3  F   -0.005574  -0.000742  -0.000265   0.000003  -0.000089  -0.000291
     4  C    0.033449   0.001980  -0.000773  -0.000688   0.000186   0.000171
     5  F    0.000405   0.000070  -0.000328   0.000163   0.000031   0.000006
     6  F    0.000450   0.000071   0.000225  -0.000373   0.000008   0.000025
     7  C    0.048108  -0.002926   0.000433   0.000521   0.000568   0.000711
     8  C   -0.002926   0.017109  -0.000174  -0.000539   0.000025  -0.000056
     9  F    0.000433  -0.000174  -0.000170   0.000521   0.000172   0.000019
    10  F    0.000521  -0.000539   0.000521  -0.000283   0.000022   0.000117
    11  F    0.000568   0.000025   0.000172   0.000022   0.000016  -0.000035
    12  F    0.000711  -0.000056   0.000019   0.000117  -0.000035  -0.000099
    13  F   -0.000686  -0.002990   0.000390   0.000391   0.000213   0.000196
              13
     1  C   -0.000402
     2  F   -0.000038
     3  F   -0.000040
     4  C    0.000082
     5  F    0.000015
     6  F    0.000016
     7  C   -0.000686
     8  C   -0.002990
     9  F    0.000390
    10  F    0.000391
    11  F    0.000213
    12  F    0.000196
    13  F    0.005003
 Mulliken charges and spin densities:
               1          2
     1  C    0.286009   0.004092
     2  F   -0.255583   0.000571
     3  F   -0.251652   0.000149
     4  C    0.687489   0.855619
     5  F   -0.231198   0.048671
     6  F   -0.232957   0.048593
     7  C    0.306470   0.031670
     8  C    1.087963   0.008510
     9  F   -0.272687  -0.000456
    10  F   -0.270474  -0.000149
    11  F   -0.281175   0.000288
    12  F   -0.283620   0.000291
    13  F   -0.288585   0.002150
 Sum of Mulliken charges =  -0.00000   1.00000
 Mulliken charges and spin densities with hydrogens summed into heavy atoms:
               1          2
     1  C    0.286009   0.004092
     2  F   -0.255583   0.000571
     3  F   -0.251652   0.000149
     4  C    0.687489   0.855619
     5  F   -0.231198   0.048671
     6  F   -0.232957   0.048593
     7  C    0.306470   0.031670
     8  C    1.087963   0.008510
     9  F   -0.272687  -0.000456
    10  F   -0.270474  -0.000149
    11  F   -0.281175   0.000288
    12  F   -0.283620   0.000291
    13  F   -0.288585   0.002150
 APT charges:
               1
     1  C    0.997880
     2  F   -0.464150
     3  F   -0.464496
     4  C    0.846274
     5  F   -0.436203
     6  F   -0.435749
     7  C    0.882607
     8  C    1.565430
     9  F   -0.467475
    10  F   -0.466788
    11  F   -0.503537
    12  F   -0.503638
    13  F   -0.550156
 Sum of APT charges =  -0.00000
 APT charges with hydrogens summed into heavy atoms:
               1
     1  C    0.997880
     2  F   -0.464150
     3  F   -0.464496
     4  C    0.846274
     5  F   -0.436203
     6  F   -0.435749
     7  C    0.882607
     8  C    1.565430
     9  F   -0.467475
    10  F   -0.466788
    11  F   -0.503537
    12  F   -0.503638
    13  F   -0.550156
 Electronic spatial extent (au):  <R**2>=           1908.8969
 Charge=             -0.0000 electrons
 Dipole moment (field-independent basis, Debye):
    X=             -0.5000    Y=              0.1090    Z=             -0.0007  Tot=              0.5117
 Quadrupole moment (field-independent basis, Debye-Ang):
   XX=            -67.4893   YY=            -69.0736   ZZ=            -69.7453
   XY=             -0.5301   XZ=             -0.0355   YZ=              0.0418
 Traceless Quadrupole moment (field-independent basis, Debye-Ang):
   XX=              1.2801   YY=             -0.3042   ZZ=             -0.9759
   XY=             -0.5301   XZ=             -0.0355   YZ=              0.0418
 Octapole moment (field-independent basis, Debye-Ang**2):
  XXX=              1.4973  YYY=             -3.2792  ZZZ=             -0.2909  XYY=              0.8953
  XXY=              2.3584  XXZ=              0.1225  XZZ=              2.9852  YZZ=             -1.4933
  YYZ=             -0.1227  XYZ=             -0.1127
 Hexadecapole moment (field-independent basis, Debye-Ang**3):
 XXXX=          -1199.3412 YYYY=           -354.7089 ZZZZ=           -322.9327 XXXY=              3.8912
 XXXZ=              0.0946 YYYX=              9.9179 YYYZ=             -0.1553 ZZZX=              0.5209
 ZZZY=             -0.7009 XXYY=           -260.9426 XXZZ=           -261.3229 YYZZ=           -114.8112
 XXYZ=              0.2245 YYXZ=              0.3363 ZZXY=              1.8447
 N-N= 1.021301321849D+03 E-N=-4.539921882008D+03  KE= 1.048335121377D+03
  Exact polarizability:  58.988   0.542  50.275   0.087  -0.214  53.434
 Approx polarizability:  54.822   0.826  56.016   0.119  -0.482  63.970
                          Isotropic Fermi Contact Couplings
        Atom                 a.u.       MegaHertz       Gauss      10(-4) cm-1
     1  C(13)             -0.00412      -4.62996      -1.65209      -1.54439
     2  F(19)              0.00744      31.29765      11.16778      10.43977
     3  F(19)              0.00831      34.97310      12.47927      11.66577
     4  C(13)              0.33072     371.79319     132.66506     124.01686
     5  F(19)              0.05043     212.20182      75.71889      70.78291
     6  F(19)              0.05024     211.36357      75.41978      70.50330
     7  C(13)              0.01987      22.33236       7.96874       7.44927
     8  C(13)              0.01035      11.63754       4.15256       3.88187
     9  F(19)             -0.00057      -2.37875      -0.84880      -0.79346
    10  F(19)             -0.00048      -2.02595      -0.72291      -0.67578
    11  F(19)             -0.00027      -1.13593      -0.40533      -0.37891
    12  F(19)             -0.00031      -1.29459      -0.46194      -0.43183
    13  F(19)              0.00242      10.18366       3.63378       3.39690
 --------------------------------------------------------
       Center         ----  Spin Dipole Couplings  ----
                      3XX-RR        3YY-RR        3ZZ-RR
 --------------------------------------------------------
     1   Atom        0.056165     -0.015203     -0.040962
     2   Atom       -0.015356     -0.015342      0.030698
     3   Atom       -0.015329     -0.016746      0.032075
     4   Atom        0.007385      0.521862     -0.529247
     5   Atom        0.004411      0.413014     -0.417424
     6   Atom        0.005105      0.433186     -0.438291
     7   Atom        0.012695      0.015184     -0.027879
     8   Atom        0.013638     -0.004782     -0.008857
     9   Atom        0.004021     -0.002842     -0.001179
    10   Atom        0.003942     -0.002679     -0.001263
    11   Atom        0.001448      0.000775     -0.002223
    12   Atom        0.001463      0.000653     -0.002116
    13   Atom        0.026874     -0.013529     -0.013345
 --------------------------------------------------------
                        XY            XZ            YZ
 --------------------------------------------------------
     1   Atom        0.064276      0.005470      0.002599
     2   Atom       -0.001309     -0.008341     -0.002713
     3   Atom       -0.002279      0.009780     -0.001493
     4   Atom       -0.752171     -0.055760      0.078315
     5   Atom       -0.584464     -0.132231      0.139364
     6   Atom       -0.596500      0.045125     -0.012367
     7   Atom       -0.040995     -0.002041      0.002344
     8   Atom        0.008905      0.000088      0.000063
     9   Atom       -0.007282      0.003865     -0.006558
    10   Atom       -0.007939     -0.004863      0.006899
    11   Atom        0.001102     -0.000042      0.001026
    12   Atom        0.000595      0.000061     -0.000998
    13   Atom       -0.005085     -0.000012     -0.000001
 --------------------------------------------------------


 ---------------------------------------------------------------------------------
              Anisotropic Spin Dipole Couplings in Principal Axis System
 ---------------------------------------------------------------------------------

       Atom             a.u.   MegaHertz   Gauss  10(-4) cm-1        Axes

              Baa    -0.0531    -7.120    -2.541    -2.375 -0.5083  0.8600  0.0451
     1 C(13)  Bbb    -0.0412    -5.530    -1.973    -1.844 -0.0155 -0.0615  0.9980
              Bcc     0.0943    12.650     4.514     4.220  0.8610  0.5066  0.0446
 
              Baa    -0.0180    -9.053    -3.230    -3.020  0.8073  0.5652  0.1697
     2 F(19)  Bbb    -0.0143    -7.163    -2.556    -2.389 -0.5649  0.8234 -0.0551
              Bcc     0.0323    16.216     5.786     5.409 -0.1709 -0.0513  0.9840
 
              Baa    -0.0190    -9.542    -3.405    -3.183  0.7370  0.6648 -0.1217
     3 F(19)  Bbb    -0.0151    -7.577    -2.704    -2.527 -0.6469  0.7461  0.1578
              Bcc     0.0341    17.118     6.108     5.710  0.1957 -0.0376  0.9799
 
              Baa    -0.5351   -71.799   -25.620   -23.949  0.0036 -0.0713  0.9974
     4 C(13)  Bbb    -0.5303   -71.163   -25.393   -23.737  0.8143  0.5792  0.0385
              Bcc     1.0654   142.961    51.012    47.687 -0.5805  0.8120  0.0602
 
              Baa    -0.4603  -231.175   -82.489   -77.112  0.4613  0.1697  0.8709
     5 F(19)  Bbb    -0.3960  -198.863   -70.959   -66.334  0.6757  0.5689 -0.4688
              Bcc     0.8563   430.038   153.448   143.445 -0.5750  0.8047  0.1477
 
              Baa    -0.4592  -230.614   -82.289   -76.925 -0.4673 -0.3009  0.8313
     6 F(19)  Bbb    -0.3947  -198.233   -70.734   -66.123  0.6709  0.4917  0.5551
              Bcc     0.8539   428.847   153.023   143.048 -0.5757  0.8171 -0.0279
 
              Baa    -0.0280    -3.761    -1.342    -1.254 -0.0988 -0.1471  0.9842
     7 C(13)  Bbb    -0.0270    -3.629    -1.295    -1.211  0.7114  0.6810  0.1733
              Bcc     0.0551     7.390     2.637     2.465 -0.6958  0.7173  0.0374
 
              Baa    -0.0089    -1.189    -0.424    -0.397  0.0162 -0.0507  0.9986
     8 C(13)  Bbb    -0.0084    -1.125    -0.401    -0.375 -0.3746  0.9257  0.0531
              Bcc     0.0172     2.313     0.825     0.772  0.9271  0.3749  0.0040
 
              Baa    -0.0095    -4.785    -1.707    -1.596  0.2936  0.8130  0.5028
     9 F(19)  Bbb    -0.0027    -1.356    -0.484    -0.452 -0.6513 -0.2149  0.7278
              Bcc     0.0122     6.141     2.191     2.049  0.6998 -0.5411  0.4664
 
              Baa    -0.0097    -4.895    -1.747    -1.633  0.2986  0.8170 -0.4933
    10 F(19)  Bbb    -0.0038    -1.907    -0.681    -0.636  0.6587  0.1975  0.7260
              Bcc     0.0135     6.802     2.427     2.269  0.6906 -0.5417 -0.4792
 
              Baa    -0.0026    -1.294    -0.462    -0.432  0.0976 -0.3205  0.9422
    11 F(19)  Bbb     0.0002     0.118     0.042     0.039 -0.6340  0.7097  0.3071
              Bcc     0.0023     1.176     0.420     0.392  0.7671  0.6274  0.1339
 
              Baa    -0.0025    -1.232    -0.440    -0.411 -0.0628  0.3161  0.9467
    12 F(19)  Bbb     0.0006     0.314     0.112     0.105 -0.5381  0.7881 -0.2988
              Bcc     0.0018     0.918     0.328     0.306  0.8405  0.5281 -0.1206
 
              Baa    -0.0142    -7.111    -2.537    -2.372  0.1230  0.9924  0.0031
    13 F(19)  Bbb    -0.0133    -6.702    -2.392    -2.236 -0.0001 -0.0031  1.0000
              Bcc     0.0275    13.813     4.929     4.608  0.9924 -0.1230 -0.0003
 

 ---------------------------------------------------------------------------------

 Calling FoFJK, ICntrl=    100127 FMM=F ISym2X=0 I1Cent= 0 IOpClX= 1 NMat=1 NMatS=1 NMatT=0.
 Full mass-weighted force constant matrix:
 Low frequencies ---   -7.7682   -4.9852    0.0009    0.0010    0.0012    4.0061
 Low frequencies ---    4.5030   62.3640   80.0853
 Diagonal vibrational polarizability:
       13.4931893      11.6663373      30.3414031
 Harmonic frequencies (cm**-1), IR intensities (KM/Mole), Raman scattering
 activities (A**4/AMU), depolarization ratios for plane and unpolarized
 incident light, reduced masses (AMU), force constants (mDyne/A),
 and normal coordinates:
                      1                      2                      3
                      A                      A                      A
 Frequencies --      3.4605                62.3632                80.0852
 Red. masses --     18.7084                18.8477                18.6268
 Frc consts  --      0.0001                 0.0432                 0.0704
 IR Inten    --      0.0061                 0.0008                 0.0312
  Atom  AN      X      Y      Z        X      Y      Z        X      Y      Z
     1   6     0.00  -0.01   0.14     0.00  -0.01   0.04    -0.00  -0.00   0.07
     2   9     0.10   0.12   0.26     0.03   0.14   0.16     0.12   0.11   0.18
     3   9    -0.09  -0.15   0.24    -0.01  -0.17   0.14    -0.14  -0.13   0.16
     4   6     0.00   0.01  -0.05    -0.00   0.01   0.00     0.00   0.01  -0.18
     5   9     0.04   0.31  -0.21     0.11  -0.32   0.12     0.34  -0.37  -0.12
     6   9    -0.03  -0.28  -0.26    -0.13   0.33   0.17    -0.33   0.37  -0.07
     7   6    -0.00  -0.01   0.10     0.00  -0.00  -0.14     0.00  -0.00   0.08
     8   6    -0.00   0.00  -0.09    -0.00   0.00  -0.01    -0.00   0.00  -0.08
     9   9    -0.11  -0.10   0.18     0.06   0.21  -0.28    -0.06  -0.11   0.17
    10   9     0.11   0.07   0.18    -0.06  -0.20  -0.30     0.07   0.10   0.17
    11   9    -0.06  -0.29  -0.31     0.14  -0.25  -0.15    -0.16   0.14  -0.03
    12   9     0.04   0.31  -0.30    -0.15   0.27  -0.14     0.15  -0.14  -0.03
    13   9     0.01   0.01   0.16     0.01   0.01   0.36    -0.00   0.01  -0.35
                      4                      5                      6
                      A                      A                      A
 Frequencies --    119.6939               173.9713               203.3236
 Red. masses --     18.1699                18.0959                18.2999
 Frc consts  --      0.1534                 0.3227                 0.4457
 IR Inten    --      0.3893                 0.0648                 3.5725
  Atom  AN      X      Y      Z        X      Y      Z        X      Y      Z
     1   6     0.05  -0.21  -0.02    -0.13  -0.08  -0.00    -0.00  -0.01   0.20
     2   9     0.15  -0.25  -0.04    -0.25  -0.05  -0.01    -0.12  -0.34  -0.08
     3   9     0.15  -0.23  -0.01    -0.25  -0.07   0.02     0.12   0.34  -0.04
     4   6    -0.05   0.13   0.00    -0.15  -0.09  -0.01    -0.00  -0.01   0.14
     5   9    -0.28   0.31   0.01    -0.36   0.04   0.01     0.35   0.11  -0.04
     6   9    -0.30   0.29   0.02    -0.36   0.04  -0.00    -0.35  -0.11  -0.06
     7   6     0.07  -0.21  -0.00     0.12   0.13   0.01     0.00  -0.01   0.17
     8   6    -0.00   0.06   0.00     0.20   0.04   0.00     0.00  -0.00   0.09
     9   9     0.15  -0.25   0.01     0.22   0.13  -0.01     0.02   0.31  -0.04
    10   9     0.15  -0.22  -0.00     0.21   0.13   0.02    -0.03  -0.31  -0.06
    11   9    -0.16   0.14   0.02     0.39  -0.04  -0.00    -0.26  -0.08  -0.03
    12   9    -0.17   0.11   0.01     0.41  -0.02  -0.02     0.26   0.08  -0.03
    13   9     0.25   0.26  -0.01    -0.03  -0.16   0.00     0.01   0.00   0.00
                      7                      8                      9
                      A                      A                      A
 Frequencies --    230.8504               233.9106               287.0128
 Red. masses --     18.6544                18.7215                18.2577
 Frc consts  --      0.5857                 0.6035                 0.8861
 IR Inten    --      0.0836                 0.0001                 2.3674
  Atom  AN      X      Y      Z        X      Y      Z        X      Y      Z
     1   6    -0.00  -0.01   0.11    -0.00   0.00  -0.03     0.00   0.09   0.00
     2   9    -0.07  -0.14  -0.02    -0.51   0.18   0.01    -0.21   0.18   0.04
     3   9     0.06   0.14  -0.00     0.52  -0.17  -0.00    -0.19   0.17  -0.02
     4   6    -0.00  -0.01   0.08    -0.00  -0.01   0.13     0.02  -0.04  -0.00
     5   9     0.19   0.03  -0.00     0.25   0.07  -0.01    -0.05   0.00   0.00
     6   9    -0.20  -0.04  -0.01    -0.24  -0.07  -0.02    -0.06   0.00  -0.01
     7   6    -0.00   0.01  -0.09    -0.00   0.01  -0.15     0.07  -0.05  -0.00
     8   6     0.00   0.01  -0.15    -0.00   0.00  -0.01     0.22  -0.21  -0.01
     9   9    -0.48  -0.00   0.01     0.21  -0.26   0.00    -0.21  -0.01   0.01
    10   9     0.48   0.02  -0.00    -0.21   0.26   0.02    -0.21  -0.01  -0.01
    11   9     0.43   0.08   0.02     0.06   0.01   0.00    -0.00  -0.19  -0.05
    12   9    -0.41  -0.08   0.03    -0.06  -0.01  -0.00    -0.01  -0.19   0.05
    13   9    -0.01  -0.01   0.02    -0.01  -0.01   0.05     0.74   0.17   0.00
                     10                     11                     12
                      A                      A                      A
 Frequencies --    327.6701               347.8264               364.4179
 Red. masses --     18.6403                18.3721                18.6655
 Frc consts  --      1.1792                 1.3096                 1.4605
 IR Inten    --      0.1231                 0.1615                 0.0965
  Atom  AN      X      Y      Z        X      Y      Z        X      Y      Z
     1   6    -0.07   0.08   0.00     0.00   0.01  -0.13     0.09   0.08   0.01
     2   9    -0.30   0.20   0.04    -0.26   0.17  -0.06     0.31   0.20   0.15
     3   9    -0.30   0.20  -0.03     0.28  -0.17  -0.08     0.30   0.23  -0.12
     4   6     0.03   0.11   0.01    -0.00   0.01  -0.22    -0.10  -0.09  -0.00
     5   9     0.15   0.16  -0.05    -0.16  -0.13  -0.13    -0.30  -0.24   0.11
     6   9     0.15   0.15   0.07     0.14   0.13  -0.12    -0.31  -0.23  -0.14
     7   6     0.09  -0.05  -0.00     0.00   0.00   0.01     0.07   0.06   0.00
     8   6    -0.08  -0.10  -0.00    -0.00  -0.01   0.15    -0.05  -0.07  -0.01
     9   9     0.42  -0.14  -0.00    -0.37   0.10   0.01     0.20   0.19  -0.09
    10   9     0.43  -0.15  -0.03     0.38  -0.09   0.00     0.18   0.18   0.10
    11   9    -0.22  -0.16  -0.07    -0.31  -0.00   0.10    -0.20  -0.15  -0.08
    12   9    -0.23  -0.16   0.06     0.29  -0.01   0.10    -0.22  -0.15   0.07
    13   9    -0.09  -0.11   0.00    -0.00  -0.01   0.28     0.02  -0.02  -0.01
                     13                     14                     15
                      A                      A                      A
 Frequencies --    373.1829               454.7500               514.3497
 Red. masses --     18.4790                17.8347                14.8606
 Frc consts  --      1.5163                 2.1730                 2.3163
 IR Inten    --      0.2865                 0.6964                25.0548
  Atom  AN      X      Y      Z        X      Y      Z        X      Y      Z
     1   6     0.06  -0.12  -0.01    -0.00   0.00  -0.11     0.26  -0.14  -0.02
     2   9    -0.06  -0.32  -0.19     0.25   0.05  -0.06    -0.05   0.10   0.12
     3   9    -0.07  -0.35   0.15    -0.24  -0.04  -0.08    -0.06   0.09  -0.14
     4   6     0.16  -0.06   0.00    -0.00  -0.02   0.24     0.47  -0.45  -0.02
     5   9     0.09   0.12  -0.05     0.20   0.13   0.16    -0.08   0.10  -0.09
     6   9     0.09   0.11   0.07    -0.20  -0.15   0.15    -0.10   0.07   0.12
     7   6     0.06   0.13   0.01    -0.00   0.01  -0.31     0.20  -0.07   0.00
     8   6    -0.02  -0.08  -0.00    -0.00   0.00  -0.04     0.08  -0.15  -0.00
     9   9     0.04   0.43  -0.17    -0.11  -0.26  -0.21    -0.07   0.04  -0.05
    10   9     0.03   0.42   0.21     0.10   0.27  -0.19    -0.06   0.03   0.06
    11   9    -0.19  -0.16  -0.09    -0.24   0.15   0.00    -0.11   0.19   0.23
    12   9    -0.19  -0.16   0.08     0.24  -0.16   0.01    -0.11   0.20  -0.22
    13   9     0.09  -0.00  -0.01     0.00   0.00   0.36    -0.00  -0.29  -0.01
                     16                     17                     18
                      A                      A                      A
 Frequencies --    552.4668               554.0255               570.5775
 Red. masses --     17.1228                16.7787                16.5925
 Frc consts  --      3.0792                 3.0344                 3.1827
 IR Inten    --      0.6985                 0.7980                25.0762
  Atom  AN      X      Y      Z        X      Y      Z        X      Y      Z
     1   6     0.06  -0.05  -0.23    -0.06   0.12  -0.18     0.27   0.21   0.03
     2   9     0.09   0.25  -0.11     0.04   0.18  -0.25    -0.06  -0.01  -0.33
     3   9    -0.05  -0.20  -0.26    -0.09  -0.21  -0.06    -0.06  -0.02   0.35
     4   6     0.19  -0.29   0.11    -0.23   0.36   0.13     0.38   0.02  -0.00
     5   9     0.09   0.14  -0.01     0.14  -0.01   0.27    -0.11  -0.07   0.29
     6   9    -0.16  -0.06   0.23    -0.07  -0.13  -0.10    -0.09  -0.02  -0.30
     7   6     0.03   0.10   0.06    -0.03  -0.09   0.04     0.19   0.19   0.01
     8   6    -0.03   0.16   0.18     0.04  -0.19   0.14     0.08   0.01  -0.02
     9   9    -0.10   0.05   0.19    -0.01   0.09  -0.08    -0.00  -0.06   0.30
    10   9     0.02  -0.10  -0.09     0.10  -0.05   0.15    -0.03  -0.04  -0.30
    11   9     0.06  -0.33  -0.11    -0.03  -0.06   0.35    -0.09   0.04  -0.08
    12   9     0.02   0.11   0.34    -0.06   0.30  -0.14    -0.09  -0.02   0.05
    13   9    -0.14   0.19  -0.25     0.15  -0.22  -0.21    -0.06  -0.08   0.03
                     19                     20                     21
                      A                      A                      A
 Frequencies --    614.3683               648.8240               707.8429
 Red. masses --     17.9141                16.7906                17.0890
 Frc consts  --      3.9839                 4.1646                 5.0447
 IR Inten    --      0.3816                10.3755                 3.3398
  Atom  AN      X      Y      Z        X      Y      Z        X      Y      Z
     1   6    -0.01   0.01  -0.17     0.20  -0.20  -0.01     0.04   0.29   0.02
     2   9     0.03   0.21  -0.15    -0.14  -0.00   0.17     0.04   0.17  -0.38
     3   9    -0.02  -0.20  -0.19    -0.13   0.02  -0.18     0.03   0.12   0.40
     4   6    -0.02   0.01   0.06     0.36   0.15   0.01     0.16  -0.26  -0.02
     5   9     0.07   0.05   0.06     0.02   0.00   0.39    -0.08  -0.01  -0.14
     6   9    -0.06  -0.06   0.06     0.02   0.06  -0.38    -0.08  -0.03   0.14
     7   6    -0.01  -0.02   0.24     0.02  -0.25  -0.01    -0.14  -0.19  -0.01
     8   6    -0.01   0.01  -0.25    -0.06   0.11   0.01    -0.19  -0.02   0.00
     9   9     0.09   0.27   0.23    -0.06  -0.03  -0.30     0.03  -0.11  -0.32
    10   9    -0.08  -0.29   0.24    -0.05  -0.05   0.29     0.03  -0.13   0.30
    11   9     0.08   0.32  -0.23     0.09  -0.03  -0.11     0.09  -0.07   0.09
    12   9    -0.07  -0.32  -0.23     0.09  -0.02   0.11     0.09  -0.06  -0.09
    13   9    -0.00   0.01   0.28    -0.16   0.19  -0.00    -0.08   0.23   0.00
                     22                     23                     24
                      A                      A                      A
 Frequencies --    764.9574               936.1337              1123.7352
 Red. masses --     17.1946                13.3863                13.3077
 Frc consts  --      5.9281                 6.9117                 9.9011
 IR Inten    --     21.4875               138.9508                16.3763
  Atom  AN      X      Y      Z        X      Y      Z        X      Y      Z
     1   6     0.05   0.04   0.00     0.53  -0.16  -0.01     0.50  -0.00   0.01
     2   9     0.00   0.05  -0.11    -0.07   0.03  -0.03    -0.06  -0.01   0.02
     3   9    -0.00   0.04   0.11    -0.07   0.03   0.04    -0.06  -0.01  -0.02
     4   6    -0.18   0.07   0.00    -0.29   0.31   0.02     0.11   0.24   0.02
     5   9    -0.01  -0.03  -0.10    -0.02  -0.07  -0.16    -0.05  -0.07  -0.12
     6   9    -0.01  -0.04   0.09    -0.02  -0.09   0.14    -0.06  -0.09   0.11
     7   6     0.17  -0.15  -0.01     0.53  -0.15  -0.01    -0.48  -0.25  -0.01
     8   6     0.38   0.14  -0.00     0.11  -0.01  -0.00    -0.44  -0.12  -0.00
     9   9    -0.08  -0.07  -0.20    -0.07   0.03   0.02     0.07   0.08   0.11
    10   9    -0.08  -0.08   0.19    -0.07   0.03  -0.02     0.07   0.09  -0.10
    11   9    -0.06   0.22  -0.42    -0.02  -0.08   0.11     0.08   0.09  -0.12
    12   9    -0.06   0.21   0.43    -0.02  -0.08  -0.10     0.08   0.09   0.12
    13   9     0.03  -0.36  -0.01    -0.19   0.20   0.00     0.14  -0.10  -0.00
                     25                     26                     27
                      A                      A                      A
 Frequencies --   1164.7537              1198.1814              1206.1011
 Red. masses --     13.7188                13.1093                13.0824
 Frc consts  --     10.9657                11.0885                11.2126
 IR Inten    --    173.0800                19.8599                63.3327
  Atom  AN      X      Y      Z        X      Y      Z        X      Y      Z
     1   6     0.19   0.66   0.05    -0.01  -0.05   0.83     0.00  -0.01  -0.02
     2   9    -0.05  -0.20   0.17     0.03   0.14  -0.21    -0.02   0.03  -0.02
     3   9    -0.04  -0.18  -0.20    -0.03  -0.12  -0.22     0.02  -0.03  -0.02
     4   6     0.14   0.16   0.01     0.00   0.00  -0.03    -0.01   0.01  -0.17
     5   9    -0.05  -0.06  -0.10    -0.03  -0.01  -0.02     0.02   0.02   0.06
     6   9    -0.06  -0.07   0.09     0.03   0.01  -0.01    -0.02  -0.03   0.05
     7   6    -0.02   0.42   0.02     0.00   0.00  -0.06     0.01  -0.03   0.89
     8   6     0.14  -0.19  -0.01    -0.00   0.03  -0.38    -0.00   0.01  -0.13
     9   9    -0.01  -0.12  -0.13     0.02  -0.01   0.00    -0.03  -0.13  -0.23
    10   9    -0.00  -0.13   0.11    -0.02   0.01   0.00     0.03   0.15  -0.22
    11   9    -0.01   0.01   0.00    -0.03  -0.06   0.11     0.02   0.01   0.01
    12   9    -0.01   0.01   0.00     0.03   0.05   0.10    -0.02  -0.01   0.01
    13   9    -0.05   0.07   0.00     0.00  -0.01   0.02     0.00  -0.00   0.01
                     28                     29                     30
                      A                      A                      A
 Frequencies --   1226.9779              1256.3050              1281.0438
 Red. masses --     13.2300                13.1132                12.4789
 Frc consts  --     11.7350                12.1941                12.0657
 IR Inten    --    309.4659               389.9702                59.0149
  Atom  AN      X      Y      Z        X      Y      Z        X      Y      Z
     1   6     0.21  -0.12  -0.02    -0.00  -0.02   0.38     0.26  -0.48  -0.02
     2   9    -0.02   0.01  -0.00     0.01   0.06  -0.09     0.00   0.09  -0.07
     3   9    -0.02   0.01   0.01    -0.01  -0.05  -0.10    -0.00   0.08   0.08
     4   6     0.03   0.11   0.01     0.00   0.01  -0.10    -0.16  -0.05   0.01
     5   9    -0.02  -0.03  -0.04    -0.00   0.01   0.02     0.02   0.02   0.03
     6   9    -0.02  -0.03   0.04     0.00  -0.01   0.02     0.03   0.03  -0.03
     7   6    -0.12   0.33   0.00    -0.00  -0.01   0.03    -0.36   0.55   0.02
     8   6    -0.09   0.79   0.04     0.01  -0.04   0.83     0.22  -0.35  -0.02
     9   9    -0.02  -0.09  -0.09    -0.02  -0.04  -0.05     0.02  -0.08  -0.07
    10   9    -0.02  -0.10   0.08     0.02   0.05  -0.05     0.02  -0.09   0.07
    11   9    -0.04  -0.13   0.11     0.05   0.12  -0.21    -0.01   0.04  -0.02
    12   9    -0.04  -0.13  -0.13    -0.05  -0.11  -0.21    -0.01   0.04   0.03
    13   9     0.16  -0.21  -0.01    -0.01   0.01  -0.05    -0.04   0.09   0.00
                     31                     32                     33
                      A                      A                      A
 Frequencies --   1310.4536              1330.1199              1406.1131
 Red. masses --     13.3449                12.7001                12.6424
 Frc consts  --     13.5023                13.2385                14.7272
 IR Inten    --    375.5393               150.1049                 3.6952
  Atom  AN      X      Y      Z        X      Y      Z        X      Y      Z
     1   6     0.00   0.01   0.01    -0.16  -0.08  -0.01    -0.39  -0.30  -0.02
     2   9     0.02   0.03  -0.03     0.00   0.02  -0.01     0.03   0.05  -0.04
     3   9    -0.02  -0.03  -0.04     0.00   0.01   0.01     0.03   0.04   0.04
     4   6    -0.02  -0.08   0.87     0.36   0.30   0.06     0.42   0.45   0.04
     5   9    -0.08  -0.12  -0.26    -0.06  -0.08  -0.12    -0.06  -0.10  -0.13
     6   9     0.08   0.16  -0.25    -0.05  -0.08   0.08    -0.06  -0.12   0.12
     7   6     0.02  -0.01   0.18    -0.39  -0.26   0.01     0.30   0.26   0.01
     8   6    -0.03  -0.00   0.05     0.65   0.11  -0.01    -0.31  -0.17  -0.00
     9   9    -0.01  -0.03  -0.05     0.03   0.06   0.05    -0.03  -0.04  -0.04
    10   9     0.01   0.03  -0.04     0.03   0.06  -0.06    -0.03  -0.04   0.04
    11   9     0.01   0.01  -0.02    -0.07  -0.06   0.07     0.03   0.04  -0.04
    12   9    -0.00  -0.01  -0.02    -0.07  -0.05  -0.07     0.03   0.04   0.04
    13   9     0.00  -0.00  -0.00    -0.11   0.08   0.00     0.05  -0.02  -0.00

 -------------------
 - Thermochemistry -
 -------------------
 Temperature   298.150 Kelvin.  Pressure   1.00000 Atm.
 Atom     1 has atomic number  6 and mass  12.00000
 Atom     2 has atomic number  9 and mass  18.99840
 Atom     3 has atomic number  9 and mass  18.99840
 Atom     4 has atomic number  6 and mass  12.00000
 Atom     5 has atomic number  9 and mass  18.99840
 Atom     6 has atomic number  9 and mass  18.99840
 Atom     7 has atomic number  6 and mass  12.00000
 Atom     8 has atomic number  6 and mass  12.00000
 Atom     9 has atomic number  9 and mass  18.99840
 Atom    10 has atomic number  9 and mass  18.99840
 Atom    11 has atomic number  9 and mass  18.99840
 Atom    12 has atomic number  9 and mass  18.99840
 Atom    13 has atomic number  9 and mass  18.99840
 Molecular mass:   218.98563 amu.
 Principal axes and moments of inertia in atomic units:
                           1         2         3
     Eigenvalues --  1324.718353002.550853039.53933
           X            1.00000  -0.00138  -0.00009
           Y            0.00138   1.00000   0.00225
           Z            0.00009  -0.00225   1.00000
 This molecule is an asymmetric top.
 Rotational symmetry number  1.
 Warning -- assumption of classical behavior for rotation
           may cause significant error
 Rotational temperatures (Kelvin)      0.06538     0.02885     0.02850
 Rotational constants (GHZ):           1.36236     0.60107     0.59375
 Zero-point vibrational energy     129375.2 (Joules/Mol)
                                   30.92142 (Kcal/Mol)
 Warning -- explicit consideration of  19 degrees of freedom as
           vibrations may cause significant error
 Vibrational temperatures:      4.98    89.73   115.22   172.21   250.31
          (Kelvin)            292.54   332.14   336.55   412.95   471.44
                              500.44   524.32   536.93   654.28   740.03
                              794.88   797.12   820.93   883.94   933.51
                             1018.43  1100.60  1346.89  1616.80  1675.82
                             1723.92  1735.31  1765.35  1807.54  1843.14
                             1885.45  1913.75  2023.08
 
 Zero-point correction=                           0.049276 (Hartree/Particle)
 Thermal correction to Energy=                    0.061078
 Thermal correction to Enthalpy=                  0.062023
 Thermal correction to Gibbs Free Energy=         0.007424
 Sum of electronic and zero-point Energies=          -1050.934086
 Sum of electronic and thermal Energies=             -1050.922284
 Sum of electronic and thermal Enthalpies=           -1050.921340
 Sum of electronic and thermal Free Energies=        -1050.975938
 
                     E (Thermal)             CV                S
                      KCal/Mol        Cal/Mol-Kelvin    Cal/Mol-Kelvin
 Total                   38.327             40.710            114.912
 Electronic               0.000              0.000              1.377
 Translational            0.889              2.981             42.054
 Rotational               0.889              2.981             30.870
 Vibrational             36.550             34.749             40.610
 Vibration     1          0.592              1.987             10.120
 Vibration     2          0.597              1.972              4.381
 Vibration     3          0.600              1.963              3.889
 Vibration     4          0.609              1.933              3.105
 Vibration     5          0.627              1.874              2.392
 Vibration     6          0.639              1.835              2.103
 Vibration     7          0.653              1.794              1.872
 Vibration     8          0.654              1.789              1.849
 Vibration     9          0.684              1.698              1.492
 Vibration    10          0.711              1.620              1.272
 Vibration    11          0.725              1.580              1.176
 Vibration    12          0.738              1.546              1.103
 Vibration    13          0.745              1.527              1.067
 Vibration    14          0.813              1.350              0.782
 Vibration    15          0.869              1.218              0.623
 Vibration    16          0.908              1.134              0.539
 Vibration    17          0.909              1.131              0.536
 Vibration    18          0.927              1.095              0.503
 Vibration    19          0.974              1.001              0.426
                       Q            Log10(Q)             Ln(Q)
 Total Bot       0.384654D-03         -3.414930         -7.863167
 Total V=0       0.178087D+20         19.250631         44.326216
 Vib (Bot)       0.121313D-17        -17.916094        -41.253330
 Vib (Bot)    1  0.598823D+02          1.777298          4.092381
 Vib (Bot)    2  0.331036D+01          0.519875          1.197057
 Vib (Bot)    3  0.257152D+01          0.410190          0.944497
 Vib (Bot)    4  0.170745D+01          0.232349          0.535003
 Vib (Bot)    5  0.115687D+01          0.063284          0.145716
 Vib (Bot)    6  0.979423D+00         -0.009030         -0.020791
 Vib (Bot)    7  0.852867D+00         -0.069119         -0.159151
 Vib (Bot)    8  0.840572D+00         -0.075425         -0.173672
 Vib (Bot)    9  0.667368D+00         -0.175634         -0.404413
 Vib (Bot)   10  0.571041D+00         -0.243333         -0.560295
 Vib (Bot)   11  0.531182D+00         -0.274757         -0.632651
 Vib (Bot)   12  0.501482D+00         -0.299745         -0.690187
 Vib (Bot)   13  0.486791D+00         -0.312657         -0.719920
 Vib (Bot)   14  0.375644D+00         -0.425223         -0.979113
 Vib (Bot)   15  0.315443D+00         -0.501078         -1.153776
 Vib (Bot)   16  0.283384D+00         -0.547624         -1.260951
 Vib (Bot)   17  0.282163D+00         -0.549501         -1.265272
 Vib (Bot)   18  0.269582D+00         -0.569309         -1.310883
 Vib (Bot)   19  0.239447D+00         -0.620790         -1.429422
 Vib (V=0)       0.561652D+05          4.749467         10.936053
 Vib (V=0)    1  0.603844D+02          1.780925          4.100730
 Vib (V=0)    2  0.384791D+01          0.585225          1.347529
 Vib (V=0)    3  0.311968D+01          0.494110          1.137729
 Vib (V=0)    4  0.227916D+01          0.357774          0.823805
 Vib (V=0)    5  0.176029D+01          0.245585          0.565481
 Vib (V=0)    6  0.159967D+01          0.204030          0.469796
 Vib (V=0)    7  0.148863D+01          0.172786          0.397854
 Vib (V=0)    8  0.147804D+01          0.169686          0.390717
 Vib (V=0)    9  0.133389D+01          0.125122          0.288103
 Vib (V=0)   10  0.125900D+01          0.100027          0.230321
 Vib (V=0)   11  0.122949D+01          0.089725          0.206599
 Vib (V=0)   12  0.120816D+01          0.082123          0.189095
 Vib (V=0)   13  0.119783D+01          0.078395          0.180511
 Vib (V=0)   14  0.112539D+01          0.051302          0.118127
 Vib (V=0)   15  0.109119D+01          0.037900          0.087268
 Vib (V=0)   16  0.107472D+01          0.031297          0.072063
 Vib (V=0)   17  0.107412D+01          0.031053          0.071503
 Vib (V=0)   18  0.106804D+01          0.028589          0.065829
 Vib (V=0)   19  0.105438D+01          0.022996          0.052951
 Electronic      0.200000D+01          0.301030          0.693147
 Translational   0.127373D+09          8.105077         18.662630
 Rotational      0.124468D+07          6.095056         14.034386
 ***** Axes restored to original set *****
 -------------------------------------------------------------------
 Center     Atomic                   Forces (Hartrees/Bohr)
 Number     Number              X              Y              Z
 -------------------------------------------------------------------
      1        6           0.000000725   -0.000004044    0.000002040
      2        9          -0.000001206    0.000000733   -0.000001320
      3        9          -0.000000697    0.000000293   -0.000001629
      4        6          -0.000001309    0.000003181   -0.000001599
      5        9          -0.000000824    0.000000912   -0.000002241
      6        9           0.000000136    0.000000293    0.000002202
      7        6           0.000000871    0.000002945   -0.000000444
      8        6          -0.000000116    0.000001096    0.000001808
      9        9           0.000001340    0.000000385    0.000002049
     10        9           0.000000708   -0.000000720   -0.000000228
     11        9           0.000000449   -0.000000584   -0.000001194
     12        9           0.000000157   -0.000000733   -0.000000837
     13        9          -0.000000232   -0.000003756    0.000001393
 -------------------------------------------------------------------
 Cartesian Forces:  Max     0.000004044 RMS     0.000001557
 FormGI is forming the generalized inverse of G from B-inverse, IUseBI=4.

 GradGradGradGradGradGradGradGradGradGradGradGradGradGradGradGradGradGrad
 Berny optimization.
 Internal  Forces:  Max     0.000003165 RMS     0.000000982
 Search for a local minimum.
 Step number   1 out of a maximum of    2
 All quantities printed in internal units (Hartrees-Bohrs-Radians)
 Second derivative matrix not updated -- analytic derivatives used.
 ITU=  0
     Eigenvalues ---    0.00002   0.00329   0.00561   0.05005   0.05367
     Eigenvalues ---    0.06078   0.08740   0.09260   0.10527   0.10756
     Eigenvalues ---    0.14070   0.14628   0.15879   0.18701   0.20272
     Eigenvalues ---    0.20459   0.22488   0.23325   0.24258   0.24723
     Eigenvalues ---    0.25305   0.29981   0.30991   0.36569   0.36675
     Eigenvalues ---    0.38107   0.39174   0.39940   0.40798   0.46563
     Eigenvalues ---    0.49165   0.52692   0.56150
 Angle between quadratic step and forces=  88.74 degrees.
 Linear search not attempted -- first point.
 Iteration  1 RMS(Cart)=  0.00048712 RMS(Int)=  0.00000010
 Iteration  2 RMS(Cart)=  0.00000012 RMS(Int)=  0.00000000
 Variable       Old X    -DE/DX   Delta X   Delta X   Delta X     New X
                                 (Linear)    (Quad)   (Total)
    R1        2.53651  -0.00000   0.00000   0.00000   0.00000   2.53651
    R2        2.53630   0.00000   0.00000   0.00000   0.00000   2.53630
    R3        2.86936  -0.00000   0.00000  -0.00001  -0.00001   2.86935
    R4        2.94331  -0.00000   0.00000  -0.00001  -0.00001   2.94330
    R5        2.47956  -0.00000   0.00000  -0.00001  -0.00001   2.47955
    R6        2.48009  -0.00000   0.00000   0.00000   0.00000   2.48009
    R7        2.93830  -0.00000   0.00000  -0.00000  -0.00000   2.93830
    R8        2.53476   0.00000   0.00000   0.00001   0.00001   2.53477
    R9        2.53366   0.00000   0.00000  -0.00001  -0.00001   2.53365
   R10        2.50484  -0.00000   0.00000  -0.00001  -0.00001   2.50483
   R11        2.50544   0.00000   0.00000   0.00001   0.00001   2.50545
   R12        2.50928   0.00000   0.00000   0.00001   0.00001   2.50929
    A1        1.91097  -0.00000   0.00000  -0.00001  -0.00001   1.91097
    A2        1.88092   0.00000   0.00000   0.00000   0.00000   1.88092
    A3        1.89498  -0.00000   0.00000   0.00001   0.00001   1.89499
    A4        1.88147   0.00000   0.00000   0.00001   0.00001   1.88148
    A5        1.89294   0.00000   0.00000  -0.00001  -0.00001   1.89293
    A6        2.00140  -0.00000   0.00000  -0.00000  -0.00000   2.00140
    A7        2.02157  -0.00000   0.00000  -0.00000  -0.00000   2.02157
    A8        2.02054   0.00000   0.00000  -0.00001  -0.00001   2.02053
    A9        1.95851  -0.00000   0.00000  -0.00001  -0.00001   1.95850
   A10        2.02326   0.00000   0.00000  -0.00000  -0.00000   2.02325
   A11        1.89026  -0.00000   0.00000   0.00001   0.00001   1.89027
   A12        1.88898  -0.00000   0.00000  -0.00001  -0.00001   1.88897
   A13        1.87811   0.00000   0.00000  -0.00001  -0.00001   1.87810
   A14        1.87952  -0.00000   0.00000   0.00001   0.00001   1.87954
   A15        1.90113   0.00000   0.00000   0.00000   0.00000   1.90113
   A16        1.93387  -0.00000   0.00000   0.00000   0.00000   1.93387
   A17        1.93379  -0.00000   0.00000  -0.00001  -0.00001   1.93378
   A18        1.89516  -0.00000   0.00000  -0.00000  -0.00000   1.89515
   A19        1.90458   0.00000   0.00000  -0.00000  -0.00000   1.90458
   A20        1.89763   0.00000   0.00000  -0.00000  -0.00000   1.89763
   A21        1.89812   0.00000   0.00000   0.00001   0.00001   1.89813
    D1        0.92093   0.00000   0.00000  -0.00028  -0.00028   0.92065
    D2       -3.01597  -0.00000   0.00000  -0.00031  -0.00031  -3.01628
    D3        2.98201   0.00000   0.00000  -0.00028  -0.00028   2.98174
    D4       -0.95489  -0.00000   0.00000  -0.00031  -0.00031  -0.95520
    D5       -1.19122   0.00000   0.00000  -0.00029  -0.00029  -1.19152
    D6        1.15506  -0.00000   0.00000  -0.00032  -0.00032   1.15473
    D7        1.00549  -0.00000   0.00000  -0.00056  -0.00056   1.00493
    D8       -1.10639  -0.00000   0.00000  -0.00055  -0.00055  -1.10695
    D9        3.11823  -0.00000   0.00000  -0.00055  -0.00055   3.11768
   D10       -1.06965   0.00000   0.00000  -0.00055  -0.00055  -1.07021
   D11        3.10165  -0.00000   0.00000  -0.00055  -0.00055   3.10110
   D12        1.04309   0.00000   0.00000  -0.00055  -0.00055   1.04254
   D13        3.10991   0.00000   0.00000  -0.00055  -0.00055   3.10935
   D14        0.99802  -0.00000   0.00000  -0.00054  -0.00054   0.99748
   D15       -1.06054   0.00000   0.00000  -0.00054  -0.00054  -1.06108
   D16       -1.08361   0.00000   0.00000  -0.00040  -0.00040  -1.08400
   D17        1.03310  -0.00000   0.00000  -0.00040  -0.00040   1.03270
   D18        3.11661   0.00000   0.00000  -0.00040  -0.00040   3.11622
   D19        1.03478   0.00000   0.00000  -0.00039  -0.00039   1.03439
   D20       -3.13170  -0.00000   0.00000  -0.00040  -0.00040  -3.13209
   D21       -1.04818  -0.00000   0.00000  -0.00039  -0.00039  -1.04857
   D22        3.08178   0.00000   0.00000  -0.00039  -0.00039   3.08138
   D23       -1.08470   0.00000   0.00000  -0.00040  -0.00040  -1.08510
   D24        0.99881   0.00000   0.00000  -0.00039  -0.00039   0.99842
         Item               Value     Threshold  Converged?
 Maximum Force            0.000003     0.000450     YES
 RMS     Force            0.000001     0.000300     YES
 Maximum Displacement     0.001239     0.001800     YES
 RMS     Displacement     0.000487     0.001200     YES
 Predicted change in Energy=-1.757786D-10
 Optimization completed.
    -- Stationary point found.
                           ----------------------------
                           !   Optimized Parameters   !
                           ! (Angstroms and Degrees)  !
 --------------------------                            --------------------------
 ! Name  Definition              Value          Derivative Info.                !
 --------------------------------------------------------------------------------
 ! R1    R(1,2)                  1.3423         -DE/DX =    0.0                 !
 ! R2    R(1,3)                  1.3422         -DE/DX =    0.0                 !
 ! R3    R(1,4)                  1.5184         -DE/DX =    0.0                 !
 ! R4    R(1,7)                  1.5575         -DE/DX =    0.0                 !
 ! R5    R(4,5)                  1.3121         -DE/DX =    0.0                 !
 ! R6    R(4,6)                  1.3124         -DE/DX =    0.0                 !
 ! R7    R(7,8)                  1.5549         -DE/DX =    0.0                 !
 ! R8    R(7,9)                  1.3413         -DE/DX =    0.0                 !
 ! R9    R(7,10)                 1.3408         -DE/DX =    0.0                 !
 ! R10   R(8,11)                 1.3255         -DE/DX =    0.0                 !
 ! R11   R(8,12)                 1.3258         -DE/DX =    0.0                 !
 ! R12   R(8,13)                 1.3279         -DE/DX =    0.0                 !
 ! A1    A(2,1,3)              109.4908         -DE/DX =    0.0                 !
 ! A2    A(2,1,4)              107.769          -DE/DX =    0.0                 !
 ! A3    A(2,1,7)              108.5742         -DE/DX =    0.0                 !
 ! A4    A(3,1,4)              107.8004         -DE/DX =    0.0                 !
 ! A5    A(3,1,7)              108.4575         -DE/DX =    0.0                 !
 ! A6    A(4,1,7)              114.6719         -DE/DX =    0.0                 !
 ! A7    A(1,4,5)              115.8275         -DE/DX =    0.0                 !
 ! A8    A(1,4,6)              115.7681         -DE/DX =    0.0                 !
 ! A9    A(5,4,6)              112.2146         -DE/DX =    0.0                 !
 ! A10   A(1,7,8)              115.9242         -DE/DX =    0.0                 !
 ! A11   A(1,7,9)              108.3042         -DE/DX =    0.0                 !
 ! A12   A(1,7,10)             108.2304         -DE/DX =    0.0                 !
 ! A13   A(8,7,9)              107.6078         -DE/DX =    0.0                 !
 ! A14   A(8,7,10)             107.6887         -DE/DX =    0.0                 !
 ! A15   A(9,7,10)             108.9265         -DE/DX =    0.0                 !
 ! A16   A(7,8,11)             110.8023         -DE/DX =    0.0                 !
 ! A17   A(7,8,12)             110.7981         -DE/DX =    0.0                 !
 ! A18   A(7,8,13)             108.5845         -DE/DX =    0.0                 !
 ! A19   A(11,8,12)            109.1244         -DE/DX =    0.0                 !
 ! A20   A(11,8,13)            108.7261         -DE/DX =    0.0                 !
 ! A21   A(12,8,13)            108.7542         -DE/DX =    0.0                 !
 ! D1    D(2,1,4,5)             52.7655         -DE/DX =    0.0                 !
 ! D2    D(2,1,4,6)           -172.8025         -DE/DX =    0.0                 !
 ! D3    D(3,1,4,5)            170.8568         -DE/DX =    0.0                 !
 ! D4    D(3,1,4,6)            -54.7112         -DE/DX =    0.0                 !
 ! D5    D(7,1,4,5)            -68.252          -DE/DX =    0.0                 !
 ! D6    D(7,1,4,6)             66.18           -DE/DX =    0.0                 !
 ! D7    D(2,1,7,8)             57.6104         -DE/DX =    0.0                 !
 ! D8    D(2,1,7,9)            -63.3917         -DE/DX =    0.0                 !
 ! D9    D(2,1,7,10)           178.6614         -DE/DX =    0.0                 !
 ! D10   D(3,1,7,8)            -61.2866         -DE/DX =    0.0                 !
 ! D11   D(3,1,7,9)            177.7113         -DE/DX =    0.0                 !
 ! D12   D(3,1,7,10)            59.7645         -DE/DX =    0.0                 !
 ! D13   D(4,1,7,8)            178.1844         -DE/DX =    0.0                 !
 ! D14   D(4,1,7,9)             57.1823         -DE/DX =    0.0                 !
 ! D15   D(4,1,7,10)           -60.7645         -DE/DX =    0.0                 !
 ! D16   D(1,7,8,11)           -62.0862         -DE/DX =    0.0                 !
 ! D17   D(1,7,8,12)            59.1921         -DE/DX =    0.0                 !
 ! D18   D(1,7,8,13)           178.5689         -DE/DX =    0.0                 !
 ! D19   D(9,7,8,11)            59.2887         -DE/DX =    0.0                 !
 ! D20   D(9,7,8,12)          -179.4329         -DE/DX =    0.0                 !
 ! D21   D(9,7,8,13)           -60.0562         -DE/DX =    0.0                 !
 ! D22   D(10,7,8,11)          176.5728         -DE/DX =    0.0                 !
 ! D23   D(10,7,8,12)          -62.1489         -DE/DX =    0.0                 !
 ! D24   D(10,7,8,13)           57.2279         -DE/DX =    0.0                 !
 --------------------------------------------------------------------------------
 GradGradGradGradGradGradGradGradGradGradGradGradGradGradGradGradGradGrad


 ----------------------------------------------------------------------

 Electric dipole moment (input orientation):
 (Debye = 10**-18 statcoulomb cm , SI units = C m)
                  (au)            (Debye)         (10**-30 SI)
   Tot        0.201313D+00      0.511688D+00      0.170681D+01
   x          0.196731D+00      0.500041D+00      0.166796D+01
   y          0.424347D-01      0.107858D+00      0.359777D+00
   z         -0.481822D-02     -0.122467D-01     -0.408506D-01

 Dipole polarizability, Alpha (input orientation).
 (esu units = cm**3 , SI units = C**2 m**2 J**-1)
 Alpha(0;0):
               (au)            (10**-24 esu)      (10**-40 SI)
   iso        0.542324D+02      0.803641D+01      0.894171D+01
   aniso      0.770780D+01      0.114218D+01      0.127084D+01
   xx         0.589872D+02      0.874101D+01      0.972568D+01
   yx        -0.535884D+00     -0.794099D-01     -0.883554D-01
   yy         0.503649D+02      0.746330D+01      0.830404D+01
   zx         0.141791D+00      0.210112D-01      0.233781D-01
   zy         0.565083D+00      0.837367D-01      0.931696D-01
   zz         0.533451D+02      0.790493D+01      0.879542D+01

 ----------------------------------------------------------------------

 Dipole orientation:
     6         -0.00013867          0.89094214          1.67440891
     9         -2.12906633          2.26989937          1.67034979
     9          2.00991513          2.43750333          1.64907378
     6          0.07200496         -0.60121099          4.12420590
     9         -1.94472989         -1.95413217          4.62480303
     9          2.17038556         -1.84704705          4.56640530
     6          0.05737138         -0.75199725         -0.76700287
     6         -0.09796929          0.71629880         -3.30739349
     9         -1.89996388         -2.36071097         -0.69025552
     9          2.21406043         -2.08166197         -0.77697701
     9         -2.26088048          1.96768951         -3.48077420
     9          1.80470590          2.33262422         -3.51849972
     9          0.03176404         -0.93333558         -5.19375873

 Electric dipole moment (dipole orientation):
 (Debye = 10**-18 statcoulomb cm , SI units = C m)
                  (au)            (Debye)         (10**-30 SI)
   Tot        0.201313D+00      0.511688D+00      0.170681D+01
   x          0.000000D+00      0.000000D+00      0.000000D+00
   y          0.000000D+00      0.000000D+00      0.000000D+00
   z          0.201313D+00      0.511688D+00      0.170681D+01

 Dipole polarizability, Alpha (dipole orientation).
 (esu units = cm**3 , SI units = C**2 m**2 J**-1)
 Alpha(0;0):
               (au)            (10**-24 esu)      (10**-40 SI)
   iso        0.542324D+02      0.803641D+01      0.894171D+01
   aniso      0.770780D+01      0.114218D+01      0.127084D+01
   xx         0.534470D+02      0.792002D+01      0.881221D+01
   yx         0.663608D-01      0.983365D-02      0.109414D-01
   yy         0.508824D+02      0.754000D+01      0.838938D+01
   zx         0.110657D+00      0.163977D-01      0.182449D-01
   zy        -0.230575D+01     -0.341677D+00     -0.380167D+00
   zz         0.583678D+02      0.864921D+01      0.962355D+01

 ----------------------------------------------------------------------
 1\1\GINC-ORANGE\Freq\UwB97XD\6-311+G(2d,2p)\C4F9(2)\RAPPE\11-Dec-2024\
 0\\#N Geom=AllCheck Guess=TCheck SCRF=Check GenChk UwB97XD/6-311+G(2d,
 2p) Freq\\Title Card Required\\0,2\C,0.76638986,0.6367917378,-0.120515
 2893\F,0.5859698404,1.5705903765,0.8266576223\F,0.603532282,1.19063472
 74,-1.332169338\C,2.2007253138,0.148328538,-0.0224082465\F,2.587654383
 1,-0.2539499418,1.165081882\F,2.5925060289,-0.665948352,-0.9741824556\
 C,-0.3120042892,-0.4717874087,0.0639272455\C,-1.791474727,0.003811955,
 0.012652614\F,-0.1150164193,-1.0571756795,1.2546004867\F,-0.1440291156
 ,-1.3853546878,-0.9029225735\F,-2.0455981329,0.8580865256,0.9937734189
 \F,-2.0594184042,0.5841621243,-1.148901494\F,-2.5812636203,-1.05430191
 48,0.1534631275\\Version=ES64L-G16RevA.03\State=2-A\HF=-1050.9833627\S
 2=0.752835\S2-1=0.\S2A=0.750005\RMSD=1.036e-09\RMSF=1.557e-06\ZeroPoin
 t=0.0492764\Thermal=0.0610784\Dipole=0.1967312,0.0424347,-0.0048182\Di
 poleDeriv=0.7331307,-0.0543285,0.004066,-0.085115,1.0362149,0.0300986,
 0.0122444,0.0329667,1.2242946,-0.2935529,0.0425302,0.0639944,0.0387196
 ,-0.5773289,-0.3405578,0.0673614,-0.2552788,-0.5215694,-0.2904888,0.01
 43919,-0.0688188,0.0090511,-0.3801724,0.2893045,-0.0700067,0.2052902,-
 0.7228264,0.5194423,-0.308811,0.0579142,-0.6595872,0.5906424,0.1642092
 ,0.1243469,0.1668418,1.4287383,-0.2908709,0.1107231,-0.213103,0.282852
 1,-0.2187408,0.2698451,-0.3327377,0.0931453,-0.7989976,-0.2917403,0.18
 24026,0.1585866,0.3880065,-0.4240124,-0.4172756,0.2043091,-0.2420274,-
 0.591494,0.5209479,-0.1186368,0.0264536,0.143739,0.9250577,0.0452178,-
 0.0140752,0.0435729,1.2018156,1.5309126,0.1822412,-0.0252917,-0.046660
 2,1.5670815,0.0039196,0.0081907,0.0010149,1.598297,-0.3120147,0.036058
 8,-0.0837532,0.0232453,-0.3877822,0.2994977,-0.0447354,0.2045042,-0.70
 26287,-0.3065915,0.0502549,0.0623889,0.0244954,-0.5588115,-0.3455907,0
 .0284166,-0.2508966,-0.5349621,-0.3971094,0.1349656,0.147095,0.1033153
 ,-0.5237607,-0.302165,0.0837838,-0.2857211,-0.5897397,-0.3995153,0.095
 7037,-0.1804161,0.0804597,-0.3859532,0.249105,-0.1086613,0.2320139,-0.
 7254442,-0.7225496,-0.3674958,0.0508842,-0.3025215,-0.6624344,0.054391
 7,0.0415636,0.054574,-0.2654834\Polar=58.9872306,-0.5358845,50.3648619
 ,0.1417907,0.5650833,53.3450855\Quadrupole=0.9522921,-0.2403425,-0.711
 9496,0.3873327,-0.0729581,-0.0869099\PG=C01 [X(C4F9)]\NImag=0\\0.48950
 386,-0.03760766,0.53079653,0.00657913,-0.00077874,0.52484461,-0.079060
 25,0.02525272,0.01837384,0.07718693,0.02355581,-0.20191441,-0.09741942
 ,-0.03416648,0.23365302,0.01850681,-0.11143323,-0.15069193,-0.03428860
 ,0.16564198,0.23562035,-0.07811884,0.01611588,-0.02408419,0.01065462,-
 0.00369421,0.00230544,0.07549582,0.01455874,-0.12857172,0.08932626,-0.
 00395724,0.02305357,-0.02330483,-0.01860102,0.12775612,-0.02308625,0.1
 0365453,-0.22433738,0.00044924,-0.01084221,-0.07073905,0.04003946,-0.1
 2644548,0.34277806,-0.18412335,0.01754094,-0.00370060,-0.00208089,0.00
 652605,0.00938571,-0.00158454,0.00267383,-0.01113923,0.39054895,0.0530
 5440,-0.08603931,0.00864219,0.02817988,-0.01651307,-0.01229154,0.01661
 031,-0.00352632,0.00775924,-0.20647857,0.39587299,-0.01131693,0.008655
 31,-0.04162148,0.02783333,-0.02699507,-0.01614121,-0.03543840,0.022380
 68,-0.02913927,0.03973394,0.03349087,0.56790810,-0.00013690,0.01223352
 ,-0.03472888,-0.00063422,0.00051027,0.00103287,-0.00889494,0.00511203,
 -0.00488462,-0.08583245,0.05357015,-0.07689983,0.08499675,-0.00763675,
 0.00763467,0.01157218,0.00035952,-0.00093925,-0.00142213,0.00530978,-0
 .00139426,0.00384517,0.07148345,-0.10250863,0.10311504,-0.05920128,0.0
 7450253,0.00102486,-0.00503317,-0.02028895,-0.00025410,0.00319909,0.00
 726484,-0.00461532,0.00123789,-0.00055378,-0.10440254,0.11001851,-0.29
 438831,0.11005549,-0.09464461,0.38576557,-0.00004741,0.02425705,0.0280
 0477,-0.00910201,0.00653404,0.00271941,-0.00065385,0.00010039,-0.00136
 222,-0.08662046,0.07907911,0.05209490,0.01157032,-0.01157218,0.0005363
 1,0.08587093,-0.00747710,0.00157738,-0.02030573,0.00662208,-0.00277696
 ,-0.00281096,0.00037823,-0.00047632,0.00455704,0.10591974,-0.20221907,
 -0.13918163,-0.01093535,0.02528655,-0.01780872,-0.09674999,0.18214473,
 0.00203578,-0.00347895,-0.01386123,0.00226092,-0.00024317,0.00114376,0
 .00022902,-0.00038322,0.00662053,0.07088109,-0.14609632,-0.19369658,0.
 00419582,-0.02320652,-0.07710218,-0.08122252,0.17526203,0.27663564,-0.
 14833112,-0.03723989,0.00659282,0.01136834,0.00993750,0.00173387,0.010
 64274,0.00757531,-0.00422828,-0.03365609,-0.02901445,0.00481350,0.0024
 6304,0.00367240,-0.00394432,0.00261950,0.00493159,0.00233581,0.5278843
 6,-0.03402429,-0.10566147,0.01170041,-0.01557526,-0.02356797,-0.010433
 58,-0.01052618,-0.00876255,0.00846774,-0.00039117,0.03001509,-0.002324
 92,0.00138369,-0.00708296,0.00747690,0.00105421,-0.01090960,-0.0059980
 1,-0.01091441,0.55660187,0.00586027,0.01094966,-0.03850204,-0.01318222
 ,-0.03399193,-0.01367222,0.01791362,0.03211369,-0.02936617,-0.00018280
 ,-0.00177779,0.01858164,0.00061136,0.00382352,-0.00773072,-0.00103915,
 -0.00289557,-0.00405871,0.00157514,-0.00408875,0.52522292,-0.01918426,
 -0.01145951,0.00238813,0.00082660,0.00381298,0.00205189,0.00083020,0.0
 0302864,-0.00342419,-0.00070678,0.00593102,-0.00111205,0.00082285,-0.0
 0180600,0.00202968,0.00081896,-0.00242246,-0.00121106,-0.17580485,0.04
 643809,-0.00511195,0.59086694,-0.02854483,0.02852182,-0.00130267,0.005
 71660,-0.00578205,-0.00346634,0.00450800,-0.00402223,0.00316607,-0.003
 48262,-0.00799260,0.00177842,0.00057177,0.00128375,-0.00186268,0.00082
 339,0.00148350,0.00077690,0.01055291,-0.06642893,0.00454117,-0.0163086
 9,0.55318890,0.00473594,-0.00098410,0.01984542,0.00283729,-0.00260931,
 -0.00544443,-0.00442274,0.00201597,-0.00714394,0.00055056,0.00140343,0
 .00135879,-0.00064811,0.00033934,-0.00121641,0.00039333,-0.00114750,-0
 .00122355,0.00027744,0.00394197,-0.03663962,0.00176680,0.00127865,0.55
 962371,0.01052747,-0.00906203,0.01639023,-0.00023154,-0.00073895,-0.00
 016055,-0.00297549,-0.00609806,0.00448668,0.00197731,0.00297504,-0.003
 55650,-0.00335775,-0.00255974,0.00269790,-0.00029890,-0.00009548,0.000
 49172,-0.08533668,0.01746648,-0.02725032,0.00061599,0.01836355,-0.0335
 5288,0.07593988,0.00960392,-0.01028667,0.03266816,-0.00048376,0.000146
 23,-0.00076429,-0.00625847,-0.00759650,0.00566733,0.00237461,-0.002603
 59,0.00142232,-0.00216351,0.00179314,-0.00225882,-0.00061089,0.0010753
 6,0.00013264,0.01877946,-0.13583279,0.09378991,-0.00326851,-0.01034497
 ,0.02437247,-0.02279888,0.13609878,-0.00513089,0.01002975,-0.02771545,
 0.00035683,0.00281144,0.00615557,0.00432148,0.00555027,-0.00190970,-0.
 00227234,0.00210513,-0.00603797,0.00099434,-0.00255622,0.00508281,0.00
 052544,0.00026325,0.00123513,-0.03249994,0.10758807,-0.21974749,0.0002
 4931,0.01286950,-0.02964644,0.04446720,-0.13157392,0.33790192,0.010325
 58,-0.01392827,-0.01336528,-0.00303858,-0.00746777,-0.00224650,-0.0001
 5314,-0.00065678,0.00020958,0.00195312,0.00398571,0.00238775,-0.000280
 74,-0.00019656,-0.00046787,-0.00347177,-0.00314918,-0.00164326,-0.0840
 5133,0.02117807,0.01857250,0.00126159,0.02660335,0.02618945,0.01169428
 ,-0.00429800,-0.00191685,0.07408838,0.00945165,-0.02453166,-0.03377987
 ,-0.00717000,-0.01038779,-0.00266529,-0.00050378,0.00013329,0.00229873
 ,0.00268660,-0.00423348,-0.00194766,-0.00059571,0.00092432,0.00001465,
 -0.00227047,0.00380007,0.00262146,0.02491461,-0.20109354,-0.10111197,-
 0.00419007,-0.02252202,-0.02677944,-0.00380893,0.02405706,-0.00878710,
 -0.02972636,0.22981025,0.00156803,-0.01096100,-0.01409786,-0.00215357,
 -0.00274540,0.00092792,0.00004276,-0.00015758,0.00648120,0.00133184,-0
 .00301348,-0.00449163,-0.00023117,-0.00012688,0.00142315,-0.00036864,0
 .00314004,0.00316792,0.02304831,-0.11487584,-0.15683321,0.00036669,-0.
 01567327,-0.01789058,0.00073504,-0.02200670,-0.07514012,-0.03090751,0.
 16686672,0.24752740,0.00176828,0.00129515,-0.00159783,-0.00632497,-0.0
 0263496,0.00034227,-0.00019225,-0.00064974,0.00078357,0.00036807,-0.00
 075768,0.00057136,-0.00016637,0.00033722,-0.00049697,-0.00023446,0.000
 29992,0.00009067,0.00494061,0.02007340,0.02726797,-0.10760133,0.045110
 33,0.04309865,-0.00076478,0.00068263,-0.00193678,-0.00932378,0.0073591
 0,0.00403848,0.08663852,0.00235599,-0.00694677,-0.00292861,-0.00379255
 ,0.00347144,0.00281918,-0.00002770,0.00074772,0.00056881,0.00044542,0.
 00098734,-0.00085663,-0.00002025,-0.00027616,0.00060417,-0.00022837,0.
 00021371,0.00026294,0.00321692,-0.01011378,-0.02307386,0.04983877,-0.1
 6580594,-0.09627746,0.00000153,0.00093172,0.00149535,0.00612084,-0.002
 81138,-0.00187874,-0.03823205,0.22408449,0.00017027,-0.00371345,-0.004
 85185,-0.00118068,0.00260155,0.00332430,0.00081870,-0.00000068,0.00164
 357,0.00011423,0.00050660,-0.00110429,0.00014991,-0.00036410,0.0007900
 9,-0.00014765,0.00029854,0.00041718,-0.00140394,-0.01165458,-0.0158755
 8,0.05182790,-0.09962475,-0.18028332,0.00118159,-0.00054338,0.00676067
 ,0.00453700,-0.00168099,0.00027825,-0.04914732,0.16471973,0.26934851,0
 .00191447,0.00173770,0.00093172,-0.00027472,-0.00095667,-0.00055558,-0
 .00570311,-0.00208411,0.00079930,0.00037603,-0.00083332,-0.00024781,-0
 .00022830,0.00022273,-0.00018748,-0.00015996,0.00046383,0.00031412,0.0
 0426378,0.01238923,-0.03200933,-0.10896025,0.03389002,-0.05455069,-0.0
 0961539,0.00590606,-0.00580426,-0.00078118,0.00129444,0.00207571,0.016
 26549,-0.00443546,0.00444862,0.08780397,0.00216666,-0.00493705,0.00300
 195,-0.00030141,0.00078698,-0.00026852,-0.00273343,0.00215759,-0.00243
 216,0.00038902,0.00084498,0.00018072,-0.00016131,0.00007849,-0.0001633
 2,-0.00008543,-0.00022538,-0.00021984,0.00323163,-0.00194306,0.0194784
 4,0.03637152,-0.11911751,0.07987426,0.00497071,-0.00168357,0.00245914,
 -0.00034280,0.00113282,-0.00021236,-0.00570829,0.01997244,-0.02016403,
 -0.02645953,0.14606471,-0.00084733,0.00345924,-0.00689598,-0.00077404,
 0.00021712,0.00161743,0.00244248,-0.00202153,0.00482778,-0.00025029,-0
 .00097771,-0.00087687,0.00021910,-0.00019675,0.00058848,-0.00009587,0.
 00060758,0.00060106,0.00019802,0.00784223,-0.02325869,-0.06399723,0.08
 310950,-0.22514243,-0.00585322,0.00206379,-0.00065941,-0.00135738,0.00
 238803,0.00632433,-0.00443986,-0.00647310,-0.08288537,0.06029908,-0.13
 242650,0.34492610,-0.00503754,0.01086440,-0.00178387,0.00071070,-0.001
 21762,-0.00082706,0.00065278,-0.00100198,0.00135697,-0.00061891,-0.006
 30159,0.00113676,-0.00032128,0.00158741,-0.00197564,-0.00029089,0.0022
 1417,0.00124191,-0.03700229,-0.04855186,0.00697491,-0.18378567,-0.0978
 0377,0.01332497,0.00182560,0.00253534,-0.00135354,0.00177758,0.0025589
 2,0.00045404,0.01462698,-0.01524310,-0.01136863,0.01509917,-0.01133734
 ,0.01445655,0.19236378,0.00054345,0.00035865,-0.00039612,-0.00068410,0
 .00077025,0.00039955,-0.00057739,0.00050160,-0.00026481,0.00031271,-0.
 00208433,0.00028255,-0.00030401,0.00069782,-0.00077988,-0.00033087,0.0
 0102602,0.00057007,-0.00964359,-0.01522030,0.00224347,-0.10596578,-0.1
 8246169,0.01457171,0.00138476,0.00424581,-0.00225465,0.00187776,0.0057
 2207,0.00164447,-0.02717505,-0.06445483,-0.03038047,-0.02113491,-0.043
 13143,0.04240810,0.16169704,0.29403035,-0.00009967,-0.00036586,-0.0018
 2588,-0.00027824,0.00037532,0.00063467,0.00044770,-0.00031144,0.000838
 14,-0.00004957,0.00023089,-0.00035091,0.00013371,-0.00017804,0.0003654
 2,-0.00003810,0.00002163,0.00012104,0.00150158,0.00235837,0.00187988,0
 .01417608,0.01440951,-0.07619719,-0.00007691,-0.00296951,0.00372047,0.
 00000836,0.00256272,0.00232323,-0.01857420,-0.03898181,0.00243784,0.02
 448662,0.05089221,-0.01916641,-0.02163738,-0.02804398,0.08521970\\-0.0
 0000072,0.00000404,-0.00000204,0.00000121,-0.00000073,0.00000132,0.000
 00070,-0.00000029,0.00000163,0.00000131,-0.00000318,0.00000160,0.00000
 082,-0.00000091,0.00000224,-0.00000014,-0.00000029,-0.00000220,-0.0000
 0087,-0.00000294,0.00000044,0.00000012,-0.00000110,-0.00000181,-0.0000
 0134,-0.00000038,-0.00000205,-0.00000071,0.00000072,0.00000023,-0.0000
 0045,0.00000058,0.00000119,-0.00000016,0.00000073,0.00000084,0.0000002
 3,0.00000376,-0.00000139\\\@


 ALL SCIENCE IS EITHER PHYSICS, OR STAMP COLLECTING.
   --ERNEST RUTHERFORD, 1871-1937.
 Job cpu time:       0 days  7 hours  8 minutes 49.9 seconds.
 Elapsed time:       0 days  0 hours 14 minutes 25.1 seconds.
 File lengths (MBytes):  RWF=    353 Int=      0 D2E=      0 Chk=     15 Scr=      1
 Normal termination of Gaussian 16 at Wed Dec 11 03:40:34 2024.
