 Entering Gaussian System, Link 0=/applications/g16/g16/g16
 Initial command:
 /applications/g16/g16/l1.exe "/scratch/g98/Gau-96347.inp" -scrdir="/scratch/g98/"
 Entering Link 1 = /applications/g16/g16/l1.exe PID=     96348.
  
 Copyright (c) 1988,1990,1992,1993,1995,1998,2003,2009,2016,
            Gaussian, Inc.  All Rights Reserved.
  
 This is part of the Gaussian(R) 16 program.  It is based on
 the Gaussian(R) 09 system (copyright 2009, Gaussian, Inc.),
 the Gaussian(R) 03 system (copyright 2003, Gaussian, Inc.),
 the Gaussian(R) 98 system (copyright 1998, Gaussian, Inc.),
 the Gaussian(R) 94 system (copyright 1995, Gaussian, Inc.),
 the Gaussian 92(TM) system (copyright 1992, Gaussian, Inc.),
 the Gaussian 90(TM) system (copyright 1990, Gaussian, Inc.),
 the Gaussian 88(TM) system (copyright 1988, Gaussian, Inc.),
 the Gaussian 86(TM) system (copyright 1986, Carnegie Mellon
 University), and the Gaussian 82(TM) system (copyright 1983,
 Carnegie Mellon University). Gaussian is a federally registered
 trademark of Gaussian, Inc.
  
 This software contains proprietary and confidential information,
 including trade secrets, belonging to Gaussian, Inc.
  
 This software is provided under written license and may be
 used, copied, transmitted, or stored only in accord with that
 written license.
  
 The following legend is applicable only to US Government
 contracts under FAR:
  
                    RESTRICTED RIGHTS LEGEND
  
 Use, reproduction and disclosure by the US Government is
 subject to restrictions as set forth in subparagraphs (a)
 and (c) of the Commercial Computer Software - Restricted
 Rights clause in FAR 52.227-19.
  
 Gaussian, Inc.
 340 Quinnipiac St., Bldg. 40, Wallingford CT 06492
  
  
 ---------------------------------------------------------------
 Warning -- This program may not be used in any manner that
 competes with the business of Gaussian, Inc. or will provide
 assistance to any competitor of Gaussian, Inc.  The licensee
 of this program is prohibited from giving any competitor of
 Gaussian, Inc. access to this program.  By using this program,
 the user acknowledges that Gaussian, Inc. is engaged in the
 business of creating and licensing software in the field of
 computational chemistry and represents and warrants to the
 licensee that it is not a competitor of Gaussian, Inc. and that
 it will not use this program in any manner prohibited above.
 ---------------------------------------------------------------
  

 Cite this work as:
 Gaussian 16, Revision A.03,
 M. J. Frisch, G. W. Trucks, H. B. Schlegel, G. E. Scuseria, 
 M. A. Robb, J. R. Cheeseman, G. Scalmani, V. Barone, 
 G. A. Petersson, H. Nakatsuji, X. Li, M. Caricato, A. V. Marenich, 
 J. Bloino, B. G. Janesko, R. Gomperts, B. Mennucci, H. P. Hratchian, 
 J. V. Ortiz, A. F. Izmaylov, J. L. Sonnenberg, D. Williams-Young, 
 F. Ding, F. Lipparini, F. Egidi, J. Goings, B. Peng, A. Petrone, 
 T. Henderson, D. Ranasinghe, V. G. Zakrzewski, J. Gao, N. Rega, 
 G. Zheng, W. Liang, M. Hada, M. Ehara, K. Toyota, R. Fukuda, 
 J. Hasegawa, M. Ishida, T. Nakajima, Y. Honda, O. Kitao, H. Nakai, 
 T. Vreven, K. Throssell, J. A. Montgomery, Jr., J. E. Peralta, 
 F. Ogliaro, M. J. Bearpark, J. J. Heyd, E. N. Brothers, K. N. Kudin, 
 V. N. Staroverov, T. A. Keith, R. Kobayashi, J. Normand, 
 K. Raghavachari, A. P. Rendell, J. C. Burant, S. S. Iyengar, 
 J. Tomasi, M. Cossi, J. M. Millam, M. Klene, C. Adamo, R. Cammi, 
 J. W. Ochterski, R. L. Martin, K. Morokuma, O. Farkas, 
 J. B. Foresman, and D. J. Fox, Gaussian, Inc., Wallingford CT, 2016.
 
 ******************************************
 Gaussian 16:  EM64M-G16RevA.03 25-Dec-2016
                 9-Jan-2022 
 ******************************************
 %mem=24GB
 %nprocshared=8
 Will use up to    8 processors via shared memory.
 %chk=butane.chk
 -------------------------------------------
 # freq wb97xd/6-311+g(2d) geom=connectivity
 -------------------------------------------
 1/10=4,30=1,38=1,57=2/1,3;
 2/12=2,17=6,18=5,40=1/2;
 3/5=4,6=6,7=12,11=2,25=1,30=1,71=2,74=-58,140=1/1,2,3;
 4//1;
 5/5=2,38=5,98=1/2;
 8/6=4,10=90,11=11/1;
 11/6=1,8=1,9=11,15=111,16=1/1,2,10;
 10/6=1/2;
 6/7=2,8=2,9=2,10=2,28=1/1;
 7/8=1,10=1,25=1/1,2,3,16;
 1/10=4,30=1/3;
 99//99;
 -------------------
 Title Card Required
 -------------------
 Symbolic Z-matrix:
 Charge =  0 Multiplicity = 1
 C                    -0.46862   1.50204   0.77317 
 F                    -1.09566   2.54281   0.18486 
 F                     0.22741   2.03277   1.80097 
 C                     0.21339   0.59345  -0.2665 
 F                     0.94303   1.11271  -1.2767 
 F                     1.01186  -0.32107   0.32393 
 C                    -1.20073   0.03436  -0.51003 
 F                    -1.38504  -1.19976  -1.02527 
 F                    -1.93362   0.86292  -1.28389 
 C                    -1.42571   0.31474   0.98742 
 F                    -2.66707   0.49886   1.48506 
 F                    -0.86425  -0.64007   1.75917 
 

 GradGradGradGradGradGradGradGradGradGradGradGradGradGradGradGradGradGrad
 Berny optimization.
 Initialization pass.
 Trust Radius=3.00D-01 FncErr=1.00D-07 GrdErr=1.00D-07 EigMax=2.50D+02 EigMin=1.00D-04
 Number of steps in this run=      2 maximum allowed number of steps=      2.
 GradGradGradGradGradGradGradGradGradGradGradGradGradGradGradGradGradGrad

                          Input orientation:                          
 ---------------------------------------------------------------------
 Center     Atomic      Atomic             Coordinates (Angstroms)
 Number     Number       Type             X           Y           Z
 ---------------------------------------------------------------------
      1          6           0       -0.468620    1.502036    0.773173
      2          9           0       -1.095657    2.542808    0.184855
      3          9           0        0.227410    2.032770    1.800968
      4          6           0        0.213388    0.593445   -0.266504
      5          9           0        0.943029    1.112709   -1.276698
      6          9           0        1.011856   -0.321069    0.323930
      7          6           0       -1.200726    0.034360   -0.510031
      8          9           0       -1.385042   -1.199762   -1.025268
      9          9           0       -1.933621    0.862916   -1.283891
     10          6           0       -1.425712    0.314740    0.987423
     11          9           0       -2.667065    0.498864    1.485058
     12          9           0       -0.864248   -0.640074    1.759167
 ---------------------------------------------------------------------
                    Distance matrix (angstroms):
                    1          2          3          4          5
     1  C    0.000000
     2  F    1.350000   0.000000
     3  F    1.350000   2.149992   0.000000
     4  C    1.540000   2.391096   2.519186   0.000000
     5  F    2.519186   2.887483   3.290996   1.350000   0.000000
     6  F    2.391096   3.558475   2.887483   1.350000   2.149992
     7  C    2.082465   2.605036   3.372526   1.540000   2.519186
     8  F    3.372526   3.943979   4.586598   2.519186   3.290996
     9  F    2.605036   2.383576   3.943979   2.391096   2.887483
    10  C    1.540000   2.391096   2.519186   2.082465   3.372526
    11  F    2.519186   2.887483   3.290996   3.372526   4.586598
    12  F    2.391096   3.558475   2.887483   2.605036   3.943979
                    6          7          8          9         10
     6  F    0.000000
     7  C    2.391096   0.000000
     8  F    2.887483   1.350000   0.000000
     9  F    3.558475   1.350000   2.149992   0.000000
    10  C    2.605036   1.540000   2.519186   2.391096   0.000000
    11  F    3.943979   2.519186   3.290996   2.887483   1.350000
    12  F    2.383576   2.391096   2.887483   3.558475   1.350000
                   11         12
    11  F    0.000000
    12  F    2.149992   0.000000
 Stoichiometry    C4F8
 Framework group  D2D[2SGD(C2F4)]
 Deg. of freedom     6
 Full point group                 D2D     NOp   8
 Largest Abelian subgroup         C2V     NOp   4
 Largest concise Abelian subgroup C2V     NOp   4
                         Standard orientation:                         
 ---------------------------------------------------------------------
 Center     Atomic      Atomic             Coordinates (Angstroms)
 Number     Number       Type             X           Y           Z
 ---------------------------------------------------------------------
      1          6           0       -1.041233   -0.000000   -0.225427
      2          9           0       -1.191788   -0.000000   -1.567006
      3          9           0       -2.293299   -0.000000    0.279380
      4          6           0        0.000000    1.041233    0.225427
      5          9           0        0.000000    2.293299   -0.279380
      6          9           0        0.000000    1.191788    1.567006
      7          6           0        1.041233   -0.000000   -0.225427
      8          9           0        2.293299   -0.000000    0.279380
      9          9           0        1.191788    0.000000   -1.567006
     10          6           0       -0.000000   -1.041233    0.225427
     11          9           0       -0.000000   -2.293299   -0.279380
     12          9           0       -0.000000   -1.191788    1.567006
 ---------------------------------------------------------------------
 Rotational constants (GHZ):           1.0644125           1.0644125           0.9030346
 Standard basis: 6-311+G(2d) (5D, 7F)
 There are   126 symmetry adapted cartesian basis functions of A1  symmetry.
 There are    48 symmetry adapted cartesian basis functions of A2  symmetry.
 There are    87 symmetry adapted cartesian basis functions of B1  symmetry.
 There are    87 symmetry adapted cartesian basis functions of B2  symmetry.
 There are   114 symmetry adapted basis functions of A1  symmetry.
 There are    48 symmetry adapted basis functions of A2  symmetry.
 There are    81 symmetry adapted basis functions of B1  symmetry.
 There are    81 symmetry adapted basis functions of B2  symmetry.
   324 basis functions,   504 primitive gaussians,   348 cartesian basis functions
    48 alpha electrons       48 beta electrons
       nuclear repulsion energy       898.1461519391 Hartrees.
 NAtoms=   12 NActive=   12 NUniq=    3 SFac= 4.00D+00 NAtFMM=   60 NAOKFM=F Big=F
 Integral buffers will be    131072 words long.
 Raffenetti 2 integral format.
 Two-electron integral symmetry is turned on.
 Nuclear repulsion after empirical dispersion term =      898.1399059480 Hartrees.
 One-electron integrals computed using PRISM.
 NBasis=   324 RedAO= T EigKep=  1.30D-05  NBF=   114    48    81    81
 NBsUse=   324 1.00D-06 EigRej= -1.00D+00 NBFU=   114    48    81    81
 ExpMin= 4.38D-02 ExpMax= 1.14D+04 ExpMxC= 1.72D+03 IAcc=3 IRadAn=         5 AccDes= 0.00D+00
 Harris functional with IExCor= 4639 and IRadAn=       5 diagonalized for initial guess.
 HarFok:  IExCor= 4639 AccDes= 0.00D+00 IRadAn=         5 IDoV= 1 UseB2=F ITyADJ=14
 ICtDFT=  3500011 ScaDFX=  1.000000  1.000000  1.000000  1.000000
 FoFCou: FMM=F IPFlag=           0 FMFlag=      100000 FMFlg1=           0
         NFxFlg=           0 DoJE=T BraDBF=F KetDBF=T FulRan=T
         wScrn=  0.000000 ICntrl=       500 IOpCl=  0 I1Cent=   200000004 NGrid=           0
         NMat0=    1 NMatS0=      1 NMatT0=    0 NMatD0=    1 NMtDS0=    0 NMtDT0=    0
 Petite list used in FoFCou.
 Initial guess orbital symmetries:
       Occupied  (A1) (B2) (E) (E) (E) (E) (B2) (A1) (A1) (E) (E)
                 (B2) (A1) (E) (E) (B2) (B2) (A1) (E) (E) (A1)
                 (E) (E) (B2) (A1) (B2) (B1) (E) (E) (E) (E) (A1)
                 (B2) (E) (E) (A2) (A1) (A2) (E) (E) (B2) (B1)
                 (A1) (E) (E) (E) (E) (B1)
       Virtual   (A1) (E) (E) (B2) (B2) (E) (E) (A1) (B1) (E) (E)
                 (B2) (A1) (A2) (B2) (E) (E) (A1) (E) (E) (A1)
                 (E) (E) (A2) (B2) (E) (E) (E) (E) (B2) (A1) (B1)
                 (B2) (A2) (A1) (E) (E) (E) (E) (B1) (B2) (A1)
                 (A1) (E) (E) (A2) (B2) (E) (E) (E) (E) (E) (E)
                 (B2) (A1) (B2) (E) (E) (B2) (A1) (E) (E) (A2)
                 (B1) (A1) (E) (E) (A1) (B2) (B2) (A2) (E) (E)
                 (A1) (E) (E) (B2) (B1) (A1) (E) (E) (A1) (B1)
                 (B2) (E) (E) (B2) (E) (E) (E) (E) (A2) (A1) (B2)
                 (E) (E) (B1) (E) (E) (B2) (E) (E) (A1) (A2) (A1)
                 (A2) (B2) (E) (E) (B1) (A1) (E) (E) (E) (E) (B2)
                 (B2) (A1) (E) (E) (A1) (E) (E) (A2) (B1) (A2)
                 (B2) (B1) (E) (E) (B2) (A1) (E) (E) (E) (E) (A1)
                 (B2) (E) (E) (A1) (E) (E) (B2) (A2) (B1) (E) (E)
                 (B2) (E) (E) (A1) (A2) (E) (E) (B1) (A1) (B2)
                 (E) (E) (A1) (E) (E) (B1) (B2) (A1) (E) (E) (E)
                 (E) (B2) (B1) (A2) (A1) (B2) (A1) (E) (E) (E)
                 (E) (A2) (E) (E) (B1) (B2) (E) (E) (B2) (A1) (E)
                 (E) (A1) (A2) (A1) (B2) (E) (E) (E) (E) (B2) (A2)
                 (B1) (A1) (E) (E) (E) (E) (A2) (B2) (B1) (A1)
                 (E) (E) (B2) (A1) (E) (E) (E) (E) (B2) (A1) (E)
                 (E) (B2) (B1) (A2) (E) (E) (A1) (E) (E) (B2) (A2)
                 (A1) (B1) (E) (E) (E) (E) (B2) (A2) (E) (E) (B1)
                 (B2) (A1) (E) (E) (A2) (E) (E) (B1) (A1) (E) (E)
                 (A1) (E) (E) (B2) (B2) (B2) (E) (E) (A1) (E) (E)
                 (B2) (A1) (A1) (B2) (E) (E) (E) (E) (B2) (A1)
 The electronic state of the initial guess is 1-A1.
 Requested convergence on RMS density matrix=1.00D-08 within 128 cycles.
 Requested convergence on MAX density matrix=1.00D-06.
 Requested convergence on             energy=1.00D-06.
 No special actions if energy rises.
 SCF Done:  E(RwB97XD) =  -951.130202260     A.U. after   12 cycles
            NFock= 12  Conv=0.13D-08     -V/T= 2.0027
 DoSCS=F DFT=T ScalE2(SS,OS)=  1.000000  1.000000
 Range of M.O.s used for correlation:     1   324
 NBasis=   324 NAE=    48 NBE=    48 NFC=     0 NFV=     0
 NROrb=    324 NOA=    48 NOB=    48 NVA=   276 NVB=   276

 **** Warning!!: The largest alpha MO coefficient is  0.69816459D+02

 Symmetrizing basis deriv contribution to polar:
 IMax=3 JMax=2 DiffMx= 0.00D+00
 G2DrvN: will do    13 centers at a time, making    1 passes.
 Calling FoFCou, ICntrl=  3107 FMM=F I1Cent=   0 AccDes= 0.00D+00.
 End of G2Drv F.D. properties file   721 does not exist.
 End of G2Drv F.D. properties file   722 does not exist.
 End of G2Drv F.D. properties file   788 does not exist.
          IDoAtm=111111111111
          Differentiating once with respect to electric field.
                with respect to dipole field.
          Differentiating once with respect to nuclear coordinates.
 CalDSu exits because no D1Ps are significant.
          There are    12 degrees of freedom in the 1st order CPHF.  IDoFFX=4 NUNeed=    12.
     12 vectors produced by pass  0 Test12= 1.10D-13 8.33D-09 XBig12= 1.67D+01 1.50D+00.
 AX will form    12 AO Fock derivatives at one time.
     12 vectors produced by pass  1 Test12= 1.10D-13 8.33D-09 XBig12= 3.52D+00 2.54D-01.
     12 vectors produced by pass  2 Test12= 1.10D-13 8.33D-09 XBig12= 3.72D-01 8.92D-02.
     12 vectors produced by pass  3 Test12= 1.10D-13 8.33D-09 XBig12= 2.54D-02 3.53D-02.
     12 vectors produced by pass  4 Test12= 1.10D-13 8.33D-09 XBig12= 1.69D-03 5.48D-03.
     12 vectors produced by pass  5 Test12= 1.10D-13 8.33D-09 XBig12= 7.89D-05 1.49D-03.
     12 vectors produced by pass  6 Test12= 1.10D-13 8.33D-09 XBig12= 1.60D-06 2.36D-04.
     12 vectors produced by pass  7 Test12= 1.10D-13 8.33D-09 XBig12= 2.87D-08 2.40D-05.
     11 vectors produced by pass  8 Test12= 1.10D-13 8.33D-09 XBig12= 5.30D-10 3.77D-06.
      5 vectors produced by pass  9 Test12= 1.10D-13 8.33D-09 XBig12= 1.41D-11 5.76D-07.
      3 vectors produced by pass 10 Test12= 1.10D-13 8.33D-09 XBig12= 2.85D-13 7.65D-08.
      2 vectors produced by pass 11 Test12= 1.10D-13 8.33D-09 XBig12= 3.82D-15 9.76D-09.
 InvSVY:  IOpt=1 It=  1 EMax= 1.78D-15
 Solved reduced A of dimension   117 with    12 vectors.
 Isotropic polarizability for W=    0.000000       50.52 Bohr**3.
 End of Minotr F.D. properties file   721 does not exist.
 End of Minotr F.D. properties file   722 does not exist.
 End of Minotr F.D. properties file   788 does not exist.

 **********************************************************************

            Population analysis using the SCF density.

 **********************************************************************

 Orbital symmetries:
       Occupied  (A1) (B2) (E) (E) (E) (E) (B2) (A1) (A1) (E) (E)
                 (B2) (A1) (E) (E) (B2) (B2) (A1) (E) (E) (A1)
                 (E) (E) (B2) (A1) (B2) (B1) (E) (E) (E) (E) (A1)
                 (B2) (A2) (E) (E) (A1) (A2) (E) (E) (B2) (B1)
                 (A1) (E) (E) (E) (E) (B1)
       Virtual   (B2) (A1) (E) (E) (B2) (A1) (E) (E) (B1) (B2)
                 (A1) (E) (E) (A2) (B2) (E) (E) (E) (E) (A1) (E)
                 (E) (A2) (B2) (E) (E) (A1) (A1) (B2) (E) (E) (B2)
                 (B1) (E) (E) (A2) (A1) (E) (E) (A1) (B2) (A1)
                 (B1) (B2) (E) (E) (E) (E) (A2) (A1) (B2) (E) (E)
                 (E) (E) (B2) (E) (E) (B2) (A1) (E) (E) (A2) (B1)
                 (A1) (A1) (E) (E) (B2) (A2) (B2) (E) (E) (A1)
                 (E) (E) (B2) (B1) (A1) (E) (E) (A1) (B1) (B2)
                 (E) (E) (B2) (E) (E) (E) (E) (A2) (A1) (B2) (E)
                 (E) (B1) (E) (E) (B2) (A2) (E) (E) (A1) (A2) (A1)
                 (E) (E) (B2) (B1) (A1) (E) (E) (E) (E) (B2) (B2)
                 (A1) (E) (E) (A1) (E) (E) (A2) (B1) (A2) (B2)
                 (B1) (E) (E) (B2) (A1) (E) (E) (E) (E) (A1) (B2)
                 (E) (E) (A1) (E) (E) (B2) (A2) (B1) (E) (E) (B2)
                 (E) (E) (A1) (E) (E) (A2) (B1) (A1) (B2) (A1)
                 (E) (E) (E) (E) (B1) (B2) (E) (E) (A1) (E) (E)
                 (B2) (B1) (A2) (A1) (A1) (B2) (E) (E) (E) (E)
                 (A2) (E) (E) (B1) (B2) (E) (E) (B2) (E) (E) (A1)
                 (A1) (A2) (A1) (B2) (E) (E) (E) (E) (B2) (A2)
                 (B1) (A1) (E) (E) (E) (E) (A2) (B2) (B1) (A1)
                 (E) (E) (B2) (A1) (E) (E) (E) (E) (B2) (A1) (E)
                 (E) (B2) (B1) (A2) (E) (E) (A1) (E) (E) (B2) (A2)
                 (A1) (B1) (E) (E) (E) (E) (B2) (A2) (E) (E) (B2)
                 (B1) (A1) (E) (E) (A2) (E) (E) (B1) (A1) (E) (E)
                 (A1) (E) (E) (B2) (B2) (B2) (E) (E) (A1) (E) (E)
                 (B2) (A1) (A1) (B2) (E) (E) (E) (E) (B2) (A1)
 The electronic state is 1-A1.
 Alpha  occ. eigenvalues --  -24.88004 -24.88004 -24.88004 -24.88004 -24.87998
 Alpha  occ. eigenvalues --  -24.87998 -24.87998 -24.87998 -10.53055 -10.53032
 Alpha  occ. eigenvalues --  -10.53032 -10.53012  -1.45059  -1.42502  -1.42502
 Alpha  occ. eigenvalues --   -1.42219  -1.37425  -1.36334  -1.36026  -1.36026
 Alpha  occ. eigenvalues --   -1.06403  -0.85066  -0.85066  -0.78344  -0.76276
 Alpha  occ. eigenvalues --   -0.73896  -0.72658  -0.71507  -0.71507  -0.68113
 Alpha  occ. eigenvalues --   -0.68113  -0.67844  -0.62496  -0.60382  -0.60288
 Alpha  occ. eigenvalues --   -0.60288  -0.59396  -0.57821  -0.57602  -0.57602
 Alpha  occ. eigenvalues --   -0.56480  -0.56268  -0.55406  -0.53177  -0.53177
 Alpha  occ. eigenvalues --   -0.50608  -0.50608  -0.43613
 Alpha virt. eigenvalues --    0.01217   0.04776   0.08305   0.08305   0.10219
 Alpha virt. eigenvalues --    0.12005   0.12756   0.12756   0.12818   0.12871
 Alpha virt. eigenvalues --    0.13431   0.16140   0.16140   0.17821   0.18204
 Alpha virt. eigenvalues --    0.19044   0.19044   0.21008   0.21008   0.21187
 Alpha virt. eigenvalues --    0.23071   0.23071   0.23495   0.26878   0.28273
 Alpha virt. eigenvalues --    0.28273   0.29831   0.33607   0.33729   0.33928
 Alpha virt. eigenvalues --    0.33928   0.36501   0.37782   0.37830   0.37830
 Alpha virt. eigenvalues --    0.38017   0.38167   0.40665   0.40665   0.41538
 Alpha virt. eigenvalues --    0.41633   0.42238   0.42562   0.42872   0.44225
 Alpha virt. eigenvalues --    0.44225   0.46031   0.46031   0.46425   0.47797
 Alpha virt. eigenvalues --    0.48032   0.49249   0.49249   0.50834   0.50834
 Alpha virt. eigenvalues --    0.51434   0.56295   0.56295   0.56548   0.59638
 Alpha virt. eigenvalues --    0.62209   0.62209   0.67319   0.67394   0.73872
 Alpha virt. eigenvalues --    0.75895   0.76161   0.76161   0.77180   0.82342
 Alpha virt. eigenvalues --    0.82570   0.85888   0.85888   0.86868   0.96382
 Alpha virt. eigenvalues --    0.96382   1.04985   1.10443   1.14711   1.15562
 Alpha virt. eigenvalues --    1.15562   1.20506   1.23205   1.25322   1.26975
 Alpha virt. eigenvalues --    1.26975   1.29122   1.31682   1.31682   1.33894
 Alpha virt. eigenvalues --    1.33894   1.37520   1.39228   1.40832   1.40855
 Alpha virt. eigenvalues --    1.40855   1.41192   1.43369   1.43369   1.44810
 Alpha virt. eigenvalues --    1.46718   1.47005   1.47005   1.47591   1.48493
 Alpha virt. eigenvalues --    1.48714   1.50924   1.50924   1.51096   1.52169
 Alpha virt. eigenvalues --    1.56522   1.59235   1.59235   1.60896   1.60896
 Alpha virt. eigenvalues --    1.64211   1.72554   1.75703   1.75771   1.75771
 Alpha virt. eigenvalues --    1.96471   1.99724   1.99724   2.03724   2.04985
 Alpha virt. eigenvalues --    2.07482   2.07983   2.08242   2.09547   2.09547
 Alpha virt. eigenvalues --    2.10921   2.12902   2.13325   2.13325   2.16268
 Alpha virt. eigenvalues --    2.16268   2.20325   2.26903   2.29661   2.29661
 Alpha virt. eigenvalues --    2.30431   2.35005   2.35005   2.41065   2.45139
 Alpha virt. eigenvalues --    2.45594   2.46402   2.46402   2.55874   2.56496
 Alpha virt. eigenvalues --    2.56496   2.57876   2.62643   2.62643   2.65387
 Alpha virt. eigenvalues --    2.70864   2.71999   2.75160   2.84411   2.86123
 Alpha virt. eigenvalues --    2.86123   2.95803   2.95803   2.96554   2.99107
 Alpha virt. eigenvalues --    3.04468   3.04468   3.07043   3.20933   3.20933
 Alpha virt. eigenvalues --    3.31232   3.35456   3.43006   3.48307   3.50753
 Alpha virt. eigenvalues --    3.50809   3.55851   3.55851   3.55972   3.55972
 Alpha virt. eigenvalues --    3.60811   3.62145   3.62145   3.66583   3.71500
 Alpha virt. eigenvalues --    3.78757   3.78757   3.84589   3.87225   3.87225
 Alpha virt. eigenvalues --    3.87997   4.17505   4.19955   4.32453   4.33321
 Alpha virt. eigenvalues --    4.37485   4.37485   4.44050   4.44050   4.66674
 Alpha virt. eigenvalues --    6.38844   6.39440   6.40331   6.42111   6.42111
 Alpha virt. eigenvalues --    6.43966   6.43966   6.45926   6.46669   6.47405
 Alpha virt. eigenvalues --    6.49478   6.54272   6.54272   6.54506   6.56606
 Alpha virt. eigenvalues --    6.60901   6.60901   6.65422   6.65422   6.81016
 Alpha virt. eigenvalues --    6.83194   6.88711   6.88711   6.88877   9.08670
 Alpha virt. eigenvalues --    9.09218   9.10240   9.10240   9.12959   9.14900
 Alpha virt. eigenvalues --    9.14900   9.15093   9.15793   9.19317   9.20258
 Alpha virt. eigenvalues --    9.22054   9.22054   9.25289   9.25289   9.26075
 Alpha virt. eigenvalues --    9.30517   9.31285   9.31285   9.32460   9.32498
 Alpha virt. eigenvalues --    9.35221   9.41113   9.41113   9.42696   9.50301
 Alpha virt. eigenvalues --    9.50301   9.59100   9.66113   9.67873   9.67873
 Alpha virt. eigenvalues --    9.73581   9.75231   9.75231   9.75633   9.78293
 Alpha virt. eigenvalues --    9.85648   9.86583   9.86583   9.87124  23.98854
 Alpha virt. eigenvalues --   23.98854  24.02099  24.24070  66.93082  66.96608
 Alpha virt. eigenvalues --   66.97525  66.97525  66.99179  66.99179  67.07101
 Alpha virt. eigenvalues --   67.07691
          Condensed to atoms (all electrons):
               1          2          3          4          5          6
     1  C    7.377851   0.308158   0.244092  -1.991743  -0.066486  -0.061495
     2  F    0.308158   9.150780  -0.055015  -0.061495   0.011290  -0.000209
     3  F    0.244092  -0.055015   9.150663  -0.066486   0.002745   0.011290
     4  C   -1.991743  -0.061495  -0.066486   7.377851   0.244092   0.308158
     5  F   -0.066486   0.011290   0.002745   0.244092   9.150663  -0.055015
     6  F   -0.061495  -0.000209   0.011290   0.308158  -0.055015   9.150780
     7  C    1.777150  -0.014657   0.017460  -1.991743  -0.066486  -0.061495
     8  F    0.017460   0.000654  -0.000999  -0.066486   0.002745   0.011290
     9  F   -0.014657  -0.011651   0.000654  -0.061495   0.011290  -0.000209
    10  C   -1.991743  -0.061495  -0.066486   1.777150   0.017460  -0.014657
    11  F   -0.066486   0.011290   0.002745   0.017460  -0.000999   0.000654
    12  F   -0.061495  -0.000209   0.011290  -0.014657   0.000654  -0.011651
               7          8          9         10         11         12
     1  C    1.777150   0.017460  -0.014657  -1.991743  -0.066486  -0.061495
     2  F   -0.014657   0.000654  -0.011651  -0.061495   0.011290  -0.000209
     3  F    0.017460  -0.000999   0.000654  -0.066486   0.002745   0.011290
     4  C   -1.991743  -0.066486  -0.061495   1.777150   0.017460  -0.014657
     5  F   -0.066486   0.002745   0.011290   0.017460  -0.000999   0.000654
     6  F   -0.061495   0.011290  -0.000209  -0.014657   0.000654  -0.011651
     7  C    7.377851   0.244092   0.308158  -1.991743  -0.066486  -0.061495
     8  F    0.244092   9.150663  -0.055015  -0.066486   0.002745   0.011290
     9  F    0.308158  -0.055015   9.150780  -0.061495   0.011290  -0.000209
    10  C   -1.991743  -0.066486  -0.061495   7.377851   0.244092   0.308158
    11  F   -0.066486   0.002745   0.011290   0.244092   9.150663  -0.055015
    12  F   -0.061495   0.011290  -0.000209   0.308158  -0.055015   9.150780
 Mulliken charges:
               1
     1  C    0.529395
     2  F   -0.277440
     3  F   -0.251955
     4  C    0.529395
     5  F   -0.251955
     6  F   -0.277440
     7  C    0.529395
     8  F   -0.251955
     9  F   -0.277440
    10  C    0.529395
    11  F   -0.251955
    12  F   -0.277440
 Sum of Mulliken charges =   0.00000
 Mulliken charges with hydrogens summed into heavy atoms:
               1
     1  C    0.529395
     2  F   -0.277440
     3  F   -0.251955
     4  C    0.529395
     5  F   -0.251955
     6  F   -0.277440
     7  C    0.529395
     8  F   -0.251955
     9  F   -0.277440
    10  C    0.529395
    11  F   -0.251955
    12  F   -0.277440
 APT charges:
               1
     1  C    0.958461
     2  F   -0.451921
     3  F   -0.506540
     4  C    0.958461
     5  F   -0.506540
     6  F   -0.451921
     7  C    0.958461
     8  F   -0.506540
     9  F   -0.451921
    10  C    0.958461
    11  F   -0.506540
    12  F   -0.451921
 Sum of APT charges =  -0.00000
 APT charges with hydrogens summed into heavy atoms:
               1
     1  C    0.958461
     2  F   -0.451921
     3  F   -0.506540
     4  C    0.958461
     5  F   -0.506540
     6  F   -0.451921
     7  C    0.958461
     8  F   -0.506540
     9  F   -0.451921
    10  C    0.958461
    11  F   -0.506540
    12  F   -0.451921
 Electronic spatial extent (au):  <R**2>=           1425.4400
 Charge=             -0.0000 electrons
 Dipole moment (field-independent basis, Debye):
    X=             -0.0000    Y=              0.0000    Z=             -0.0000  Tot=              0.0000
 Quadrupole moment (field-independent basis, Debye-Ang):
   XX=            -64.0871   YY=            -64.0871   ZZ=            -65.1611
   XY=             -0.0000   XZ=              0.0000   YZ=              0.0000
 Traceless Quadrupole moment (field-independent basis, Debye-Ang):
   XX=              0.3580   YY=              0.3580   ZZ=             -0.7160
   XY=             -0.0000   XZ=              0.0000   YZ=              0.0000
 Octapole moment (field-independent basis, Debye-Ang**2):
  XXX=              0.0000  YYY=              0.0000  ZZZ=              0.0000  XYY=              0.0000
  XXY=              0.0000  XXZ=              0.0452  XZZ=             -0.0000  YZZ=              0.0000
  YYZ=             -0.0452  XYZ=              0.0000
 Hexadecapole moment (field-independent basis, Debye-Ang**3):
 XXXX=           -528.3904 YYYY=           -528.3904 ZZZZ=           -350.6610 XXXY=             -0.0000
 XXXZ=              0.0000 YYYX=             -0.0000 YYYZ=              0.0000 ZZZX=              0.0000
 ZZZY=             -0.0000 XXYY=           -164.5079 XXZZ=           -145.0012 YYZZ=           -145.0012
 XXYZ=             -0.0000 YYXZ=              0.0000 ZZXY=             -0.0000
 N-N= 8.981399059480D+02 E-N=-4.055033237558D+03  KE= 9.485570942969D+02
 Symmetry A1   KE= 4.432326856336D+02
 Symmetry A2   KE= 2.906901122819D+01
 Symmetry B1   KE= 2.381276987176D+02
 Symmetry B2   KE= 2.381276987176D+02
  Exact polarizability:  50.761   0.000  50.761  -0.000  -0.000  50.034
 Approx polarizability:  54.037   0.000  54.037   0.000  -0.000  59.289
 Calling FoFJK, ICntrl=    100127 FMM=F ISym2X=1 I1Cent= 0 IOpClX= 0 NMat=1 NMatS=1 NMatT=0.
 Full mass-weighted force constant matrix:
 Low frequencies ---  -24.9268   -0.0005   -0.0002    0.0009   28.7320   28.7320
 Low frequencies ---  170.3785  183.2903  183.2903
 Diagonal vibrational polarizability:
       13.1109342      13.1109338      12.6906931
 Harmonic frequencies (cm**-1), IR intensities (KM/Mole), Raman scattering
 activities (A**4/AMU), depolarization ratios for plane and unpolarized
 incident light, reduced masses (AMU), force constants (mDyne/A),
 and normal coordinates:
                      1                      2                      3
                     A2                      E                      E
 Frequencies --    169.0162               182.5093               182.5093
 Red. masses --     18.9888                18.7188                18.7188
 Frc consts  --      0.3196                 0.3674                 0.3674
 IR Inten    --      0.0000                 0.2960                 0.2960
  Atom  AN      X      Y      Z        X      Y      Z        X      Y      Z
     1   6     0.00   0.02   0.00    -0.01   0.06   0.04     0.03   0.02  -0.11
     2   9    -0.00   0.44   0.00     0.09  -0.36   0.02    -0.26  -0.13  -0.06
     3   9     0.00  -0.23   0.00    -0.05   0.42  -0.06     0.14   0.15   0.17
     4   6     0.02   0.00  -0.00    -0.02   0.03  -0.11     0.06   0.01  -0.04
     5   9    -0.23   0.00  -0.00    -0.15   0.14   0.17     0.42   0.05   0.06
     6   9     0.44  -0.00  -0.00     0.13  -0.26  -0.06    -0.36  -0.09  -0.02
     7   6    -0.00  -0.02   0.00    -0.01   0.06  -0.04     0.03   0.02   0.11
     8   9    -0.00   0.23   0.00    -0.05   0.42   0.06     0.14   0.15  -0.17
     9   9     0.00  -0.44   0.00     0.09  -0.36  -0.02    -0.26  -0.13   0.06
    10   6    -0.02   0.00  -0.00    -0.02   0.03   0.11     0.06   0.01   0.04
    11   9     0.23   0.00  -0.00    -0.15   0.14  -0.17     0.42   0.05  -0.06
    12   9    -0.44  -0.00  -0.00     0.13  -0.26   0.06    -0.36  -0.09   0.02
                      4                      5                      6
                     A1                     B1                     B1
 Frequencies --    191.9187               235.5330               245.9200
 Red. masses --     18.7158                18.9974                18.7987
 Frc consts  --      0.4062                 0.6209                 0.6698
 IR Inten    --      0.0000                 0.0000                 0.0000
  Atom  AN      X      Y      Z        X      Y      Z        X      Y      Z
     1   6    -0.02  -0.00   0.10     0.00   0.01  -0.00    -0.00   0.08   0.00
     2   9    -0.23   0.00   0.13     0.00  -0.18  -0.00    -0.00   0.46   0.00
     3   9     0.11  -0.00   0.40     0.00   0.47  -0.00    -0.00   0.18  -0.00
     4   6     0.00   0.02  -0.10    -0.01  -0.00   0.00    -0.08   0.00   0.00
     5   9     0.00  -0.11  -0.40    -0.47  -0.00  -0.00    -0.18   0.00  -0.00
     6   9    -0.00   0.23  -0.13     0.18  -0.00   0.00    -0.46   0.00   0.00
     7   6     0.02  -0.00   0.10    -0.00  -0.01  -0.00    -0.00  -0.08  -0.00
     8   9    -0.11  -0.00   0.40    -0.00  -0.47  -0.00    -0.00  -0.18   0.00
     9   9     0.23   0.00   0.13    -0.00   0.18  -0.00     0.00  -0.46   0.00
    10   6     0.00  -0.02  -0.10     0.01  -0.00  -0.00     0.08  -0.00  -0.00
    11   9     0.00   0.11  -0.40     0.47  -0.00   0.00     0.18  -0.00  -0.00
    12   9    -0.00  -0.23  -0.13    -0.18   0.00   0.00     0.46  -0.00  -0.00
                      7                      8                      9
                      E                      E                     B2
 Frequencies --    281.4636               281.4636               290.7220
 Red. masses --     18.2496                18.2496                18.2208
 Frc consts  --      0.8518                 0.8518                 0.9073
 IR Inten    --      2.6004                 2.6004                 3.4793
  Atom  AN      X      Y      Z        X      Y      Z        X      Y      Z
     1   6    -0.21  -0.01   0.02     0.10  -0.03  -0.01     0.03  -0.00   0.16
     2   9    -0.14   0.12   0.01     0.06   0.26  -0.00     0.36  -0.00   0.14
     3   9    -0.33   0.17  -0.21     0.15   0.36   0.10    -0.14   0.00  -0.24
     4   6    -0.03  -0.10   0.01     0.01  -0.21   0.02     0.00   0.03   0.16
     5   9     0.36  -0.15  -0.10    -0.17  -0.33  -0.21    -0.00  -0.14  -0.24
     6   9     0.26  -0.06   0.00    -0.12  -0.14   0.01     0.00   0.36   0.14
     7   6    -0.21  -0.01  -0.02     0.10  -0.03   0.01    -0.03   0.00   0.16
     8   9    -0.33   0.17   0.21     0.15   0.36  -0.10     0.14   0.00  -0.24
     9   9    -0.14   0.12  -0.01     0.06   0.26   0.00    -0.36   0.00   0.14
    10   6    -0.03  -0.10  -0.01     0.01  -0.21  -0.02     0.00  -0.03   0.16
    11   9     0.36  -0.15   0.10    -0.17  -0.33   0.21    -0.00   0.14  -0.24
    12   9     0.26  -0.06  -0.00    -0.12  -0.14  -0.01    -0.00  -0.36   0.14
                     10                     11                     12
                      E                      E                     A1
 Frequencies --    412.0100               412.0100               425.9178
 Red. masses --     17.4207                17.4207                18.5590
 Frc consts  --      1.7423                 1.7423                 1.9836
 IR Inten    --      3.8998                 3.8998                 0.0000
  Atom  AN      X      Y      Z        X      Y      Z        X      Y      Z
     1   6    -0.10  -0.05   0.25     0.06  -0.08  -0.16     0.13   0.00  -0.00
     2   9     0.32  -0.11   0.25    -0.21  -0.17  -0.17     0.37   0.00  -0.03
     3   9    -0.17   0.09   0.17     0.11   0.14  -0.11     0.26  -0.00   0.15
     4   6    -0.08  -0.06   0.16     0.05  -0.10   0.25    -0.00  -0.13   0.00
     5   9     0.14  -0.11   0.11    -0.09  -0.17   0.17     0.00  -0.26  -0.15
     6   9    -0.17   0.21   0.17     0.11   0.32   0.25    -0.00  -0.37   0.03
     7   6    -0.10  -0.05  -0.25     0.06  -0.08   0.16    -0.13   0.00  -0.00
     8   9    -0.17   0.09  -0.17     0.11   0.14   0.11    -0.26  -0.00   0.15
     9   9     0.32  -0.11  -0.25    -0.21  -0.17   0.17    -0.37   0.00  -0.03
    10   6    -0.08  -0.06  -0.16     0.05  -0.10  -0.25    -0.00   0.13   0.00
    11   9     0.14  -0.11  -0.11    -0.09  -0.17  -0.17    -0.00   0.26  -0.15
    12   9    -0.17   0.21  -0.17     0.11   0.32  -0.25     0.00   0.37   0.03
                     13                     14                     15
                     B2                     A1                      E
 Frequencies --    426.7208               591.3080               613.2199
 Red. masses --     18.3088                18.2247                17.1322
 Frc consts  --      1.9643                 3.7544                 3.7957
 IR Inten    --      0.8603                 0.0000                20.7098
  Atom  AN      X      Y      Z        X      Y      Z        X      Y      Z
     1   6     0.14   0.00  -0.07     0.09   0.00  -0.14     0.23   0.01   0.20
     2   9     0.28   0.00  -0.10    -0.22  -0.00  -0.27    -0.19  -0.01   0.43
     3   9     0.33  -0.00   0.15     0.31  -0.00  -0.09     0.08  -0.00  -0.35
     4   6     0.00   0.14  -0.07     0.00  -0.09   0.14     0.19   0.02   0.01
     5   9    -0.00   0.33   0.15     0.00  -0.31   0.09    -0.04   0.01  -0.02
     6   9     0.00   0.28  -0.10    -0.00   0.22   0.27    -0.12  -0.01   0.03
     7   6    -0.14   0.00  -0.07    -0.09   0.00  -0.14     0.23   0.01  -0.20
     8   9    -0.33   0.00   0.15    -0.31  -0.00  -0.09     0.08  -0.00   0.35
     9   9    -0.28   0.00  -0.10     0.22   0.00  -0.27    -0.19  -0.01  -0.43
    10   6    -0.00  -0.14  -0.07     0.00   0.09   0.14     0.19   0.02  -0.01
    11   9    -0.00  -0.33   0.15    -0.00   0.31   0.09    -0.04   0.01   0.02
    12   9    -0.00  -0.28  -0.10    -0.00  -0.22   0.27    -0.12  -0.01  -0.03
                     16                     17                     18
                      E                     B2                     A1
 Frequencies --    613.2199               665.9025               721.8649
 Red. masses --     17.1322                18.0173                18.2072
 Frc consts  --      3.7957                 4.7072                 5.5899
 IR Inten    --     20.7098                 2.7677                 0.0000
  Atom  AN      X      Y      Z        X      Y      Z        X      Y      Z
     1   6    -0.02   0.19  -0.01     0.17  -0.00   0.07     0.13   0.00   0.11
     2   9     0.01  -0.12  -0.03    -0.17  -0.00   0.21    -0.06   0.00   0.35
     3   9    -0.01  -0.04   0.02     0.28   0.00  -0.25     0.21  -0.00  -0.22
     4   6    -0.01   0.23   0.20     0.00   0.17   0.07     0.00  -0.13  -0.11
     5   9     0.00   0.08  -0.35    -0.00   0.28  -0.25     0.00  -0.21   0.22
     6   9     0.01  -0.19   0.43    -0.00  -0.17   0.21    -0.00   0.06  -0.35
     7   6    -0.02   0.19   0.01    -0.17   0.00   0.07    -0.13  -0.00   0.11
     8   9    -0.01  -0.04  -0.02    -0.28  -0.00  -0.25    -0.21  -0.00  -0.22
     9   9     0.01  -0.12   0.03     0.17  -0.00   0.21     0.06   0.00   0.35
    10   6    -0.01   0.23  -0.20     0.00  -0.17   0.07     0.00   0.13  -0.11
    11   9     0.00   0.08   0.35    -0.00  -0.28  -0.25    -0.00   0.21   0.22
    12   9     0.01  -0.19  -0.43     0.00   0.17   0.21    -0.00  -0.06  -0.35
                     19                     20                     21
                     A2                      E                      E
 Frequencies --    857.0671               943.1113               943.1113
 Red. masses --     12.4297                14.0957                14.0957
 Frc consts  --      5.3795                 7.3869                 7.3869
 IR Inten    --      0.0000               251.4394               251.4394
  Atom  AN      X      Y      Z        X      Y      Z        X      Y      Z
     1   6     0.00   0.48   0.00     0.25   0.07  -0.01    -0.03   0.53   0.00
     2   9    -0.00  -0.07  -0.00    -0.02  -0.01  -0.11     0.00  -0.07   0.01
     3   9     0.00  -0.10  -0.00    -0.33  -0.01   0.11     0.04  -0.07  -0.01
     4   6     0.48   0.00  -0.00     0.53   0.03  -0.00    -0.07   0.25  -0.01
     5   9    -0.10   0.00   0.00    -0.07  -0.04   0.01     0.01  -0.33   0.11
     6   9    -0.07   0.00   0.00    -0.07  -0.00  -0.01     0.01  -0.02  -0.11
     7   6    -0.00  -0.48   0.00     0.25   0.07   0.01    -0.03   0.53  -0.00
     8   9     0.00   0.10   0.00    -0.33  -0.01  -0.11     0.04  -0.07   0.01
     9   9     0.00   0.07  -0.00    -0.02  -0.01   0.11     0.00  -0.07  -0.01
    10   6    -0.48   0.00  -0.00     0.53   0.03   0.00    -0.07   0.25   0.01
    11   9     0.10  -0.00  -0.00    -0.07  -0.04  -0.01     0.01  -0.33  -0.11
    12   9     0.07  -0.00   0.00    -0.07  -0.00   0.01     0.01  -0.02   0.11
                     22                     23                     24
                     B1                      E                      E
 Frequencies --   1023.9251              1126.9695              1126.9695
 Red. masses --     12.0815                13.2333                13.2333
 Frc consts  --      7.4629                 9.9025                 9.9025
 IR Inten    --      0.0000                11.5277                11.5277
  Atom  AN      X      Y      Z        X      Y      Z        X      Y      Z
     1   6    -0.00   0.50  -0.00    -0.10   0.04   0.54     0.06   0.08  -0.31
     2   9     0.00  -0.05  -0.00    -0.04  -0.02  -0.23     0.02  -0.03   0.13
     3   9     0.00  -0.02   0.00     0.09   0.00  -0.06    -0.05   0.00   0.03
     4   6    -0.50  -0.00   0.00     0.08  -0.06   0.31    -0.04  -0.10   0.54
     5   9     0.02   0.00  -0.00     0.00   0.05  -0.03    -0.00   0.09  -0.06
     6   9     0.05  -0.00  -0.00    -0.03  -0.02  -0.13     0.02  -0.04  -0.23
     7   6     0.00  -0.50  -0.00    -0.10   0.04  -0.54     0.06   0.08   0.31
     8   9    -0.00   0.02   0.00     0.09   0.00   0.06    -0.05   0.00  -0.03
     9   9    -0.00   0.05   0.00    -0.04  -0.02   0.23     0.02  -0.03  -0.13
    10   6     0.50  -0.00   0.00     0.08  -0.06  -0.31    -0.04  -0.10  -0.54
    11   9    -0.02   0.00  -0.00     0.00   0.05   0.03    -0.00   0.09   0.06
    12   9    -0.05   0.00  -0.00    -0.03  -0.02   0.13     0.02  -0.04   0.23
                     25                     26                     27
                     B2                     A1                     B2
 Frequencies --   1177.1143              1244.7906              1266.7843
 Red. masses --     13.7118                12.5042                12.6145
 Frc consts  --     11.1939                11.4156                11.9268
 IR Inten    --    541.6781                 0.0000                45.7519
  Atom  AN      X      Y      Z        X      Y      Z        X      Y      Z
     1   6     0.07  -0.00   0.43    -0.14   0.00   0.46     0.47   0.00  -0.07
     2   9    -0.05   0.00  -0.24     0.01   0.00  -0.11    -0.03   0.00  -0.01
     3   9     0.02  -0.00  -0.03     0.05   0.00  -0.05    -0.14  -0.00   0.05
     4   6     0.00   0.07   0.43    -0.00   0.14  -0.46    -0.00   0.47  -0.07
     5   9     0.00   0.02  -0.03     0.00  -0.05   0.05     0.00  -0.14   0.05
     6   9     0.00  -0.05  -0.24    -0.00  -0.01   0.11     0.00  -0.03  -0.01
     7   6    -0.07  -0.00   0.43     0.14  -0.00   0.46    -0.47  -0.00  -0.07
     8   9    -0.02   0.00  -0.03    -0.05  -0.00  -0.05     0.14  -0.00   0.05
     9   9     0.05   0.00  -0.24    -0.01   0.00  -0.11     0.03   0.00  -0.01
    10   6    -0.00  -0.07   0.43     0.00  -0.14  -0.46    -0.00  -0.47  -0.07
    11   9    -0.00  -0.02  -0.03    -0.00   0.05   0.05     0.00   0.14   0.05
    12   9    -0.00   0.05  -0.24     0.00   0.01   0.11    -0.00   0.03  -0.01
                     28                     29                     30
                      E                      E                     A1
 Frequencies --   1349.0283              1349.0283              1471.8915
 Red. masses --     12.3708                12.3708                12.4796
 Frc consts  --     13.2645                13.2645                15.9295
 IR Inten    --    137.7129               137.7129                 0.0000
  Atom  AN      X      Y      Z        X      Y      Z        X      Y      Z
     1   6     0.53   0.09   0.13     0.13  -0.38   0.03     0.46   0.00   0.14
     2   9    -0.04  -0.01  -0.08    -0.01   0.03  -0.02    -0.03   0.00  -0.06
     3   9    -0.12  -0.01   0.03    -0.03   0.04   0.01    -0.11  -0.00   0.02
     4   6    -0.38  -0.13  -0.03    -0.09   0.53   0.13    -0.00  -0.46  -0.14
     5   9     0.04   0.03  -0.01     0.01  -0.12   0.03     0.00   0.11  -0.02
     6   9     0.03   0.01   0.02     0.01  -0.04  -0.08    -0.00   0.03   0.06
     7   6     0.53   0.09  -0.13     0.13  -0.38  -0.03    -0.46   0.00   0.14
     8   9    -0.12  -0.01  -0.03    -0.03   0.04  -0.01     0.11  -0.00   0.02
     9   9    -0.04  -0.01   0.08    -0.01   0.03   0.02     0.03   0.00  -0.06
    10   6    -0.38  -0.13   0.03    -0.09   0.53  -0.13     0.00   0.46  -0.14
    11   9     0.04   0.03   0.01     0.01  -0.12  -0.03    -0.00  -0.11  -0.02
    12   9     0.03   0.01  -0.02     0.01  -0.04   0.08     0.00  -0.03   0.06

 -------------------
 - Thermochemistry -
 -------------------
 Temperature   298.150 Kelvin.  Pressure   1.00000 Atm.
 Atom     1 has atomic number  6 and mass  12.00000
 Atom     2 has atomic number  9 and mass  18.99840
 Atom     3 has atomic number  9 and mass  18.99840
 Atom     4 has atomic number  6 and mass  12.00000
 Atom     5 has atomic number  9 and mass  18.99840
 Atom     6 has atomic number  9 and mass  18.99840
 Atom     7 has atomic number  6 and mass  12.00000
 Atom     8 has atomic number  9 and mass  18.99840
 Atom     9 has atomic number  9 and mass  18.99840
 Atom    10 has atomic number  6 and mass  12.00000
 Atom    11 has atomic number  9 and mass  18.99840
 Atom    12 has atomic number  9 and mass  18.99840
 Molecular mass:   199.98723 amu.
 Principal axes and moments of inertia in atomic units:
                           1         2         3
     Eigenvalues --  1695.528001695.528001998.52935
           X            0.64371   0.76527   0.00000
           Y            0.76527  -0.64371   0.00000
           Z            0.00000   0.00000   1.00000
 This molecule is an oblate symmetric top.
 Rotational symmetry number  4.
 Warning -- assumption of classical behavior for rotation
           may cause significant error
 Rotational temperatures (Kelvin)      0.05108     0.05108     0.04334
 Rotational constants (GHZ):           1.06441     1.06441     0.90303
 Zero-point vibrational energy     124549.3 (Joules/Mol)
                                   29.76800 (Kcal/Mol)
 Warning -- explicit consideration of  16 degrees of freedom as
           vibrations may cause significant error
 Vibrational temperatures:    243.18   262.59   262.59   276.13   338.88
          (Kelvin)            353.82   404.96   404.96   418.28   592.79
                              592.79   612.80   613.96   850.76   882.29
                              882.29   958.09  1038.60  1233.13  1356.93
                             1356.93  1473.20  1621.46  1621.46  1693.60
                             1790.98  1822.62  1940.95  1940.95  2117.72
 
 Zero-point correction=                           0.047438 (Hartree/Particle)
 Thermal correction to Energy=                    0.057121
 Thermal correction to Enthalpy=                  0.058065
 Thermal correction to Gibbs Free Energy=         0.013957
 Sum of electronic and zero-point Energies=           -951.082764
 Sum of electronic and thermal Energies=              -951.073081
 Sum of electronic and thermal Enthalpies=            -951.072137
 Sum of electronic and thermal Free Energies=         -951.116245
 
                     E (Thermal)             CV                S
                      KCal/Mol        Cal/Mol-Kelvin    Cal/Mol-Kelvin
 Total                   35.844             35.752             92.833
 Electronic               0.000              0.000              0.000
 Translational            0.889              2.981             41.784
 Rotational               0.889              2.981             27.376
 Vibrational             34.066             29.791             23.673
 Vibration     1          0.625              1.881              2.446
 Vibration     2          0.630              1.864              2.303
 Vibration     3          0.630              1.864              2.303
 Vibration     4          0.634              1.851              2.209
 Vibration     5          0.655              1.786              1.836
 Vibration     6          0.660              1.770              1.760
 Vibration     7          0.681              1.708              1.525
 Vibration     8          0.681              1.708              1.525
 Vibration     9          0.687              1.691              1.470
 Vibration    10          0.776              1.444              0.920
 Vibration    11          0.776              1.444              0.920
 Vibration    12          0.788              1.414              0.872
 Vibration    13          0.788              1.412              0.869
 Vibration    14          0.949              1.050              0.465
 Vibration    15          0.973              1.004              0.427
 Vibration    16          0.973              1.004              0.427
                       Q            Log10(Q)             Ln(Q)
 Total Bot       0.380362D-06         -6.419803        -14.782143
 Total V=0       0.251360D+16         15.400296         35.460491
 Vib (Bot)       0.159512D-19        -19.797206        -45.584752
 Vib (Bot)    1  0.119273D+01          0.076541          0.176243
 Vib (Bot)    2  0.109954D+01          0.041209          0.094888
 Vib (Bot)    3  0.109954D+01          0.041209          0.094888
 Vib (Bot)    4  0.104211D+01          0.017912          0.041245
 Vib (Bot)    5  0.834178D+00         -0.078741         -0.181308
 Vib (Bot)    6  0.795162D+00         -0.099544         -0.229210
 Vib (Bot)    7  0.682549D+00         -0.165866         -0.381921
 Vib (Bot)    8  0.682549D+00         -0.165866         -0.381921
 Vib (Bot)    9  0.657528D+00         -0.182086         -0.419269
 Vib (Bot)   10  0.428765D+00         -0.367781         -0.846846
 Vib (Bot)   11  0.428765D+00         -0.367781         -0.846846
 Vib (Bot)   12  0.410389D+00         -0.386804         -0.890650
 Vib (Bot)   13  0.409362D+00         -0.387892         -0.893155
 Vib (Bot)   14  0.254779D+00         -0.593837         -1.367360
 Vib (Bot)   15  0.240184D+00         -0.619455         -1.426349
 Vib (Bot)   16  0.240184D+00         -0.619455         -1.426349
 Vib (V=0)       0.105413D+03          2.022892          4.657882
 Vib (V=0)    1  0.179329D+01          0.253650          0.584052
 Vib (V=0)    2  0.170788D+01          0.232458          0.535254
 Vib (V=0)    3  0.170788D+01          0.232458          0.535254
 Vib (V=0)    4  0.165585D+01          0.219021          0.504314
 Vib (V=0)    5  0.147255D+01          0.168070          0.386996
 Vib (V=0)    6  0.143930D+01          0.158151          0.364156
 Vib (V=0)    7  0.134609D+01          0.129075          0.297206
 Vib (V=0)    8  0.134609D+01          0.129075          0.297206
 Vib (V=0)    9  0.132604D+01          0.122557          0.282197
 Vib (V=0)   10  0.115866D+01          0.063958          0.147268
 Vib (V=0)   11  0.115866D+01          0.063958          0.147268
 Vib (V=0)   12  0.114685D+01          0.059508          0.137022
 Vib (V=0)   13  0.114620D+01          0.059261          0.136454
 Vib (V=0)   14  0.106117D+01          0.025785          0.059372
 Vib (V=0)   15  0.105470D+01          0.023128          0.053253
 Vib (V=0)   16  0.105470D+01          0.023128          0.053253
 Electronic      0.100000D+01          0.000000          0.000000
 Translational   0.111162D+09          8.045957         18.526501
 Rotational      0.214509D+06          5.331446         12.276108
 ***** Axes restored to original set *****
 -------------------------------------------------------------------
 Center     Atomic                   Forces (Hartrees/Bohr)
 Number     Number              X              Y              Z
 -------------------------------------------------------------------
      1        6           0.015369618    0.039301382    0.028826119
      2        9           0.005317792   -0.006464090    0.005514528
      3        9          -0.005288813   -0.020835133   -0.011544338
      4        6           0.042547471    0.003354243   -0.028111042
      5        9          -0.021648335    0.000996069    0.011211757
      6        9          -0.004507317    0.007061000   -0.005504521
      7        6          -0.020393983   -0.032395017   -0.033858784
      8        9           0.011344782    0.012510750    0.017610313
      9        9           0.004817326   -0.007467388    0.004637334
     10        6          -0.037523107   -0.010260608    0.033143707
     11        9           0.015592365    0.007328315   -0.017277731
     12        9          -0.005627801    0.006870478   -0.004647340
 -------------------------------------------------------------------
 Cartesian Forces:  Max     0.042547471 RMS     0.019170546

 GradGradGradGradGradGradGradGradGradGradGradGradGradGradGradGradGradGrad
 Berny optimization.
 Search for a local minimum.
 Step number   1 out of a maximum of    2
 All quantities printed in internal units (Hartrees-Bohrs-Radians)
 Second derivative matrix not updated -- analytic derivatives used.
 ITU=  0
     Eigenvalues ---    0.02054   0.02364   0.02364   0.02608   0.03988
     Eigenvalues ---    0.04301   0.05476   0.05476   0.05844   0.11215
     Eigenvalues ---    0.11215   0.12589   0.12717   0.23991   0.24231
     Eigenvalues ---    0.24231   0.30031   0.35172   0.35660   0.48138
     Eigenvalues ---    0.49593   0.49593   0.66591   0.66591   0.75092
     Eigenvalues ---    0.75479   0.79239   0.87407   0.87407   1.05144
 Quadratic step=1.036D+00 exceeds max=3.000D-01 adjusted using Lamda=-6.903D-02.
 Angle between NR and scaled steps=  13.76 degrees.
 Angle between quadratic step and forces=  56.81 degrees.
 ClnCor:  largest displacement from symmetrization is 5.29D-12 for atom    11.
 Linear search not attempted -- first point.
 ClnCor:  largest displacement from symmetrization is 3.64D-15 for atom     6.
 B after Tr=     0.000000   -0.000000   -0.000000
         Rot=    1.000000    0.000000   -0.000000    0.000000 Ang=   0.00 deg.
 Variable       Old X    -DE/DX   Delta X   Delta X   Delta X     New X
                                 (Linear)    (Quad)   (Total)
    X1       -0.88556   0.01537   0.00000   0.02974   0.02974  -0.85582
    Y1        2.83844   0.03930   0.00000   0.02022   0.02022   2.85866
    Z1        1.46109   0.02883   0.00000   0.04337   0.04337   1.50446
    X2       -2.07049   0.00532   0.00000   0.04022   0.04022  -2.03027
    Y2        4.80521  -0.00646   0.00000   0.01467   0.01467   4.81988
    Z2        0.34933   0.00551   0.00000   0.05584   0.05584   0.40516
    X3        0.42974  -0.00529   0.00000   0.03879   0.03879   0.46853
    Y3        3.84138  -0.02084   0.00000  -0.11047  -0.11047   3.73091
    Z3        3.40334  -0.01154   0.00000   0.02615   0.02615   3.42948
    X4        0.40325   0.04255   0.00000   0.02882   0.02882   0.43207
    Y4        1.12145   0.00335   0.00000   0.02291   0.02291   1.14436
    Z4       -0.50362  -0.02811   0.00000  -0.04265  -0.04265  -0.54627
    X5        1.78207  -0.02165   0.00000  -0.09357  -0.09357   1.68850
    Y5        2.10271   0.00100   0.00000   0.07012   0.07012   2.17284
    Z5       -2.41261   0.01121   0.00000  -0.02682  -0.02682  -2.43943
    X6        1.91213  -0.00451   0.00000   0.02683   0.02683   1.93896
    Y6       -0.60673   0.00706   0.00000   0.03471   0.03471  -0.57202
    Z6        0.61214  -0.00550   0.00000  -0.05501  -0.05501   0.55713
    X7       -2.26904  -0.02039   0.00000  -0.00642  -0.00642  -2.27546
    Y7        0.06493  -0.03240   0.00000  -0.05228  -0.05228   0.01266
    Z7       -0.96382  -0.03386   0.00000  -0.02001  -0.02001  -0.98383
    X8       -2.61735   0.01134   0.00000   0.07261   0.07261  -2.54474
    Y8       -2.26722   0.01251   0.00000  -0.04266  -0.04266  -2.30988
    Z8       -1.93748   0.01761   0.00000   0.08544   0.08544  -1.85204
    X9       -3.65401   0.00482   0.00000  -0.00119  -0.00119  -3.65520
    Y9        1.63068  -0.00747   0.00000  -0.06833  -0.06833   1.56235
    Z9       -2.42620   0.00464   0.00000  -0.01674  -0.01674  -2.44294
   X10       -2.69421  -0.03752   0.00000  -0.05214  -0.05214  -2.74635
   Y10        0.59477  -0.01026   0.00000   0.00914   0.00914   0.60392
   Z10        1.86596   0.03314   0.00000   0.01929   0.01929   1.88525
   X11       -5.04002   0.01559   0.00000  -0.01783  -0.01783  -5.05785
   Y11        0.94272   0.00733   0.00000   0.08300   0.08300   1.02572
   Z11        2.80635  -0.01728   0.00000  -0.08476  -0.08476   2.72159
   X12       -1.63319  -0.00563   0.00000  -0.06587  -0.06587  -1.69906
   Y12       -1.20956   0.00687   0.00000   0.01895   0.01895  -1.19062
   Z12        3.32434  -0.00465   0.00000   0.01591   0.01591   3.34025
         Item               Value     Threshold  Converged?
 Maximum Force            0.042547     0.000450     NO 
 RMS     Force            0.019171     0.000300     NO 
 Maximum Displacement     0.110472     0.001800     NO 
 RMS     Displacement     0.050019     0.001200     NO 
 Predicted change in Energy=-1.255653D-02
 GradGradGradGradGradGradGradGradGradGradGradGradGradGradGradGradGradGrad

 Dipole is zero, so no output in dipole orientation.

 ----------------------------------------------------------------------

 Electric dipole moment (input orientation):
 (Debye = 10**-18 statcoulomb cm , SI units = C m)
                  (au)            (Debye)         (10**-30 SI)
   Tot        0.000000D+00      0.000000D+00      0.000000D+00
   x          0.000000D+00      0.000000D+00      0.000000D+00
   y          0.000000D+00      0.000000D+00      0.000000D+00
   z          0.000000D+00      0.000000D+00      0.000000D+00

 Dipole polarizability, Alpha (input orientation).
 (esu units = cm**3 , SI units = C**2 m**2 J**-1)
 Alpha(0;0):
               (au)            (10**-24 esu)      (10**-40 SI)
   iso        0.505187D+02      0.748610D+01      0.832941D+01
   aniso      0.727002D+00      0.107731D+00      0.119866D+00
   xx         0.505743D+02      0.749433D+01      0.833857D+01
   yx         0.256712D+00      0.380408D-01      0.423261D-01
   yy         0.504082D+02      0.746972D+01      0.831118D+01
   zx        -0.187066D+00     -0.277203D-01     -0.308430D-01
   zy         0.257136D+00      0.381036D-01      0.423960D-01
   zz         0.505737D+02      0.749424D+01      0.833847D+01

 ----------------------------------------------------------------------
 1\1\GINC-CCLEARN2O\Freq\RwB97XD\6-311+G(2d)\C4F8\RAPPE\09-Jan-2022\0\\
 # freq wb97xd/6-311+g(2d) geom=connectivity\\Title Card Required\\0,1\
 C,-0.4686199295,1.5020356601,0.7731728996\F,-1.0956569728,2.5428078078
 ,0.1848550698\F,0.2274095853,2.0327702609,1.8009684459\C,0.2133883655,
 0.5934453807,-0.2665041738\F,0.9430285036,1.1127088092,-1.2766975947\F
 ,1.0118558907,-0.3210691395,0.3239302339\C,-1.2007257762,0.0343603959,
 -0.5100307661\F,-1.3850423088,-1.1997619883,-1.0252679381\F,-1.9336205
 453,0.8629162825,-1.2838914682\C,-1.4257121823,0.314739892,0.987423234
 \F,-2.6670653026,0.498864247,1.4850582807\F,-0.8642478951,-0.640073622
 2,1.7591673583\\Version=EM64M-G16RevA.03\State=1-A1\HF=-951.1302023\RM
 SD=1.278e-09\RMSF=1.917e-02\ZeroPoint=0.0474383\Thermal=0.0571208\Dipo
 le=0.,0.,0.\DipoleDeriv=0.7600333,-0.0549335,0.4064478,0.0169692,1.106
 4295,0.1703605,0.4224293,0.0763712,1.0089193,-0.3366104,0.1830217,-0.1
 171142,0.2063919,-0.6868653,0.1651097,-0.1119198,0.1345607,-0.332287,-
 0.4182034,-0.154177,-0.2704377,-0.1858158,-0.4460856,-0.2892479,-0.277
 4699,-0.2478905,-0.6553305,1.0729017,-0.0683628,-0.2830378,-0.1419443,
 0.8097926,-0.3422489,-0.1988783,-0.3842293,0.9926879,-0.5507694,-0.155
 2732,0.3563066,-0.1228957,-0.3286456,0.1743281,0.3192746,0.1928004,-0.
 6402044,-0.5422182,0.2704295,-0.1231299,0.2465135,-0.4814139,0.1630441
 ,-0.0957759,0.1493994,-0.3321306,0.6885998,-0.0055379,0.3240508,-0.077
 4407,1.3032754,0.0907026,0.3080693,0.184692,0.883507,-0.279342,-0.1420
 636,-0.0862294,-0.1104248,-0.8287392,-0.2757498,-0.0791972,-0.3171072,
 -0.4115382,-0.4280381,0.1775851,-0.2378343,0.1542148,-0.4349224,0.1529
 035,-0.2430288,0.1834525,-0.4928022,1.232833,-0.238266,-0.179955,-0.16
 46845,0.7724124,-0.286521,-0.2641145,-0.2445405,0.8701368,-0.8616639,0
 .0643466,0.2824891,0.0319691,-0.2559813,0.0028627,0.3195212,-0.0156097
 ,-0.4019742,-0.3375223,0.1232314,-0.071556,0.1471473,-0.5292568,0.2744
 563,-0.09891,0.288101,-0.4889837\Polar=50.5742742,0.2567118,50.4081619
 ,-0.1870658,0.2571359,50.5736567\Quadrupole=0.0610448,-0.1214113,0.060
 3665,0.2819698,-0.2054712,0.2824356\PG=D02D [2SGD(C2F4)]\NImag=0\\0.45
 926096,0.02677372,0.61462966,0.05148858,0.07727411,0.50890411,-0.10670
 603,0.07459900,-0.02566644,0.13139310,0.06705328,-0.22040240,0.0551958
 7,-0.10545952,0.26655174,-0.02734360,0.06505944,-0.09566879,0.08678398
 ,-0.08907069,0.14071498,-0.12322790,-0.05142648,-0.06529131,-0.0256025
 4,0.01025960,-0.04686281,0.14404502,-0.04433058,-0.11742174,-0.0658155
 2,0.01995463,0.01799574,0.02741849,0.04904871,0.11137939,-0.06371413,-
 0.07509109,-0.18199938,-0.04470793,0.01474540,-0.04317117,0.13514220,0
 .07797999,0.24298658,-0.09020964,0.02724346,0.04034829,-0.00847344,0.0
 1209213,0.00320050,0.00870081,-0.01928971,-0.03181989,0.61895421,0.008
 37640,-0.09994499,-0.04972275,0.02234628,-0.02053581,-0.00671663,0.003
 64131,-0.00473120,-0.00746409,-0.02048665,0.45839413,0.03613020,-0.052
 59641,-0.12201680,-0.01739164,0.02311370,0.01002590,0.00201908,-0.0106
 7139,-0.01685876,-0.08755337,-0.02716516,0.50544639,-0.00840281,-0.014
 67196,0.00955554,0.00138611,0.00108381,-0.00175072,0.00214765,0.003813
 45,0.00434520,-0.14782913,-0.03913883,0.08230928,0.14572914,0.00870483
 ,0.01167642,-0.00461966,-0.00275403,0.00348472,-0.00015123,-0.00061973
 ,0.00119046,0.00108963,-0.04640040,-0.09655206,0.04308967,0.05272738,0
 .11588453,0.01680430,0.02827678,-0.01616277,-0.00032338,-0.00444716,0.
 00432669,-0.00225043,-0.00371328,-0.00324263,0.09061477,0.03894672,-0.
 17826784,-0.11549426,-0.10658230,0.23679733,-0.00953264,0.01276103,-0.
 01707985,-0.00318672,0.00295596,0.00308929,0.00274734,0.00055925,0.004
 32460,-0.16867689,0.08659797,-0.04525168,0.02291156,-0.00559445,0.0001
 6902,0.19301295,0.02229286,-0.01950797,0.02347891,0.00797272,-0.006472
 96,-0.00417734,-0.00319224,0.00203728,-0.00108912,0.09431986,-0.157869
 03,0.04167161,0.00432694,-0.03150562,0.04728264,-0.12412426,0.20563467
 ,0.00541539,-0.00519409,0.01005726,0.00313247,-0.00420748,-0.00100253,
 0.00060075,0.00160914,0.00441290,-0.05408367,0.04607718,-0.09623130,-0
 .01117865,0.05294309,-0.04218392,0.05870378,-0.11054237,0.14001220,0.0
 2438699,-0.03079507,-0.02939807,-0.00624216,0.00088034,-0.00183093,-0.
 00637153,0.00117975,0.00649734,-0.15877049,-0.04266405,0.00117580,-0.0
 0622124,-0.00329787,0.00033699,-0.01365164,0.00113794,-0.01094293,0.48
 634950,-0.04407287,-0.02949348,-0.07342156,0.00504692,-0.00042721,0.00
 754508,-0.00227593,-0.00939489,-0.00258683,-0.04962227,-0.08082012,-0.
 01648797,-0.00562979,-0.00302628,0.00344734,0.03539260,0.00000636,0.01
 615287,0.03530873,0.53998305,-0.03234927,-0.05606517,-0.01310696,-0.00
 090484,0.00209863,-0.00540812,0.00572926,0.00193034,-0.00322327,-0.016
 66313,-0.01256729,-0.07258082,0.03699030,0.02167620,-0.00364163,-0.016
 72463,0.00158498,-0.00533807,0.08879505,0.07183944,0.55646219,-0.01024
 284,-0.00004002,0.00116575,0.00137912,-0.00036661,0.00060004,0.0020803
 1,-0.00168710,-0.00317560,0.01226856,-0.02701680,-0.01678274,-0.001537
 14,-0.00028888,0.00263466,0.00237304,0.00198195,0.00204700,-0.08528744
 ,-0.03237637,-0.01146235,0.06332841,-0.00349569,0.00127310,-0.00181014
 ,-0.00010263,-0.00058365,-0.00045453,-0.00122337,-0.00259820,-0.003115
 23,0.00928136,-0.02325370,-0.01082216,-0.00500336,-0.00101262,0.003573
 94,-0.00332412,0.00612932,-0.00098290,-0.03947227,-0.22197249,-0.08270
 295,0.02361668,0.33380636,0.00039767,0.00270702,-0.01001995,0.00065871
 ,-0.00079960,0.00154108,-0.00307253,-0.00372140,-0.00062067,0.00176745
 ,-0.00640310,-0.00190400,-0.00363923,-0.00138946,0.00264525,0.00010122
 ,0.00082843,0.00069516,-0.01303953,-0.07342738,-0.11538910,0.02397890,
 0.09417388,0.10127623,-0.00390609,0.00161638,0.00138632,0.00189456,-0.
 00863185,-0.00581272,0.00042278,-0.00066793,-0.00071703,-0.01266122,0.
 03210708,-0.02696836,0.00276573,-0.00072585,0.00271629,-0.01149011,-0.
 00158601,-0.00614358,-0.14228872,0.05584195,-0.07634824,0.00945341,0.0
 2130496,0.00141641,0.15015844,0.00578297,-0.00686461,0.00707640,-0.011
 33687,-0.00962735,-0.01804232,-0.00040395,0.00205168,-0.00026266,0.003
 76464,-0.00083195,0.00403394,0.00145170,0.00274357,-0.00255633,-0.0003
 2837,0.00115105,0.00061641,0.06338767,-0.12234886,0.07219827,0.0309999
 9,-0.07860630,0.02038534,-0.09954697,0.21484097,0.00231241,0.00162995,
 -0.00130679,-0.00641396,-0.01450640,-0.00673480,-0.00065836,-0.0006077
 3,-0.00013792,-0.00341532,0.01184377,-0.00549018,-0.00273651,-0.003420
 31,0.00368822,-0.00180088,-0.00155842,-0.00032315,-0.07467109,0.062334
 70,-0.15813964,0.00357129,0.00771225,0.01837491,0.11262770,-0.09283551
 ,0.17366040,-0.11432125,-0.06393921,0.01397629,0.00928763,0.02818337,-
 0.01161517,-0.00527407,-0.00524547,-0.00348042,-0.04822312,-0.02337444
 ,0.07800460,-0.00938985,-0.00124978,0.00043010,0.00087296,0.00293166,-
 0.00652796,-0.07320766,-0.00735865,0.03060069,0.00390708,-0.00467750,-
 0.01392611,-0.00017301,0.00805177,-0.02916569,0.55830609,-0.05670929,-
 0.12581906,-0.00755217,-0.00622955,-0.02317214,0.01493529,-0.00305434,
 -0.00307764,0.00065903,-0.00978663,0.04060890,0.00676350,0.00228657,-0
 .00618676,-0.00697154,-0.00133221,-0.00747403,0.00394228,-0.00267972,-
 0.06930884,-0.02398923,0.00649851,-0.01968666,-0.03579874,0.00386810,-
 0.00526568,0.03069283,0.01603987,0.47256922,0.01560785,0.01053325,-0.0
 7203112,0.00360730,0.01668466,-0.00509884,-0.03173558,-0.02897269,-0.0
 0453744,0.06246343,0.01451575,-0.01059922,-0.00361463,-0.00495394,-0.0
 0341309,-0.00165113,0.00150962,-0.00547641,0.01534830,-0.03528030,-0.1
 6965493,-0.00095973,0.00145933,0.00289043,-0.00024298,0.00692296,-0.01
 354465,-0.09472934,-0.06421751,0.55191943,-0.02548117,0.02077933,0.015
 18114,0.00542543,-0.00427629,0.00035693,-0.00252770,-0.00468412,-0.004
 33286,-0.00072243,-0.00646991,0.00145564,-0.00314458,0.00028262,0.0038
 8006,-0.00055658,0.00050570,0.00022852,-0.01768618,0.00181839,-0.00141
 713,0.00176876,0.00460029,0.00455506,0.00482825,-0.00287853,0.00275796
 ,-0.23277345,0.00475899,0.08056405,0.32644434,-0.01565962,0.01405535,0
 .01275439,0.00108066,0.00310856,-0.00220100,0.00002394,-0.00000981,-0.
 00148653,-0.00293355,-0.00821257,-0.00167627,-0.00019194,0.00244623,0.
 00214147,0.00023555,0.00135784,-0.00070637,0.01254864,0.00126612,0.001
 53149,-0.00038906,0.00050773,0.00051053,-0.00222010,0.00169357,-0.0010
 7465,0.01202056,-0.07669830,-0.01294913,-0.05611189,0.07364656,0.00502
 910,-0.00306753,-0.00146334,-0.00073276,0.00010919,0.00066353,0.002323
 86,0.00295707,0.00263300,-0.00258909,0.00034133,-0.01005470,0.00442284
 ,0.00187072,-0.00044021,0.00053750,-0.00086050,0.00153529,0.03813945,0
 .00268583,0.00353091,-0.00177993,-0.00409356,-0.00218100,-0.00303249,0
 .00004713,0.00267570,0.07225856,-0.00880619,-0.11317727,-0.09411180,0.
 00382378,0.09832010,0.00838242,-0.00290018,0.00433375,-0.00055506,-0.0
 0377421,0.00118519,0.00285984,0.00134913,0.00163852,-0.00435723,0.0060
 8164,-0.00714680,0.00158455,-0.00078384,0.00048186,-0.01482327,-0.0065
 6712,0.01874887,-0.00100945,0.00792728,-0.00624572,0.00050874,-0.00150
 436,0.00080196,0.00099598,0.00105596,-0.00240755,-0.08901135,0.0463397
 3,-0.04465754,-0.05557468,0.05159681,-0.02046524,0.15099952,0.02528400
 ,-0.02218029,0.02716211,-0.00511761,-0.00991924,0.00585545,-0.00077753
 ,0.00257892,-0.00337849,0.00181778,-0.00625160,0.00074695,-0.00105398,
 0.00085740,0.00060173,-0.00379895,0.00651311,0.00029224,0.00446593,-0.
 00446336,0.00246531,-0.00093228,0.00599712,0.00293449,-0.00135976,0.00
 106390,-0.00021049,0.03861783,-0.17648899,0.09474802,0.04167543,-0.013
 16129,0.00499273,-0.09882085,0.21545433,-0.00977851,0.00653374,-0.0051
 8547,0.00195848,0.00108387,-0.00018791,0.00405585,0.00160700,0.0037587
 6,-0.00226997,-0.00168571,-0.00146866,0.00079084,0.00044760,-0.0001054
 0,0.01558275,0.00187157,-0.00615742,-0.02041040,0.03719878,-0.01351054
 ,0.00016270,-0.00293793,0.00269166,0.00111869,0.00241640,-0.01272210,-
 0.03582555,0.09034245,-0.15727688,-0.00911757,-0.00066771,0.01795799,0
 .05373269,-0.13621005,0.17220597\\-0.01536962,-0.03930138,-0.02882612,
 -0.00531779,0.00646409,-0.00551453,0.00528881,0.02083513,0.01154434,-0
 .04254747,-0.00335424,0.02811104,0.02164834,-0.00099607,-0.01121176,0.
 00450732,-0.00706100,0.00550452,0.02039398,0.03239502,0.03385878,-0.01
 134478,-0.01251075,-0.01761031,-0.00481733,0.00746739,-0.00463733,0.03
 752311,0.01026061,-0.03314371,-0.01559237,-0.00732831,0.01727773,0.005
 62780,-0.00687048,0.00464734\\\@


      HUMANKIND PERIODICALLY GOES THROUGH A SPEEDUP OF ITS AFFAIRS, 
      THEREBY EXPERIENCING THE RACE BETWEEN THE RENEWABLE VITALITY
      OF THE LIVING, AND THE BECKONING VITIATION OF DECADENCE.
      IN THIS PERIODIC RACE, ANY PAUSE BECOMES A LUXURY.
      ONLY THEN CAN ONE REFLECT THAT ALL IS PERMITTED;
      ALL IS POSSIBLE.

                              -- THE APOCRYPHA OF MUAD'DIB
                                 CHILDREN OF DUNE, BY FRANK HERBERT
 Job cpu time:       0 days  0 hours 56 minutes  6.3 seconds.
 Elapsed time:       0 days  0 hours  7 minutes 18.9 seconds.
 File lengths (MBytes):  RWF=     74 Int=      0 D2E=      0 Chk=      8 Scr=      1
 Normal termination of Gaussian 16 at Sun Jan  9 16:41:53 2022.
