 Entering Gaussian System, Link 0=/applications/g16/g16/g16
 Initial command:
 /applications/g16/g16/l1.exe "/scratch/g98/Gau-53717.inp" -scrdir="/scratch/g98/"
 Entering Link 1 = /applications/g16/g16/l1.exe PID=     53718.
  
 Copyright (c) 1988,1990,1992,1993,1995,1998,2003,2009,2016,
            Gaussian, Inc.  All Rights Reserved.
  
 This is part of the Gaussian(R) 16 program.  It is based on
 the Gaussian(R) 09 system (copyright 2009, Gaussian, Inc.),
 the Gaussian(R) 03 system (copyright 2003, Gaussian, Inc.),
 the Gaussian(R) 98 system (copyright 1998, Gaussian, Inc.),
 the Gaussian(R) 94 system (copyright 1995, Gaussian, Inc.),
 the Gaussian 92(TM) system (copyright 1992, Gaussian, Inc.),
 the Gaussian 90(TM) system (copyright 1990, Gaussian, Inc.),
 the Gaussian 88(TM) system (copyright 1988, Gaussian, Inc.),
 the Gaussian 86(TM) system (copyright 1986, Carnegie Mellon
 University), and the Gaussian 82(TM) system (copyright 1983,
 Carnegie Mellon University). Gaussian is a federally registered
 trademark of Gaussian, Inc.
  
 This software contains proprietary and confidential information,
 including trade secrets, belonging to Gaussian, Inc.
  
 This software is provided under written license and may be
 used, copied, transmitted, or stored only in accord with that
 written license.
  
 The following legend is applicable only to US Government
 contracts under FAR:
  
                    RESTRICTED RIGHTS LEGEND
  
 Use, reproduction and disclosure by the US Government is
 subject to restrictions as set forth in subparagraphs (a)
 and (c) of the Commercial Computer Software - Restricted
 Rights clause in FAR 52.227-19.
  
 Gaussian, Inc.
 340 Quinnipiac St., Bldg. 40, Wallingford CT 06492
  
  
 ---------------------------------------------------------------
 Warning -- This program may not be used in any manner that
 competes with the business of Gaussian, Inc. or will provide
 assistance to any competitor of Gaussian, Inc.  The licensee
 of this program is prohibited from giving any competitor of
 Gaussian, Inc. access to this program.  By using this program,
 the user acknowledges that Gaussian, Inc. is engaged in the
 business of creating and licensing software in the field of
 computational chemistry and represents and warrants to the
 licensee that it is not a competitor of Gaussian, Inc. and that
 it will not use this program in any manner prohibited above.
 ---------------------------------------------------------------
  

 Cite this work as:
 Gaussian 16, Revision A.03,
 M. J. Frisch, G. W. Trucks, H. B. Schlegel, G. E. Scuseria, 
 M. A. Robb, J. R. Cheeseman, G. Scalmani, V. Barone, 
 G. A. Petersson, H. Nakatsuji, X. Li, M. Caricato, A. V. Marenich, 
 J. Bloino, B. G. Janesko, R. Gomperts, B. Mennucci, H. P. Hratchian, 
 J. V. Ortiz, A. F. Izmaylov, J. L. Sonnenberg, D. Williams-Young, 
 F. Ding, F. Lipparini, F. Egidi, J. Goings, B. Peng, A. Petrone, 
 T. Henderson, D. Ranasinghe, V. G. Zakrzewski, J. Gao, N. Rega, 
 G. Zheng, W. Liang, M. Hada, M. Ehara, K. Toyota, R. Fukuda, 
 J. Hasegawa, M. Ishida, T. Nakajima, Y. Honda, O. Kitao, H. Nakai, 
 T. Vreven, K. Throssell, J. A. Montgomery, Jr., J. E. Peralta, 
 F. Ogliaro, M. J. Bearpark, J. J. Heyd, E. N. Brothers, K. N. Kudin, 
 V. N. Staroverov, T. A. Keith, R. Kobayashi, J. Normand, 
 K. Raghavachari, A. P. Rendell, J. C. Burant, S. S. Iyengar, 
 J. Tomasi, M. Cossi, J. M. Millam, M. Klene, C. Adamo, R. Cammi, 
 J. W. Ochterski, R. L. Martin, K. Morokuma, O. Farkas, 
 J. B. Foresman, and D. J. Fox, Gaussian, Inc., Wallingford CT, 2016.
 
 ******************************************
 Gaussian 16:  EM64M-G16RevA.03 25-Dec-2016
                18-Nov-2025 
 ******************************************
 %mem=48GB
 %nprocshared=24
 Will use up to   24 processors via shared memory.
 %chk=cf2.chk
 ------------------------------------------------
 # opt freq uwb97xd/6-311+g(2d) geom=connectivity
 ------------------------------------------------
 1/18=20,19=15,26=3,38=1,57=2/1,3;
 2/9=110,12=2,17=6,18=5,40=1/2;
 3/5=4,6=6,7=12,11=2,25=1,30=1,71=1,74=-58,116=2/1,2,3;
 4//1;
 5/5=2,38=5/2;
 6/7=2,8=2,9=2,10=2,28=1/1;
 7//1,2,3,16;
 1/18=20,19=15,26=3/3(2);
 2/9=110/2;
 99//99;
 2/9=110/2;
 3/5=4,6=6,7=12,11=2,25=1,30=1,71=1,74=-58,116=2/1,2,3;
 4/5=5,16=3,69=1/1;
 5/5=2,38=5/2;
 7//1,2,3,16;
 1/18=20,19=15,26=3/3(-5);
 2/9=110/2;
 6/7=2,8=2,9=2,10=2,19=2,28=1/1;
 99/9=1/99;
 -------------------
 Title Card Required
 -------------------
 Symbolic Z-matrix:
 Charge =  0 Multiplicity = 1
 C                    -2.14946   0.07355   0.10155 
 F                    -2.59809  -1.13865   0.13428 
 F                    -3.18068   0.80991  -0.16504 
 

 GradGradGradGradGradGradGradGradGradGradGradGradGradGradGradGradGradGrad
 Berny optimization.
 Initialization pass.
                           ----------------------------
                           !    Initial Parameters    !
                           ! (Angstroms and Degrees)  !
 --------------------------                            --------------------------
 ! Name  Definition              Value          Derivative Info.                !
 --------------------------------------------------------------------------------
 ! R1    R(1,2)                  1.293          estimate D2E/DX2                !
 ! R2    R(1,3)                  1.2949         estimate D2E/DX2                !
 ! A1    A(2,1,3)              105.1904         estimate D2E/DX2                !
 --------------------------------------------------------------------------------
 Trust Radius=3.00D-01 FncErr=1.00D-07 GrdErr=1.00D-06 EigMax=2.50D+02 EigMin=1.00D-04
 Number of steps in this run=     20 maximum allowed number of steps=    100.
 GradGradGradGradGradGradGradGradGradGradGradGradGradGradGradGradGradGrad

                          Input orientation:                          
 ---------------------------------------------------------------------
 Center     Atomic      Atomic             Coordinates (Angstroms)
 Number     Number       Type             X           Y           Z
 ---------------------------------------------------------------------
      1          6           0       -2.149456    0.073546    0.101548
      2          9           0       -2.598093   -1.138648    0.134278
      3          9           0       -3.180682    0.809911   -0.165035
 ---------------------------------------------------------------------
                    Distance matrix (angstroms):
                    1          2          3
     1  C    0.000000
     2  F    1.292966   0.000000
     3  F    1.294885   2.055695   0.000000
 Stoichiometry    CF2
 Framework group  CS[SG(CF2)]
 Deg. of freedom     3
 Full point group                 CS      NOp   2
 Largest Abelian subgroup         CS      NOp   2
 Largest concise Abelian subgroup C1      NOp   1
                         Standard orientation:                         
 ---------------------------------------------------------------------
 Center     Atomic      Atomic             Coordinates (Angstroms)
 Number     Number       Type             X           Y           Z
 ---------------------------------------------------------------------
      1          6           0        0.000000    0.589489   -0.000000
      2          9           0        1.027846   -0.194917   -0.000000
      3          9           0       -1.027846   -0.198076    0.000000
 ---------------------------------------------------------------------
 Rotational constants (GHZ):          89.7021538          12.5896230          11.0401475
 Standard basis: 6-311+G(2d) (5D, 7F)
 There are    63 symmetry adapted cartesian basis functions of A'  symmetry.
 There are    24 symmetry adapted cartesian basis functions of A"  symmetry.
 There are    57 symmetry adapted basis functions of A'  symmetry.
 There are    24 symmetry adapted basis functions of A"  symmetry.
    81 basis functions,   126 primitive gaussians,    87 cartesian basis functions
    12 alpha electrons       12 beta electrons
       nuclear repulsion energy        65.0198615172 Hartrees.
 NAtoms=    3 NActive=    3 NUniq=    3 SFac= 1.00D+00 NAtFMM=   60 NAOKFM=F Big=F
 Integral buffers will be    131072 words long.
 Raffenetti 2 integral format.
 Two-electron integral symmetry is turned on.
 Nuclear repulsion after empirical dispersion term =       65.0198156834 Hartrees.
 One-electron integrals computed using PRISM.
 NBasis=    81 RedAO= T EigKep=  2.08D-03  NBF=    57    24
 NBsUse=    81 1.00D-06 EigRej= -1.00D+00 NBFU=    57    24
 ExpMin= 4.38D-02 ExpMax= 1.14D+04 ExpMxC= 1.72D+03 IAcc=3 IRadAn=         5 AccDes= 0.00D+00
 Harris functional with IExCor= 4639 and IRadAn=       5 diagonalized for initial guess.
 HarFok:  IExCor= 4639 AccDes= 0.00D+00 IRadAn=         5 IDoV= 1 UseB2=F ITyADJ=14
 ICtDFT=  3500011 ScaDFX=  1.000000  1.000000  1.000000  1.000000
 FoFCou: FMM=F IPFlag=           0 FMFlag=      100000 FMFlg1=           0
         NFxFlg=           0 DoJE=T BraDBF=F KetDBF=T FulRan=T
         wScrn=  0.000000 ICntrl=       500 IOpCl=  0 I1Cent=   200000004 NGrid=           0
         NMat0=    1 NMatS0=      1 NMatT0=    0 NMatD0=    1 NMtDS0=    0 NMtDT0=    0
 Petite list used in FoFCou.
 Initial guess orbital symmetries:
 Alpha Orbitals:
       Occupied  (A') (A') (A') (A') (A') (A') (A') (A") (A') (A")
                 (A') (A')
       Virtual   (A") (A') (A') (A') (A") (A') (A') (A") (A') (A')
                 (A") (A') (A') (A') (A') (A") (A') (A') (A") (A')
                 (A") (A') (A') (A') (A') (A") (A') (A") (A') (A')
                 (A') (A') (A") (A") (A') (A') (A') (A") (A") (A')
                 (A') (A') (A") (A') (A') (A") (A") (A') (A') (A')
                 (A") (A") (A') (A') (A') (A') (A") (A') (A") (A')
                 (A") (A') (A") (A') (A') (A') (A') (A') (A')
 Beta  Orbitals:
       Occupied  (A') (A') (A') (A') (A') (A') (A') (A") (A') (A")
                 (A') (A')
       Virtual   (A") (A') (A') (A') (A") (A') (A') (A") (A') (A')
                 (A") (A') (A') (A') (A') (A") (A') (A') (A") (A')
                 (A") (A') (A') (A') (A') (A") (A') (A") (A') (A')
                 (A') (A') (A") (A") (A') (A') (A') (A") (A") (A')
                 (A') (A') (A") (A') (A') (A") (A") (A') (A') (A')
                 (A") (A") (A') (A') (A') (A') (A") (A') (A") (A')
                 (A") (A') (A") (A') (A') (A') (A') (A') (A')
 The electronic state of the initial guess is 1-A'.
 Initial guess <Sx>= 0.0000 <Sy>= 0.0000 <Sz>= 0.0000 <S**2>= 0.0000 S= 0.0000
 Keep R1 and R2 ints in memory in symmetry-blocked form, NReq=32848339.
 Requested convergence on RMS density matrix=1.00D-08 within 128 cycles.
 Requested convergence on MAX density matrix=1.00D-06.
 Requested convergence on             energy=1.00D-06.
 No special actions if energy rises.
 SCF Done:  E(UwB97XD) =  -237.708527426     A.U. after   11 cycles
            NFock= 11  Conv=0.48D-08     -V/T= 2.0023
 <Sx>= 0.0000 <Sy>= 0.0000 <Sz>= 0.0000 <S**2>= 0.0000 S= 0.0000
 <L.S>= 0.000000000000E+00
 Annihilation of the first spin contaminant:
 S**2 before annihilation     0.0000,   after    -0.0000

 **********************************************************************

            Population analysis using the SCF density.

 **********************************************************************

 Orbital symmetries:
 Alpha Orbitals:
       Occupied  (A') (A') (A') (A') (A') (A') (A') (A") (A') (A")
                 (A') (A')
       Virtual   (A") (A') (A') (A") (A') (A') (A') (A') (A") (A')
                 (A") (A') (A') (A') (A') (A") (A') (A') (A') (A")
                 (A") (A') (A') (A') (A') (A") (A') (A") (A') (A')
                 (A') (A') (A") (A") (A') (A') (A') (A") (A") (A')
                 (A') (A') (A") (A') (A') (A") (A") (A') (A') (A')
                 (A") (A") (A') (A') (A') (A') (A") (A') (A") (A')
                 (A") (A') (A") (A') (A') (A') (A') (A') (A')
 Beta  Orbitals:
       Occupied  (A') (A') (A') (A') (A') (A') (A') (A") (A') (A")
                 (A') (A')
       Virtual   (A") (A') (A') (A") (A') (A') (A') (A') (A") (A')
                 (A") (A') (A') (A') (A') (A") (A') (A') (A') (A")
                 (A") (A') (A') (A') (A') (A") (A') (A") (A') (A')
                 (A') (A') (A") (A") (A') (A') (A') (A") (A") (A')
                 (A') (A') (A") (A') (A') (A") (A") (A') (A') (A')
                 (A") (A") (A') (A') (A') (A') (A") (A') (A") (A')
                 (A") (A') (A") (A') (A') (A') (A') (A') (A')
 The electronic state is 1-A'.
 Alpha  occ. eigenvalues --  -24.89650 -24.89566 -10.49681  -1.46138  -1.38280
 Alpha  occ. eigenvalues --   -0.81838  -0.71122  -0.66334  -0.65709  -0.58274
 Alpha  occ. eigenvalues --   -0.55642  -0.39949
 Alpha virt. eigenvalues --   -0.01512   0.08687   0.10280   0.11485   0.11507
 Alpha virt. eigenvalues --    0.27467   0.28637   0.28954   0.31853   0.31970
 Alpha virt. eigenvalues --    0.32911   0.33312   0.38046   0.39660   0.47265
 Alpha virt. eigenvalues --    0.58701   0.58994   0.68181   0.81602   0.82249
 Alpha virt. eigenvalues --    0.84062   0.95148   1.13843   1.21524   1.28950
 Alpha virt. eigenvalues --    1.34712   1.36538   1.37145   1.39393   1.48472
 Alpha virt. eigenvalues --    1.85770   1.94164   2.02155   2.03505   2.06560
 Alpha virt. eigenvalues --    2.11358   2.28193   2.30784   2.31509   2.46507
 Alpha virt. eigenvalues --    2.71480   2.84079   2.86696   3.21541   3.29630
 Alpha virt. eigenvalues --    3.34583   3.35372   3.43349   3.64978   4.21785
 Alpha virt. eigenvalues --    6.32284   6.32891   6.33544   6.40058   6.55348
 Alpha virt. eigenvalues --    6.83039   9.05624   9.06495   9.07923   9.09148
 Alpha virt. eigenvalues --    9.25985   9.29231   9.30762   9.44489   9.65540
 Alpha virt. eigenvalues --    9.75885  23.94840  66.85264  66.87339
  Beta  occ. eigenvalues --  -24.89650 -24.89566 -10.49681  -1.46138  -1.38280
  Beta  occ. eigenvalues --   -0.81838  -0.71122  -0.66334  -0.65709  -0.58274
  Beta  occ. eigenvalues --   -0.55642  -0.39949
  Beta virt. eigenvalues --   -0.01512   0.08687   0.10280   0.11485   0.11507
  Beta virt. eigenvalues --    0.27467   0.28637   0.28954   0.31853   0.31970
  Beta virt. eigenvalues --    0.32911   0.33312   0.38046   0.39660   0.47265
  Beta virt. eigenvalues --    0.58701   0.58994   0.68181   0.81602   0.82249
  Beta virt. eigenvalues --    0.84062   0.95148   1.13843   1.21524   1.28950
  Beta virt. eigenvalues --    1.34712   1.36538   1.37145   1.39393   1.48472
  Beta virt. eigenvalues --    1.85770   1.94164   2.02155   2.03505   2.06560
  Beta virt. eigenvalues --    2.11358   2.28193   2.30784   2.31509   2.46507
  Beta virt. eigenvalues --    2.71480   2.84079   2.86696   3.21541   3.29630
  Beta virt. eigenvalues --    3.34583   3.35372   3.43349   3.64978   4.21785
  Beta virt. eigenvalues --    6.32284   6.32891   6.33544   6.40058   6.55348
  Beta virt. eigenvalues --    6.83039   9.05624   9.06495   9.07923   9.09148
  Beta virt. eigenvalues --    9.25985   9.29231   9.30762   9.44489   9.65540
  Beta virt. eigenvalues --    9.75885  23.94840  66.85264  66.87339
          Condensed to atoms (all electrons):
               1          2          3
     1  C    5.825947  -0.030103  -0.029516
     2  F   -0.030103   9.122828   0.023185
     3  F   -0.029516   0.023185   9.124093
          Atomic-Atomic Spin Densities.
               1          2          3
     1  C    0.000000   0.000000   0.000000
     2  F    0.000000   0.000000   0.000000
     3  F    0.000000   0.000000   0.000000
 Mulliken charges and spin densities:
               1          2
     1  C    0.233673   0.000000
     2  F   -0.115910   0.000000
     3  F   -0.117762   0.000000
 Sum of Mulliken charges =   0.00000   0.00000
 Mulliken charges and spin densities with hydrogens summed into heavy atoms:
               1          2
     1  C    0.233673   0.000000
     2  F   -0.115910   0.000000
     3  F   -0.117762   0.000000
 Electronic spatial extent (au):  <R**2>=            113.3471
 Charge=              0.0000 electrons
 Dipole moment (field-independent basis, Debye):
    X=              0.0115    Y=             -0.6457    Z=              0.0000  Tot=              0.6458
 Quadrupole moment (field-independent basis, Debye-Ang):
   XX=            -15.8903   YY=            -17.3934   ZZ=            -14.4793
   XY=             -0.0002   XZ=              0.0000   YZ=              0.0000
 Traceless Quadrupole moment (field-independent basis, Debye-Ang):
   XX=              0.0307   YY=             -1.4724   ZZ=              1.4417
   XY=             -0.0002   XZ=              0.0000   YZ=              0.0000
 Octapole moment (field-independent basis, Debye-Ang**2):
  XXX=              0.0240  YYY=             -8.8027  ZZZ=             -0.0000  XYY=              0.0086
  XXY=             -1.7197  XXZ=             -0.0000  XZZ=              0.0061  YZZ=             -1.7554
  YYZ=             -0.0000  XYZ=             -0.0000
 Hexadecapole moment (field-independent basis, Debye-Ang**3):
 XXXX=            -71.5626 YYYY=            -35.1582 ZZZZ=            -11.4946 XXXY=             -0.0466
 XXXZ=              0.0000 YYYX=             -0.0408 YYYZ=             -0.0000 ZZZX=              0.0000
 ZZZY=             -0.0000 XXYY=            -16.5972 XXZZ=            -13.8071 YYZZ=             -7.1824
 XXYZ=             -0.0000 YYXZ=              0.0000 ZZXY=             -0.0150
 N-N= 6.501981568341D+01 E-N=-6.948898586594D+02  KE= 2.371645702292D+02
 Symmetry A'   KE= 2.251577048501D+02
 Symmetry A"   KE= 1.200686537916D+01
 Symmetry A'   SP= 0.000000000000D+00
 Symmetry A"   SP= 0.000000000000D+00
                          Isotropic Fermi Contact Couplings
        Atom                 a.u.       MegaHertz       Gauss      10(-4) cm-1
     1  C(13)              0.00000       0.00000       0.00000       0.00000
     2  F(19)              0.00000       0.00000       0.00000       0.00000
     3  F(19)              0.00000       0.00000       0.00000       0.00000
 --------------------------------------------------------
       Center         ----  Spin Dipole Couplings  ----
                      3XX-RR        3YY-RR        3ZZ-RR
 --------------------------------------------------------
     1   Atom        0.000000      0.000000      0.000000
     2   Atom        0.000000      0.000000      0.000000
     3   Atom        0.000000      0.000000      0.000000
 --------------------------------------------------------
                        XY            XZ            YZ
 --------------------------------------------------------
     1   Atom        0.000000      0.000000      0.000000
     2   Atom        0.000000      0.000000      0.000000
     3   Atom        0.000000      0.000000      0.000000
 --------------------------------------------------------


 ---------------------------------------------------------------------------------
              Anisotropic Spin Dipole Couplings in Principal Axis System
 ---------------------------------------------------------------------------------

       Atom             a.u.   MegaHertz   Gauss  10(-4) cm-1        Axes

              Baa     0.0000     0.000     0.000     0.000  1.0000  0.0000  0.0000
     1 C(13)  Bbb     0.0000     0.000     0.000     0.000  0.0000  1.0000  0.0000
              Bcc     0.0000     0.000     0.000     0.000  0.0000  0.0000  1.0000
 
              Baa     0.0000     0.000     0.000     0.000  1.0000  0.0000  0.0000
     2 F(19)  Bbb     0.0000     0.000     0.000     0.000  0.0000  1.0000  0.0000
              Bcc     0.0000     0.000     0.000     0.000  0.0000  0.0000  1.0000
 
              Baa     0.0000     0.000     0.000     0.000  1.0000  0.0000  0.0000
     3 F(19)  Bbb     0.0000     0.000     0.000     0.000  0.0000  1.0000  0.0000
              Bcc     0.0000     0.000     0.000     0.000  0.0000  0.0000  1.0000
 

 ---------------------------------------------------------------------------------

 Calling FoFJK, ICntrl=      2127 FMM=F ISym2X=1 I1Cent= 0 IOpClX= 1 NMat=1 NMatS=1 NMatT=0.
 ***** Axes restored to original set *****
 -------------------------------------------------------------------
 Center     Atomic                   Forces (Hartrees/Bohr)
 Number     Number              X              Y              Z
 -------------------------------------------------------------------
      1        6           0.005526159    0.002722009    0.000781552
      2        9          -0.002643392   -0.002961264   -0.000212851
      3        9          -0.002882766    0.000239255   -0.000568701
 -------------------------------------------------------------------
 Cartesian Forces:  Max     0.005526159 RMS     0.002646833

 GradGradGradGradGradGradGradGradGradGradGradGradGradGradGradGradGradGrad
 Berny optimization.
 FormGI is forming the generalized inverse of G from B-inverse, IUseBI=4.
 Internal  Forces:  Max     0.003688142 RMS     0.003328370
 Search for a local minimum.
 Step number   1 out of a maximum of   20
 All quantities printed in internal units (Hartrees-Bohrs-Radians)
 Mixed Optimization -- RFO/linear search
 Second derivative matrix not updated -- first step.
 The second derivative matrix:
                          R1        R2        A1
           R1           0.69185
           R2           0.00000   0.68634
           A1           0.00000   0.00000   0.25000
 ITU=  0
     Eigenvalues ---    0.25000   0.68634   0.69185
 RFO step:  Lambda=-8.16459252D-05 EMin= 2.50000000D-01
 Linear search not attempted -- first point.
 Iteration  1 RMS(Cart)=  0.00985911 RMS(Int)=  0.00005413
 Iteration  2 RMS(Cart)=  0.00006238 RMS(Int)=  0.00000000
 Iteration  3 RMS(Cart)=  0.00000000 RMS(Int)=  0.00000000
 ClnCor:  largest displacement from symmetrization is 3.26D-15 for atom     3.
 Variable       Old X    -DE/DX   Delta X   Delta X   Delta X     New X
                                 (Linear)    (Quad)   (Total)
    R1        2.44335   0.00369   0.00000   0.00533   0.00533   2.44868
    R2        2.44698   0.00255   0.00000   0.00371   0.00371   2.45069
    A1        1.83592  -0.00362   0.00000  -0.01449  -0.01449   1.82143
         Item               Value     Threshold  Converged?
 Maximum Force            0.003688     0.000450     NO 
 RMS     Force            0.003328     0.000300     NO 
 Maximum Displacement     0.010386     0.001800     NO 
 RMS     Displacement     0.009896     0.001200     NO 
 Predicted change in Energy=-4.083326D-05
 GradGradGradGradGradGradGradGradGradGradGradGradGradGradGradGradGradGrad

                          Input orientation:                          
 ---------------------------------------------------------------------
 Center     Atomic      Atomic             Coordinates (Angstroms)
 Number     Number       Type             X           Y           Z
 ---------------------------------------------------------------------
      1          6           0       -2.143960    0.075630    0.102386
      2          9           0       -2.602037   -1.136093    0.133284
      3          9           0       -3.182234    0.805272   -0.164879
 ---------------------------------------------------------------------
                    Distance matrix (angstroms):
                    1          2          3
     1  C    0.000000
     2  F    1.295786   0.000000
     3  F    1.296850   2.048030   0.000000
 Stoichiometry    CF2
 Framework group  CS[SG(CF2)]
 Deg. of freedom     3
 Full point group                 CS      NOp   2
 Largest Abelian subgroup         CS      NOp   2
 Largest concise Abelian subgroup C1      NOp   1
                         Standard orientation:                         
 ---------------------------------------------------------------------
 Center     Atomic      Atomic             Coordinates (Angstroms)
 Number     Number       Type             X           Y           Z
 ---------------------------------------------------------------------
      1          6           0        0.000000    0.596160    0.000000
      2          9           0        1.024015   -0.197853   -0.000000
      3          9           0       -1.024015   -0.199587   -0.000000
 ---------------------------------------------------------------------
 Rotational constants (GHZ):          87.7058155          12.6840311          11.0814323
 Standard basis: 6-311+G(2d) (5D, 7F)
 There are    63 symmetry adapted cartesian basis functions of A'  symmetry.
 There are    24 symmetry adapted cartesian basis functions of A"  symmetry.
 There are    57 symmetry adapted basis functions of A'  symmetry.
 There are    24 symmetry adapted basis functions of A"  symmetry.
    81 basis functions,   126 primitive gaussians,    87 cartesian basis functions
    12 alpha electrons       12 beta electrons
       nuclear repulsion energy        65.0163466539 Hartrees.
 NAtoms=    3 NActive=    3 NUniq=    3 SFac= 1.00D+00 NAtFMM=   60 NAOKFM=F Big=F
 Integral buffers will be    131072 words long.
 Raffenetti 2 integral format.
 Two-electron integral symmetry is turned on.
 Nuclear repulsion after empirical dispersion term =       65.0163016884 Hartrees.
 One-electron integrals computed using PRISM.
 NBasis=    81 RedAO= T EigKep=  2.09D-03  NBF=    57    24
 NBsUse=    81 1.00D-06 EigRej= -1.00D+00 NBFU=    57    24
 Initial guess from the checkpoint file:  "cf2.chk"
 B after Tr=     0.000000    0.000000   -0.000000
         Rot=    1.000000   -0.000000    0.000000    0.000300 Ang=   0.03 deg.
 Initial guess orbital symmetries:
 Alpha Orbitals:
       Occupied  (A') (A') (A') (A') (A') (A') (A') (A") (A') (A")
                 (A') (A')
       Virtual   (A") (A') (A') (A") (A') (A') (A') (A') (A") (A')
                 (A") (A') (A') (A') (A') (A") (A') (A') (A') (A")
                 (A") (A') (A') (A') (A') (A") (A') (A") (A') (A')
                 (A') (A') (A") (A") (A') (A') (A') (A") (A") (A')
                 (A') (A') (A") (A') (A') (A") (A") (A') (A') (A')
                 (A") (A") (A') (A') (A') (A') (A") (A') (A") (A')
                 (A") (A') (A") (A') (A') (A') (A') (A') (A')
 Beta  Orbitals:
       Occupied  (A') (A') (A') (A') (A') (A') (A') (A") (A') (A")
                 (A') (A')
       Virtual   (A") (A') (A') (A") (A') (A') (A') (A') (A") (A')
                 (A") (A') (A') (A') (A') (A") (A') (A') (A') (A")
                 (A") (A') (A') (A') (A') (A") (A') (A") (A') (A')
                 (A') (A') (A") (A") (A') (A') (A') (A") (A") (A')
                 (A') (A') (A") (A') (A') (A") (A") (A') (A') (A')
                 (A") (A") (A') (A') (A') (A') (A") (A') (A") (A')
                 (A") (A') (A") (A') (A') (A') (A') (A') (A')
 Initial guess <Sx>= 0.0000 <Sy>= 0.0000 <Sz>= 0.0000 <S**2>=-0.0000 S=-0.0000
 Keep R1 and R2 ints in memory in symmetry-blocked form, NReq=32848339.
 Requested convergence on RMS density matrix=1.00D-08 within 128 cycles.
 Requested convergence on MAX density matrix=1.00D-06.
 Requested convergence on             energy=1.00D-06.
 No special actions if energy rises.
 SCF Done:  E(UwB97XD) =  -237.708550997     A.U. after    9 cycles
            NFock=  9  Conv=0.75D-08     -V/T= 2.0023
 <Sx>= 0.0000 <Sy>= 0.0000 <Sz>= 0.0000 <S**2>= 0.0000 S= 0.0000
 <L.S>= 0.000000000000E+00
 Annihilation of the first spin contaminant:
 S**2 before annihilation    -0.0000,   after     0.0000
 Calling FoFJK, ICntrl=      2127 FMM=F ISym2X=1 I1Cent= 0 IOpClX= 1 NMat=1 NMatS=1 NMatT=0.
 ***** Axes restored to original set *****
 -------------------------------------------------------------------
 Center     Atomic                   Forces (Hartrees/Bohr)
 Number     Number              X              Y              Z
 -------------------------------------------------------------------
      1        6          -0.000034477    0.000497199   -0.000054768
      2        9           0.000557414   -0.002711403    0.000368570
      3        9          -0.000522937    0.002214204   -0.000313802
 -------------------------------------------------------------------
 Cartesian Forces:  Max     0.002711403 RMS     0.001216748

 GradGradGradGradGradGradGradGradGradGradGradGradGradGradGradGradGradGrad
 Berny optimization.
 Using GEDIIS/GDIIS optimizer.
 FormGI is forming the generalized inverse of G from B-inverse, IUseBI=4.
 Internal  Forces:  Max     0.003704434 RMS     0.002721654
 Search for a local minimum.
 Step number   2 out of a maximum of   20
 All quantities printed in internal units (Hartrees-Bohrs-Radians)
 Mixed Optimization -- RFO/linear search
 Update second derivatives using D2CorX and points    1    2
 DE= -2.36D-05 DEPred=-4.08D-05 R= 5.77D-01
 TightC=F SS=  1.41D+00  RLast= 1.59D-02 DXNew= 5.0454D-01 4.7644D-02
 Trust test= 5.77D-01 RLast= 1.59D-02 DXMaxT set to 3.00D-01
 The second derivative matrix:
                          R1        R2        A1
           R1           0.54069
           R2          -0.10570   0.61254
           A1           0.07926   0.06151   0.55061
 ITU=  1  0
 Use linear search instead of GDIIS.
     Eigenvalues ---    0.39877   0.61666   0.68841
 RFO step:  Lambda=-2.58144639D-05 EMin= 3.98769428D-01
 Quartic linear search produced a step of -0.29724.
 Iteration  1 RMS(Cart)=  0.00604733 RMS(Int)=  0.00000952
 Iteration  2 RMS(Cart)=  0.00000753 RMS(Int)=  0.00000000
 Iteration  3 RMS(Cart)=  0.00000000 RMS(Int)=  0.00000000
 ClnCor:  largest displacement from symmetrization is 9.14D-16 for atom     1.
 Variable       Old X    -DE/DX   Delta X   Delta X   Delta X     New X
                                 (Linear)    (Quad)   (Total)
    R1        2.44868   0.00235  -0.00158   0.00566   0.00407   2.45276
    R2        2.45069   0.00173  -0.00110   0.00405   0.00295   2.45364
    A1        1.82143   0.00370   0.00431   0.00149   0.00580   1.82722
         Item               Value     Threshold  Converged?
 Maximum Force            0.003704     0.000450     NO 
 RMS     Force            0.002722     0.000300     NO 
 Maximum Displacement     0.006963     0.001800     NO 
 RMS     Displacement     0.006050     0.001200     NO 
 Predicted change in Energy=-1.808070D-05
 GradGradGradGradGradGradGradGradGradGradGradGradGradGradGradGradGradGrad

                          Input orientation:                          
 ---------------------------------------------------------------------
 Center     Atomic      Atomic             Coordinates (Angstroms)
 Number     Number       Type             X           Y           Z
 ---------------------------------------------------------------------
      1          6           0       -2.145171    0.075457    0.102173
      2          9           0       -2.600440   -1.139605    0.133927
      3          9           0       -3.182620    0.808957   -0.165309
 ---------------------------------------------------------------------
                    Distance matrix (angstroms):
                    1          2          3
     1  C    0.000000
     2  F    1.297942   0.000000
     3  F    1.298410   2.055570   0.000000
 Stoichiometry    CF2
 Framework group  CS[SG(CF2)]
 Deg. of freedom     3
 Full point group                 CS      NOp   2
 Largest Abelian subgroup         CS      NOp   2
 Largest concise Abelian subgroup C1      NOp   1
                         Standard orientation:                         
 ---------------------------------------------------------------------
 Center     Atomic      Atomic             Coordinates (Angstroms)
 Number     Number       Type             X           Y           Z
 ---------------------------------------------------------------------
      1          6           0       -0.000000    0.594783    0.000000
      2          9           0        1.027785   -0.197878   -0.000000
      3          9           0       -1.027785   -0.198644   -0.000000
 ---------------------------------------------------------------------
 Rotational constants (GHZ):          88.1123728          12.5911525          11.0168568
 Standard basis: 6-311+G(2d) (5D, 7F)
 There are    63 symmetry adapted cartesian basis functions of A'  symmetry.
 There are    24 symmetry adapted cartesian basis functions of A"  symmetry.
 There are    57 symmetry adapted basis functions of A'  symmetry.
 There are    24 symmetry adapted basis functions of A"  symmetry.
    81 basis functions,   126 primitive gaussians,    87 cartesian basis functions
    12 alpha electrons       12 beta electrons
       nuclear repulsion energy        64.8764855457 Hartrees.
 NAtoms=    3 NActive=    3 NUniq=    3 SFac= 1.00D+00 NAtFMM=   60 NAOKFM=F Big=F
 Integral buffers will be    131072 words long.
 Raffenetti 2 integral format.
 Two-electron integral symmetry is turned on.
 Nuclear repulsion after empirical dispersion term =       64.8764396508 Hartrees.
 One-electron integrals computed using PRISM.
 NBasis=    81 RedAO= T EigKep=  2.11D-03  NBF=    57    24
 NBsUse=    81 1.00D-06 EigRej= -1.00D+00 NBFU=    57    24
 Initial guess from the checkpoint file:  "cf2.chk"
 B after Tr=    -0.000000   -0.000000    0.000000
         Rot=    1.000000    0.000000    0.000000    0.000206 Ang=   0.02 deg.
 Initial guess orbital symmetries:
 Alpha Orbitals:
       Occupied  (A') (A') (A') (A') (A') (A') (A') (A") (A') (A")
                 (A') (A')
       Virtual   (A") (A') (A') (A') (A") (A') (A') (A') (A") (A')
                 (A") (A') (A') (A') (A') (A") (A') (A') (A') (A")
                 (A") (A') (A') (A') (A') (A") (A') (A") (A') (A')
                 (A') (A') (A") (A") (A') (A') (A') (A") (A") (A')
                 (A') (A') (A") (A') (A') (A") (A") (A') (A') (A')
                 (A") (A") (A') (A') (A') (A') (A") (A') (A") (A')
                 (A") (A') (A") (A') (A') (A') (A') (A') (A')
 Beta  Orbitals:
       Occupied  (A') (A') (A') (A') (A') (A') (A') (A") (A') (A")
                 (A') (A')
       Virtual   (A") (A') (A') (A') (A") (A') (A') (A') (A") (A')
                 (A") (A') (A') (A') (A') (A") (A') (A') (A') (A")
                 (A") (A') (A') (A') (A') (A") (A') (A") (A') (A')
                 (A') (A') (A") (A") (A') (A') (A') (A") (A") (A')
                 (A') (A') (A") (A') (A') (A") (A") (A') (A') (A')
                 (A") (A") (A') (A') (A') (A') (A") (A') (A") (A')
                 (A") (A') (A") (A') (A') (A') (A') (A') (A')
 Initial guess <Sx>= 0.0000 <Sy>= 0.0000 <Sz>= 0.0000 <S**2>=-0.0000 S=-0.0000
 Keep R1 and R2 ints in memory in symmetry-blocked form, NReq=32848339.
 Requested convergence on RMS density matrix=1.00D-08 within 128 cycles.
 Requested convergence on MAX density matrix=1.00D-06.
 Requested convergence on             energy=1.00D-06.
 No special actions if energy rises.
 SCF Done:  E(UwB97XD) =  -237.708567756     A.U. after    9 cycles
            NFock=  9  Conv=0.50D-08     -V/T= 2.0024
 <Sx>= 0.0000 <Sy>= 0.0000 <Sz>= 0.0000 <S**2>= 0.0000 S= 0.0000
 <L.S>= 0.000000000000E+00
 Annihilation of the first spin contaminant:
 S**2 before annihilation    -0.0000,   after     0.0000
 Calling FoFJK, ICntrl=      2127 FMM=F ISym2X=1 I1Cent= 0 IOpClX= 1 NMat=1 NMatS=1 NMatT=0.
 ***** Axes restored to original set *****
 -------------------------------------------------------------------
 Center     Atomic                   Forces (Hartrees/Bohr)
 Number     Number              X              Y              Z
 -------------------------------------------------------------------
      1        6          -0.000246546    0.000140416   -0.000060277
      2        9          -0.000019091    0.000124400   -0.000015683
      3        9           0.000265638   -0.000264816    0.000075961
 -------------------------------------------------------------------
 Cartesian Forces:  Max     0.000265638 RMS     0.000165557

 GradGradGradGradGradGradGradGradGradGradGradGradGradGradGradGradGradGrad
 Berny optimization.
 Using GEDIIS/GDIIS optimizer.
 FormGI is forming the generalized inverse of G from B-inverse, IUseBI=4.
 Internal  Forces:  Max     0.000377506 RMS     0.000243889
 Search for a local minimum.
 Step number   3 out of a maximum of   20
 All quantities printed in internal units (Hartrees-Bohrs-Radians)
 Mixed Optimization -- En-DIIS/RFO-DIIS
 Update second derivatives using D2CorX and points    1    2    3
 DE= -1.68D-05 DEPred=-1.81D-05 R= 9.27D-01
 TightC=F SS=  1.41D+00  RLast= 7.67D-03 DXNew= 5.0454D-01 2.3019D-02
 Trust test= 9.27D-01 RLast= 7.67D-03 DXMaxT set to 3.00D-01
 The second derivative matrix:
                          R1        R2        A1
           R1           0.53549
           R2          -0.07809   0.65816
           A1           0.08734   0.08367   0.56183
 ITU=  1  1  0
 Use linear search instead of GDIIS.
     Eigenvalues ---    0.40837   0.63538   0.71173
 RFO step:  Lambda=-1.17105426D-07 EMin= 4.08373866D-01
 Quartic linear search produced a step of -0.06436.
 Iteration  1 RMS(Cart)=  0.00038342 RMS(Int)=  0.00000002
 Iteration  2 RMS(Cart)=  0.00000002 RMS(Int)=  0.00000000
 ClnCor:  largest displacement from symmetrization is 1.80D-15 for atom     3.
 Variable       Old X    -DE/DX   Delta X   Delta X   Delta X     New X
                                 (Linear)    (Quad)   (Total)
    R1        2.45276  -0.00011  -0.00026  -0.00001  -0.00027   2.45248
    R2        2.45364  -0.00038  -0.00019  -0.00040  -0.00059   2.45305
    A1        1.82722  -0.00015  -0.00037   0.00022  -0.00015   1.82707
         Item               Value     Threshold  Converged?
 Maximum Force            0.000378     0.000450     YES
 RMS     Force            0.000244     0.000300     YES
 Maximum Displacement     0.000457     0.001800     YES
 RMS     Displacement     0.000383     0.001200     YES
 Predicted change in Energy=-1.367176D-07
 Optimization completed.
    -- Stationary point found.
                           ----------------------------
                           !   Optimized Parameters   !
                           ! (Angstroms and Degrees)  !
 --------------------------                            --------------------------
 ! Name  Definition              Value          Derivative Info.                !
 --------------------------------------------------------------------------------
 ! R1    R(1,2)                  1.2979         -DE/DX =   -0.0001              !
 ! R2    R(1,3)                  1.2984         -DE/DX =   -0.0004              !
 ! A1    A(2,1,3)              104.6921         -DE/DX =   -0.0002              !
 --------------------------------------------------------------------------------
 GradGradGradGradGradGradGradGradGradGradGradGradGradGradGradGradGradGrad

                          Input orientation:                          
 ---------------------------------------------------------------------
 Center     Atomic      Atomic             Coordinates (Angstroms)
 Number     Number       Type             X           Y           Z
 ---------------------------------------------------------------------
      1          6           0       -2.145171    0.075457    0.102173
      2          9           0       -2.600440   -1.139605    0.133927
      3          9           0       -3.182620    0.808957   -0.165309
 ---------------------------------------------------------------------
                    Distance matrix (angstroms):
                    1          2          3
     1  C    0.000000
     2  F    1.297942   0.000000
     3  F    1.298410   2.055570   0.000000
 Stoichiometry    CF2
 Framework group  CS[SG(CF2)]
 Deg. of freedom     3
 Full point group                 CS      NOp   2
 Largest Abelian subgroup         CS      NOp   2
 Largest concise Abelian subgroup C1      NOp   1
                         Standard orientation:                         
 ---------------------------------------------------------------------
 Center     Atomic      Atomic             Coordinates (Angstroms)
 Number     Number       Type             X           Y           Z
 ---------------------------------------------------------------------
      1          6           0        0.000000    0.594783    0.000000
      2          9           0        1.027785   -0.197878   -0.000000
      3          9           0       -1.027785   -0.198644    0.000000
 ---------------------------------------------------------------------
 Rotational constants (GHZ):          88.1123728          12.5911525          11.0168568

 **********************************************************************

            Population analysis using the SCF density.

 **********************************************************************

 Orbital symmetries:
 Alpha Orbitals:
       Occupied  (A') (A') (A') (A') (A') (A') (A') (A") (A') (A")
                 (A') (A')
       Virtual   (A") (A') (A') (A') (A") (A') (A') (A') (A") (A')
                 (A") (A') (A') (A') (A') (A") (A') (A') (A') (A")
                 (A") (A') (A') (A') (A') (A") (A') (A") (A') (A')
                 (A') (A') (A") (A") (A') (A') (A') (A") (A") (A')
                 (A') (A') (A") (A') (A') (A") (A") (A') (A') (A')
                 (A") (A") (A') (A') (A') (A') (A") (A') (A") (A')
                 (A") (A') (A") (A') (A') (A') (A') (A') (A')
 Beta  Orbitals:
       Occupied  (A') (A') (A') (A') (A') (A') (A') (A") (A') (A")
                 (A') (A')
       Virtual   (A") (A') (A') (A') (A") (A') (A') (A') (A") (A')
                 (A") (A') (A') (A') (A') (A") (A') (A') (A') (A")
                 (A") (A') (A') (A') (A') (A") (A') (A") (A') (A')
                 (A') (A') (A") (A") (A') (A') (A') (A") (A") (A')
                 (A') (A') (A") (A') (A') (A") (A") (A') (A') (A')
                 (A") (A") (A') (A') (A') (A') (A") (A') (A") (A')
                 (A") (A') (A") (A') (A') (A') (A') (A') (A')
 The electronic state is 1-A'.
 Alpha  occ. eigenvalues --  -24.89539 -24.89518 -10.49829  -1.45908  -1.38056
 Alpha  occ. eigenvalues --   -0.81763  -0.70929  -0.66165  -0.65574  -0.58153
 Alpha  occ. eigenvalues --   -0.55498  -0.40166
 Alpha virt. eigenvalues --   -0.01678   0.08706   0.10251   0.11477   0.11484
 Alpha virt. eigenvalues --    0.27069   0.28513   0.28904   0.31871   0.31956
 Alpha virt. eigenvalues --    0.32903   0.33267   0.37982   0.39652   0.47293
 Alpha virt. eigenvalues --    0.58681   0.58925   0.67964   0.81473   0.82268
 Alpha virt. eigenvalues --    0.83858   0.94950   1.13798   1.21584   1.28894
 Alpha virt. eigenvalues --    1.34796   1.36617   1.37168   1.39480   1.48474
 Alpha virt. eigenvalues --    1.85969   1.94149   2.02098   2.03692   2.06314
 Alpha virt. eigenvalues --    2.11107   2.28418   2.30558   2.31299   2.46069
 Alpha virt. eigenvalues --    2.70562   2.83349   2.86643   3.21516   3.29213
 Alpha virt. eigenvalues --    3.34354   3.34966   3.42906   3.64603   4.21760
 Alpha virt. eigenvalues --    6.32360   6.32943   6.33552   6.40194   6.54852
 Alpha virt. eigenvalues --    6.81488   9.05637   9.06417   9.08048   9.09099
 Alpha virt. eigenvalues --    9.25751   9.29455   9.30635   9.43920   9.65347
 Alpha virt. eigenvalues --    9.75933  23.93633  66.85439  66.87340
  Beta  occ. eigenvalues --  -24.89539 -24.89518 -10.49829  -1.45908  -1.38056
  Beta  occ. eigenvalues --   -0.81763  -0.70929  -0.66165  -0.65574  -0.58153
  Beta  occ. eigenvalues --   -0.55498  -0.40166
  Beta virt. eigenvalues --   -0.01678   0.08706   0.10251   0.11477   0.11484
  Beta virt. eigenvalues --    0.27069   0.28513   0.28904   0.31871   0.31956
  Beta virt. eigenvalues --    0.32903   0.33267   0.37982   0.39652   0.47293
  Beta virt. eigenvalues --    0.58681   0.58925   0.67964   0.81473   0.82268
  Beta virt. eigenvalues --    0.83858   0.94950   1.13798   1.21584   1.28894
  Beta virt. eigenvalues --    1.34796   1.36617   1.37168   1.39480   1.48474
  Beta virt. eigenvalues --    1.85969   1.94149   2.02098   2.03692   2.06314
  Beta virt. eigenvalues --    2.11107   2.28418   2.30558   2.31299   2.46069
  Beta virt. eigenvalues --    2.70562   2.83349   2.86643   3.21516   3.29213
  Beta virt. eigenvalues --    3.34354   3.34966   3.42906   3.64603   4.21760
  Beta virt. eigenvalues --    6.32360   6.32943   6.33552   6.40194   6.54852
  Beta virt. eigenvalues --    6.81488   9.05637   9.06417   9.08048   9.09099
  Beta virt. eigenvalues --    9.25751   9.29455   9.30635   9.43920   9.65347
  Beta virt. eigenvalues --    9.75933  23.93633  66.85439  66.87340
          Condensed to atoms (all electrons):
               1          2          3
     1  C    5.812832  -0.025573  -0.025431
     2  F   -0.025573   9.123356   0.021078
     3  F   -0.025431   0.021078   9.123663
          Atomic-Atomic Spin Densities.
               1          2          3
     1  C    0.000000   0.000000   0.000000
     2  F    0.000000   0.000000   0.000000
     3  F    0.000000   0.000000   0.000000
 Mulliken charges and spin densities:
               1          2
     1  C    0.238172   0.000000
     2  F   -0.118862   0.000000
     3  F   -0.119310   0.000000
 Sum of Mulliken charges =  -0.00000   0.00000
 Mulliken charges and spin densities with hydrogens summed into heavy atoms:
               1          2
     1  C    0.238172   0.000000
     2  F   -0.118862   0.000000
     3  F   -0.119310   0.000000
 Electronic spatial extent (au):  <R**2>=            113.5215
 Charge=             -0.0000 electrons
 Dipole moment (field-independent basis, Debye):
    X=              0.0028    Y=             -0.6093    Z=             -0.0000  Tot=              0.6093
 Quadrupole moment (field-independent basis, Debye-Ang):
   XX=            -15.9223   YY=            -17.3659   ZZ=            -14.4795
   XY=             -0.0001   XZ=             -0.0000   YZ=             -0.0000
 Traceless Quadrupole moment (field-independent basis, Debye-Ang):
   XX=              0.0002   YY=             -1.4433   ZZ=              1.4431
   XY=             -0.0001   XZ=             -0.0000   YZ=             -0.0000
 Octapole moment (field-independent basis, Debye-Ang**2):
  XXX=              0.0058  YYY=             -8.7947  ZZZ=             -0.0000  XYY=              0.0021
  XXY=             -1.7241  XXZ=             -0.0000  XZZ=              0.0015  YZZ=             -1.7469
  YYZ=             -0.0000  XYZ=              0.0000
 Hexadecapole moment (field-independent basis, Debye-Ang**3):
 XXXX=            -71.6750 YYYY=            -35.3239 ZZZZ=            -11.4686 XXXY=             -0.0113
 XXXZ=             -0.0000 YYYX=             -0.0099 YYYZ=             -0.0000 ZZZX=              0.0000
 ZZZY=             -0.0000 XXYY=            -16.6238 XXZZ=            -13.8166 YYZZ=             -7.1977
 XXYZ=             -0.0000 YYXZ=              0.0000 ZZXY=             -0.0036
 N-N= 6.487643965075D+01 E-N=-6.946105002885D+02  KE= 2.371480517162D+02
 Symmetry A'   KE= 2.251417265119D+02
 Symmetry A"   KE= 1.200632520430D+01
 Symmetry A'   SP= 0.000000000000D+00
 Symmetry A"   SP= 0.000000000000D+00
                          Isotropic Fermi Contact Couplings
        Atom                 a.u.       MegaHertz       Gauss      10(-4) cm-1
     1  C(13)              0.00000       0.00000       0.00000       0.00000
     2  F(19)              0.00000       0.00000       0.00000       0.00000
     3  F(19)              0.00000       0.00000       0.00000       0.00000
 --------------------------------------------------------
       Center         ----  Spin Dipole Couplings  ----
                      3XX-RR        3YY-RR        3ZZ-RR
 --------------------------------------------------------
     1   Atom        0.000000      0.000000      0.000000
     2   Atom        0.000000      0.000000      0.000000
     3   Atom        0.000000      0.000000      0.000000
 --------------------------------------------------------
                        XY            XZ            YZ
 --------------------------------------------------------
     1   Atom        0.000000      0.000000      0.000000
     2   Atom        0.000000      0.000000      0.000000
     3   Atom        0.000000      0.000000      0.000000
 --------------------------------------------------------


 ---------------------------------------------------------------------------------
              Anisotropic Spin Dipole Couplings in Principal Axis System
 ---------------------------------------------------------------------------------

       Atom             a.u.   MegaHertz   Gauss  10(-4) cm-1        Axes

              Baa     0.0000     0.000     0.000     0.000  1.0000  0.0000  0.0000
     1 C(13)  Bbb     0.0000     0.000     0.000     0.000  0.0000  1.0000  0.0000
              Bcc     0.0000     0.000     0.000     0.000  0.0000  0.0000  1.0000
 
              Baa     0.0000     0.000     0.000     0.000  1.0000  0.0000  0.0000
     2 F(19)  Bbb     0.0000     0.000     0.000     0.000  0.0000  1.0000  0.0000
              Bcc     0.0000     0.000     0.000     0.000  0.0000  0.0000  1.0000
 
              Baa     0.0000     0.000     0.000     0.000  1.0000  0.0000  0.0000
     3 F(19)  Bbb     0.0000     0.000     0.000     0.000  0.0000  1.0000  0.0000
              Bcc     0.0000     0.000     0.000     0.000  0.0000  0.0000  1.0000
 

 ---------------------------------------------------------------------------------

 1\1\GINC-CCLEARTI\FOpt\UwB97XD\6-311+G(2d)\C1F2\RAPPE\18-Nov-2025\0\\#
  opt freq uwb97xd/6-311+g(2d) geom=connectivity\\Title Card Required\\
 0,1\C,-2.1451714995,0.0754573428,0.1021732629\F,-2.6004395041,-1.13960
 4972,0.1339268452\F,-3.1826199964,0.8089566291,-0.1653091081\\Version=
 EM64M-G16RevA.03\State=1-A'\HF=-237.7085678\S2=0.\S2-1=0.\S2A=0.\RMSD=
 5.026e-09\RMSF=1.656e-04\Dipole=-0.2252815,-0.0738141,-0.035466\Quadru
 pole=-0.9137073,-0.0890833,1.0027906,-0.3254759,-0.3443318,0.0511638\P
 G=CS [SG(C1F2)]\\@


 FESTINA LENTE!
     - IMPERATOR AUGUSTUS 
 Job cpu time:       0 days  0 hours  3 minutes 44.7 seconds.
 Elapsed time:       0 days  0 hours  0 minutes  9.8 seconds.
 File lengths (MBytes):  RWF=     10 Int=      0 D2E=      0 Chk=      2 Scr=      1
 Normal termination of Gaussian 16 at Tue Nov 18 05:48:35 2025.
 Link1:  Proceeding to internal job step number  2.
 ----------------------------------------------------------------------
 #N Geom=AllCheck Guess=TCheck SCRF=Check GenChk UwB97XD/6-311+G(2d) Fr
 eq
 ----------------------------------------------------------------------
 1/10=4,29=7,30=1,38=1,40=1/1,3;
 2/12=2,40=1/2;
 3/5=4,6=6,7=12,11=2,14=-4,25=1,30=1,70=2,71=2,74=-58,116=2,140=1/1,2,3;
 4/5=101/1;
 5/5=2,38=6,98=1/2;
 8/6=4,10=90,11=11/1;
 11/6=1,8=1,9=11,15=111,16=1/1,2,10;
 10/6=1/2;
 6/7=2,8=2,9=2,10=2,28=1/1;
 7/8=1,10=1,25=1/1,2,3,16;
 1/10=4,30=1/3;
 99//99;
 Structure from the checkpoint file:  "cf2.chk"
 -------------------
 Title Card Required
 -------------------
 Charge =  0 Multiplicity = 1
 Redundant internal coordinates found in file.  (old form).
 C,0,-2.1451714995,0.0754573428,0.1021732629
 F,0,-2.6004395041,-1.139604972,0.1339268452
 F,0,-3.1826199964,0.8089566291,-0.1653091081
 Recover connectivity data from disk.

 GradGradGradGradGradGradGradGradGradGradGradGradGradGradGradGradGradGrad
 Berny optimization.
 Initialization pass.
                           ----------------------------
                           !    Initial Parameters    !
                           ! (Angstroms and Degrees)  !
 --------------------------                            --------------------------
 ! Name  Definition              Value          Derivative Info.                !
 --------------------------------------------------------------------------------
 ! R1    R(1,2)                  1.2979         calculate D2E/DX2 analytically  !
 ! R2    R(1,3)                  1.2984         calculate D2E/DX2 analytically  !
 ! A1    A(2,1,3)              104.6921         calculate D2E/DX2 analytically  !
 --------------------------------------------------------------------------------
 Trust Radius=3.00D-01 FncErr=1.00D-07 GrdErr=1.00D-07 EigMax=2.50D+02 EigMin=1.00D-04
 Number of steps in this run=      2 maximum allowed number of steps=      2.
 GradGradGradGradGradGradGradGradGradGradGradGradGradGradGradGradGradGrad

                          Input orientation:                          
 ---------------------------------------------------------------------
 Center     Atomic      Atomic             Coordinates (Angstroms)
 Number     Number       Type             X           Y           Z
 ---------------------------------------------------------------------
      1          6           0       -2.145171    0.075457    0.102173
      2          9           0       -2.600440   -1.139605    0.133927
      3          9           0       -3.182620    0.808957   -0.165309
 ---------------------------------------------------------------------
                    Distance matrix (angstroms):
                    1          2          3
     1  C    0.000000
     2  F    1.297942   0.000000
     3  F    1.298410   2.055570   0.000000
 Stoichiometry    CF2
 Framework group  CS[SG(CF2)]
 Deg. of freedom     3
 Full point group                 CS      NOp   2
 Largest Abelian subgroup         CS      NOp   2
 Largest concise Abelian subgroup C1      NOp   1
                         Standard orientation:                         
 ---------------------------------------------------------------------
 Center     Atomic      Atomic             Coordinates (Angstroms)
 Number     Number       Type             X           Y           Z
 ---------------------------------------------------------------------
      1          6           0        0.000000    0.594783    0.000000
      2          9           0        1.027785   -0.197878    0.000000
      3          9           0       -1.027785   -0.198644   -0.000000
 ---------------------------------------------------------------------
 Rotational constants (GHZ):          88.1123728          12.5911525          11.0168568
 Standard basis: 6-311+G(2d) (5D, 7F)
 There are    63 symmetry adapted cartesian basis functions of A'  symmetry.
 There are    24 symmetry adapted cartesian basis functions of A"  symmetry.
 There are    57 symmetry adapted basis functions of A'  symmetry.
 There are    24 symmetry adapted basis functions of A"  symmetry.
    81 basis functions,   126 primitive gaussians,    87 cartesian basis functions
    12 alpha electrons       12 beta electrons
       nuclear repulsion energy        64.8764855457 Hartrees.
 NAtoms=    3 NActive=    3 NUniq=    3 SFac= 1.00D+00 NAtFMM=   60 NAOKFM=F Big=F
 Integral buffers will be    131072 words long.
 Raffenetti 2 integral format.
 Two-electron integral symmetry is turned on.
 Nuclear repulsion after empirical dispersion term =       64.8764396508 Hartrees.
 One-electron integrals computed using PRISM.
 NBasis=    81 RedAO= T EigKep=  2.11D-03  NBF=    57    24
 NBsUse=    81 1.00D-06 EigRej= -1.00D+00 NBFU=    57    24
 Initial guess from the checkpoint file:  "cf2.chk"
 B after Tr=    -0.000000    0.000000   -0.000000
         Rot=    1.000000    0.000000    0.000000   -0.000000 Ang=   0.00 deg.
 Initial guess orbital symmetries:
 Alpha Orbitals:
       Occupied  (A') (A') (A') (A') (A') (A') (A') (A") (A') (A")
                 (A') (A')
       Virtual   (A") (A') (A') (A') (A") (A') (A') (A') (A") (A')
                 (A") (A') (A') (A') (A') (A") (A') (A') (A') (A")
                 (A") (A') (A') (A') (A') (A") (A') (A") (A') (A')
                 (A') (A') (A") (A") (A') (A') (A') (A") (A") (A')
                 (A') (A') (A") (A') (A') (A") (A") (A') (A') (A')
                 (A") (A") (A') (A') (A') (A') (A") (A') (A") (A')
                 (A") (A') (A") (A') (A') (A') (A') (A') (A')
 Beta  Orbitals:
       Occupied  (A') (A') (A') (A') (A') (A') (A') (A") (A') (A")
                 (A') (A')
       Virtual   (A") (A') (A') (A') (A") (A') (A') (A') (A") (A')
                 (A") (A') (A') (A') (A') (A") (A') (A') (A') (A")
                 (A") (A') (A') (A') (A') (A") (A') (A") (A') (A')
                 (A') (A') (A") (A") (A') (A') (A') (A") (A") (A')
                 (A') (A') (A") (A') (A') (A") (A") (A') (A') (A')
                 (A") (A") (A') (A') (A') (A') (A") (A') (A") (A')
                 (A") (A') (A") (A') (A') (A') (A') (A') (A')
 Initial guess <Sx>= 0.0000 <Sy>= 0.0000 <Sz>= 0.0000 <S**2>= 0.0000 S= 0.0000
 Keep R1 and R2 ints in memory in symmetry-blocked form, NReq=32848339.
 Requested convergence on RMS density matrix=1.00D-08 within 128 cycles.
 Requested convergence on MAX density matrix=1.00D-06.
 Requested convergence on             energy=1.00D-06.
 No special actions if energy rises.
 SCF Done:  E(UwB97XD) =  -237.708567756     A.U. after    1 cycles
            NFock=  1  Conv=0.47D-09     -V/T= 2.0024
 <Sx>= 0.0000 <Sy>= 0.0000 <Sz>= 0.0000 <S**2>= 0.0000 S= 0.0000
 <L.S>= 0.000000000000E+00
 Annihilation of the first spin contaminant:
 S**2 before annihilation     0.0000,   after    -0.0000
 DoSCS=F DFT=T ScalE2(SS,OS)=  1.000000  1.000000
 Range of M.O.s used for correlation:     1    81
 NBasis=    81 NAE=    12 NBE=    12 NFC=     0 NFV=     0
 NROrb=     81 NOA=    12 NOB=    12 NVA=    69 NVB=    69

 **** Warning!!: The largest alpha MO coefficient is  0.10914709D+02


 **** Warning!!: The largest beta MO coefficient is  0.10914709D+02

 Symmetrizing basis deriv contribution to polar:
 IMax=3 JMax=2 DiffMx= 0.00D+00
 G2DrvN: will do     4 centers at a time, making    1 passes.
 Calling FoFCou, ICntrl=  3107 FMM=F I1Cent=   0 AccDes= 0.00D+00.
 End of G2Drv F.D. properties file   721 does not exist.
 End of G2Drv F.D. properties file   722 does not exist.
 End of G2Drv F.D. properties file   788 does not exist.
          IDoAtm=111
          Differentiating once with respect to electric field.
                with respect to dipole field.
          Differentiating once with respect to nuclear coordinates.
 Keep R1 and R2 ints in memory in symmetry-blocked form, NReq=32767221.
          There are    12 degrees of freedom in the 1st order CPHF.  IDoFFX=6 NUNeed=     3.
      9 vectors produced by pass  0 Test12= 1.38D-14 8.33D-09 XBig12= 1.32D+01 1.69D+00.
 AX will form     9 AO Fock derivatives at one time.
      9 vectors produced by pass  1 Test12= 1.38D-14 8.33D-09 XBig12= 2.81D+00 5.04D-01.
      9 vectors produced by pass  2 Test12= 1.38D-14 8.33D-09 XBig12= 8.42D-02 8.67D-02.
      9 vectors produced by pass  3 Test12= 1.38D-14 8.33D-09 XBig12= 2.42D-03 1.39D-02.
      9 vectors produced by pass  4 Test12= 1.38D-14 8.33D-09 XBig12= 2.67D-05 1.21D-03.
      9 vectors produced by pass  5 Test12= 1.38D-14 8.33D-09 XBig12= 4.12D-07 1.75D-04.
      9 vectors produced by pass  6 Test12= 1.38D-14 8.33D-09 XBig12= 3.96D-09 1.24D-05.
      6 vectors produced by pass  7 Test12= 1.38D-14 8.33D-09 XBig12= 2.13D-11 1.03D-06.
      3 vectors produced by pass  8 Test12= 1.38D-14 8.33D-09 XBig12= 1.30D-13 5.93D-08.
 InvSVY:  IOpt=1 It=  1 EMax= 6.66D-16
 Solved reduced A of dimension    72 with     9 vectors.
 Isotropic polarizability for W=    0.000000       15.28 Bohr**3.
 End of Minotr F.D. properties file   721 does not exist.
 End of Minotr F.D. properties file   722 does not exist.
 End of Minotr F.D. properties file   788 does not exist.

 **********************************************************************

            Population analysis using the SCF density.

 **********************************************************************

 Orbital symmetries:
 Alpha Orbitals:
       Occupied  (A') (A') (A') (A') (A') (A') (A') (A") (A') (A")
                 (A') (A')
       Virtual   (A") (A') (A') (A') (A") (A') (A') (A') (A") (A')
                 (A") (A') (A') (A') (A') (A") (A') (A') (A') (A")
                 (A") (A') (A') (A') (A') (A") (A') (A") (A') (A')
                 (A') (A') (A") (A") (A') (A') (A') (A") (A") (A')
                 (A') (A') (A") (A') (A') (A") (A") (A') (A') (A')
                 (A") (A") (A') (A') (A') (A') (A") (A') (A") (A')
                 (A") (A') (A") (A') (A') (A') (A') (A') (A')
 Beta  Orbitals:
       Occupied  (A') (A') (A') (A') (A') (A') (A') (A") (A') (A")
                 (A') (A')
       Virtual   (A") (A') (A') (A') (A") (A') (A') (A') (A") (A')
                 (A") (A') (A') (A') (A') (A") (A') (A') (A') (A")
                 (A") (A') (A') (A') (A') (A") (A') (A") (A') (A')
                 (A') (A') (A") (A") (A') (A') (A') (A") (A") (A')
                 (A') (A') (A") (A') (A') (A") (A") (A') (A') (A')
                 (A") (A") (A') (A') (A') (A') (A") (A') (A") (A')
                 (A") (A') (A") (A') (A') (A') (A') (A') (A')
 The electronic state is 1-A'.
 Alpha  occ. eigenvalues --  -24.89539 -24.89518 -10.49829  -1.45908  -1.38056
 Alpha  occ. eigenvalues --   -0.81763  -0.70929  -0.66165  -0.65574  -0.58153
 Alpha  occ. eigenvalues --   -0.55498  -0.40166
 Alpha virt. eigenvalues --   -0.01678   0.08706   0.10251   0.11477   0.11484
 Alpha virt. eigenvalues --    0.27069   0.28513   0.28904   0.31871   0.31956
 Alpha virt. eigenvalues --    0.32903   0.33267   0.37982   0.39652   0.47293
 Alpha virt. eigenvalues --    0.58681   0.58925   0.67964   0.81473   0.82268
 Alpha virt. eigenvalues --    0.83858   0.94950   1.13798   1.21584   1.28894
 Alpha virt. eigenvalues --    1.34796   1.36617   1.37168   1.39480   1.48474
 Alpha virt. eigenvalues --    1.85969   1.94149   2.02098   2.03692   2.06314
 Alpha virt. eigenvalues --    2.11107   2.28418   2.30558   2.31299   2.46069
 Alpha virt. eigenvalues --    2.70562   2.83349   2.86643   3.21516   3.29213
 Alpha virt. eigenvalues --    3.34354   3.34966   3.42906   3.64603   4.21760
 Alpha virt. eigenvalues --    6.32360   6.32943   6.33552   6.40194   6.54852
 Alpha virt. eigenvalues --    6.81488   9.05637   9.06417   9.08048   9.09099
 Alpha virt. eigenvalues --    9.25751   9.29455   9.30635   9.43920   9.65347
 Alpha virt. eigenvalues --    9.75933  23.93633  66.85439  66.87340
  Beta  occ. eigenvalues --  -24.89539 -24.89518 -10.49829  -1.45908  -1.38056
  Beta  occ. eigenvalues --   -0.81763  -0.70929  -0.66165  -0.65574  -0.58153
  Beta  occ. eigenvalues --   -0.55498  -0.40166
  Beta virt. eigenvalues --   -0.01678   0.08706   0.10251   0.11477   0.11484
  Beta virt. eigenvalues --    0.27069   0.28513   0.28904   0.31871   0.31956
  Beta virt. eigenvalues --    0.32903   0.33267   0.37982   0.39652   0.47293
  Beta virt. eigenvalues --    0.58681   0.58925   0.67964   0.81473   0.82268
  Beta virt. eigenvalues --    0.83858   0.94950   1.13798   1.21584   1.28894
  Beta virt. eigenvalues --    1.34796   1.36617   1.37168   1.39480   1.48474
  Beta virt. eigenvalues --    1.85969   1.94149   2.02098   2.03692   2.06314
  Beta virt. eigenvalues --    2.11107   2.28418   2.30558   2.31299   2.46069
  Beta virt. eigenvalues --    2.70562   2.83349   2.86643   3.21516   3.29213
  Beta virt. eigenvalues --    3.34354   3.34966   3.42906   3.64603   4.21760
  Beta virt. eigenvalues --    6.32360   6.32943   6.33552   6.40194   6.54852
  Beta virt. eigenvalues --    6.81488   9.05637   9.06417   9.08048   9.09099
  Beta virt. eigenvalues --    9.25751   9.29455   9.30635   9.43920   9.65347
  Beta virt. eigenvalues --    9.75933  23.93633  66.85439  66.87340
          Condensed to atoms (all electrons):
               1          2          3
     1  C    5.812832  -0.025573  -0.025431
     2  F   -0.025573   9.123356   0.021078
     3  F   -0.025431   0.021078   9.123663
          Atomic-Atomic Spin Densities.
               1          2          3
     1  C    0.000000   0.000000   0.000000
     2  F    0.000000   0.000000   0.000000
     3  F    0.000000   0.000000   0.000000
 Mulliken charges and spin densities:
               1          2
     1  C    0.238172   0.000000
     2  F   -0.118862   0.000000
     3  F   -0.119310   0.000000
 Sum of Mulliken charges =  -0.00000   0.00000
 Mulliken charges and spin densities with hydrogens summed into heavy atoms:
               1          2
     1  C    0.238172   0.000000
     2  F   -0.118862   0.000000
     3  F   -0.119310   0.000000
 APT charges:
               1
     1  C    0.907621
     2  F   -0.453591
     3  F   -0.454030
 Sum of APT charges =  -0.00000
 APT charges with hydrogens summed into heavy atoms:
               1
     1  C    0.907621
     2  F   -0.453591
     3  F   -0.454030
 Electronic spatial extent (au):  <R**2>=            113.5215
 Charge=             -0.0000 electrons
 Dipole moment (field-independent basis, Debye):
    X=              0.0028    Y=             -0.6093    Z=             -0.0000  Tot=              0.6093
 Quadrupole moment (field-independent basis, Debye-Ang):
   XX=            -15.9223   YY=            -17.3659   ZZ=            -14.4795
   XY=             -0.0001   XZ=             -0.0000   YZ=             -0.0000
 Traceless Quadrupole moment (field-independent basis, Debye-Ang):
   XX=              0.0002   YY=             -1.4433   ZZ=              1.4431
   XY=             -0.0001   XZ=             -0.0000   YZ=             -0.0000
 Octapole moment (field-independent basis, Debye-Ang**2):
  XXX=              0.0058  YYY=             -8.7947  ZZZ=              0.0000  XYY=              0.0021
  XXY=             -1.7241  XXZ=              0.0000  XZZ=              0.0015  YZZ=             -1.7469
  YYZ=              0.0000  XYZ=              0.0000
 Hexadecapole moment (field-independent basis, Debye-Ang**3):
 XXXX=            -71.6750 YYYY=            -35.3239 ZZZZ=            -11.4686 XXXY=             -0.0113
 XXXZ=             -0.0000 YYYX=             -0.0099 YYYZ=             -0.0000 ZZZX=             -0.0000
 ZZZY=             -0.0000 XXYY=            -16.6238 XXZZ=            -13.8166 YYZZ=             -7.1977
 XXYZ=             -0.0000 YYXZ=             -0.0000 ZZXY=             -0.0036
 N-N= 6.487643965075D+01 E-N=-6.946105005603D+02  KE= 2.371480518678D+02
 Symmetry A'   KE= 2.251417266385D+02
 Symmetry A"   KE= 1.200632522935D+01
 Symmetry A'   SP= 0.000000000000D+00
 Symmetry A"   SP= 0.000000000000D+00
  Exact polarizability:  18.047   0.004  14.395   0.000   0.000  13.412
 Approx polarizability:  19.306   0.005  13.762   0.000   0.000  13.739
                          Isotropic Fermi Contact Couplings
        Atom                 a.u.       MegaHertz       Gauss      10(-4) cm-1
     1  C(13)              0.00000       0.00000       0.00000       0.00000
     2  F(19)              0.00000       0.00000       0.00000       0.00000
     3  F(19)              0.00000       0.00000       0.00000       0.00000
 --------------------------------------------------------
       Center         ----  Spin Dipole Couplings  ----
                      3XX-RR        3YY-RR        3ZZ-RR
 --------------------------------------------------------
     1   Atom        0.000000      0.000000      0.000000
     2   Atom        0.000000      0.000000      0.000000
     3   Atom        0.000000      0.000000      0.000000
 --------------------------------------------------------
                        XY            XZ            YZ
 --------------------------------------------------------
     1   Atom        0.000000      0.000000      0.000000
     2   Atom        0.000000      0.000000      0.000000
     3   Atom        0.000000      0.000000      0.000000
 --------------------------------------------------------


 ---------------------------------------------------------------------------------
              Anisotropic Spin Dipole Couplings in Principal Axis System
 ---------------------------------------------------------------------------------

       Atom             a.u.   MegaHertz   Gauss  10(-4) cm-1        Axes

              Baa     0.0000     0.000     0.000     0.000  1.0000  0.0000  0.0000
     1 C(13)  Bbb     0.0000     0.000     0.000     0.000  0.0000  1.0000  0.0000
              Bcc     0.0000     0.000     0.000     0.000  0.0000  0.0000  1.0000
 
              Baa     0.0000     0.000     0.000     0.000  1.0000  0.0000  0.0000
     2 F(19)  Bbb     0.0000     0.000     0.000     0.000  0.0000  1.0000  0.0000
              Bcc     0.0000     0.000     0.000     0.000  0.0000  0.0000  1.0000
 
              Baa     0.0000     0.000     0.000     0.000  1.0000  0.0000  0.0000
     3 F(19)  Bbb     0.0000     0.000     0.000     0.000  0.0000  1.0000  0.0000
              Bcc     0.0000     0.000     0.000     0.000  0.0000  0.0000  1.0000
 

 ---------------------------------------------------------------------------------

 Calling FoFJK, ICntrl=    100127 FMM=F ISym2X=1 I1Cent= 0 IOpClX= 1 NMat=1 NMatS=1 NMatT=0.
 Full mass-weighted force constant matrix:
 Low frequencies ---  -26.8888   -0.0008    0.0012    0.0013   12.3458   12.5352
 Low frequencies ---  679.8000 1120.8464 1239.9357
 Diagonal vibrational polarizability:
        8.6728281       2.4627759       0.0000000
 Harmonic frequencies (cm**-1), IR intensities (KM/Mole), Raman scattering
 activities (A**4/AMU), depolarization ratios for plane and unpolarized
 incident light, reduced masses (AMU), force constants (mDyne/A),
 and normal coordinates:
                      1                      2                      3
                     A'                     A'                     A'
 Frequencies --    679.8000              1120.8464              1239.9357
 Red. masses --     17.7905                13.6895                13.8138
 Frc consts  --      4.8440                10.1328                12.5130
 IR Inten    --      3.2369               404.8617               129.9448
  Atom  AN      X      Y      Z        X      Y      Z        X      Y      Z
     1   6    -0.00   0.42   0.00     0.87   0.01   0.00    -0.01   0.86   0.00
     2   9    -0.63  -0.13  -0.00    -0.27   0.21  -0.00     0.24  -0.27   0.00
     3   9     0.63  -0.13   0.00    -0.28  -0.21  -0.00    -0.23  -0.27  -0.00

 -------------------
 - Thermochemistry -
 -------------------
 Temperature   298.150 Kelvin.  Pressure   1.00000 Atm.
 Atom     1 has atomic number  6 and mass  12.00000
 Atom     2 has atomic number  9 and mass  18.99840
 Atom     3 has atomic number  9 and mass  18.99840
 Molecular mass:    49.99681 amu.
 Principal axes and moments of inertia in atomic units:
                           1         2         3
     Eigenvalues --    20.48227 143.33408 163.81634
           X            1.00000  -0.00043   0.00000
           Y            0.00043   1.00000   0.00000
           Z            0.00000  -0.00000   1.00000
 This molecule is an asymmetric top.
 Rotational symmetry number  1.
 Rotational temperatures (Kelvin)      4.22873     0.60428     0.52873
 Rotational constants (GHZ):          88.11237    12.59115    11.01686
 Zero-point vibrational energy      18186.7 (Joules/Mol)
                                    4.34673 (Kcal/Mol)
 Vibrational temperatures:    978.08  1612.65  1783.99
          (Kelvin)
 
 Zero-point correction=                           0.006927 (Hartree/Particle)
 Thermal correction to Energy=                    0.009918
 Thermal correction to Enthalpy=                  0.010862
 Thermal correction to Gibbs Free Energy=        -0.017113
 Sum of electronic and zero-point Energies=           -237.701641
 Sum of electronic and thermal Energies=              -237.698650
 Sum of electronic and thermal Enthalpies=            -237.697706
 Sum of electronic and thermal Free Energies=         -237.725680
 
                     E (Thermal)             CV                S
                      KCal/Mol        Cal/Mol-Kelvin    Cal/Mol-Kelvin
 Total                    6.224              7.273             58.878
 Electronic               0.000              0.000              0.000
 Translational            0.889              2.981             37.652
 Rotational               0.889              2.981             20.803
 Vibrational              4.446              1.311              0.423
                       Q            Log10(Q)             Ln(Q)
 Total Bot       0.743486D+08          7.871273         18.124275
 Total V=0       0.114143D+12         11.057448         25.460716
 Vib (Bot)       0.681581D-03         -3.166483         -7.291095
 Vib (V=0)       0.104639D+01          0.019693          0.045345
 Electronic      0.100000D+01          0.000000          0.000000
 Translational   0.138953D+08          7.142867         16.447060
 Rotational      0.785033D+04          3.894888          8.968311
 ***** Axes restored to original set *****
 -------------------------------------------------------------------
 Center     Atomic                   Forces (Hartrees/Bohr)
 Number     Number              X              Y              Z
 -------------------------------------------------------------------
      1        6          -0.000246538    0.000140415   -0.000060275
      2        9          -0.000019094    0.000124401   -0.000015684
      3        9           0.000265632   -0.000264816    0.000075959
 -------------------------------------------------------------------
 Cartesian Forces:  Max     0.000265632 RMS     0.000165554
 FormGI is forming the generalized inverse of G from B-inverse, IUseBI=4.

 GradGradGradGradGradGradGradGradGradGradGradGradGradGradGradGradGradGrad
 Berny optimization.
 Internal  Forces:  Max     0.000377502 RMS     0.000243888
 Search for a local minimum.
 Step number   1 out of a maximum of    2
 All quantities printed in internal units (Hartrees-Bohrs-Radians)
 Second derivative matrix not updated -- analytic derivatives used.
 The second derivative matrix:
                          R1        R2        A1
           R1           0.40336
           R2           0.10011   0.40212
           A1           0.08443   0.08444   0.55552
 ITU=  0
     Eigenvalues ---    0.30262   0.40691   0.65146
 Angle between quadratic step and forces=  19.32 degrees.
 Linear search not attempted -- first point.
 Iteration  1 RMS(Cart)=  0.00045771 RMS(Int)=  0.00000003
 Iteration  2 RMS(Cart)=  0.00000004 RMS(Int)=  0.00000000
 ClnCor:  largest displacement from symmetrization is 4.04D-15 for atom     2.
 Variable       Old X    -DE/DX   Delta X   Delta X   Delta X     New X
                                 (Linear)    (Quad)   (Total)
    R1        2.45276  -0.00011   0.00000  -0.00002  -0.00002   2.45274
    R2        2.45364  -0.00038   0.00000  -0.00091  -0.00091   2.45273
    A1        1.82722  -0.00015   0.00000  -0.00014  -0.00014   1.82708
         Item               Value     Threshold  Converged?
 Maximum Force            0.000378     0.000450     YES
 RMS     Force            0.000244     0.000300     YES
 Maximum Displacement     0.000540     0.001800     YES
 RMS     Displacement     0.000458     0.001200     YES
 Predicted change in Energy=-1.825016D-07
 Optimization completed.
    -- Stationary point found.
                           ----------------------------
                           !   Optimized Parameters   !
                           ! (Angstroms and Degrees)  !
 --------------------------                            --------------------------
 ! Name  Definition              Value          Derivative Info.                !
 --------------------------------------------------------------------------------
 ! R1    R(1,2)                  1.2979         -DE/DX =   -0.0001              !
 ! R2    R(1,3)                  1.2984         -DE/DX =   -0.0004              !
 ! A1    A(2,1,3)              104.6921         -DE/DX =   -0.0002              !
 --------------------------------------------------------------------------------
 GradGradGradGradGradGradGradGradGradGradGradGradGradGradGradGradGradGrad


 ----------------------------------------------------------------------

 Electric dipole moment (input orientation):
 (Debye = 10**-18 statcoulomb cm , SI units = C m)
                  (au)            (Debye)         (10**-30 SI)
   Tot        0.239704D+00      0.609267D+00      0.203230D+01
   x         -0.225281D+00     -0.572608D+00     -0.191002D+01
   y         -0.738141D-01     -0.187617D+00     -0.625822D+00
   z         -0.354660D-01     -0.901457D-01     -0.300694D+00

 Dipole polarizability, Alpha (input orientation).
 (esu units = cm**3 , SI units = C**2 m**2 J**-1)
 Alpha(0;0):
               (au)            (10**-24 esu)      (10**-40 SI)
   iso        0.152846D+02      0.226495D+01      0.252010D+01
   aniso      0.423046D+01      0.626889D+00      0.697508D+00
   xx         0.146559D+02      0.217178D+01      0.241643D+01
   yx        -0.965487D+00     -0.143070D+00     -0.159187D+00
   yy         0.176664D+02      0.261789D+01      0.291279D+01
   zx         0.329127D+00      0.487716D-01      0.542657D-01
   zy        -0.595543D+00     -0.882503D-01     -0.981917D-01
   zz         0.135317D+02      0.200519D+01      0.223107D+01

 ----------------------------------------------------------------------

 Dipole orientation:
     6         -1.15205865         -1.09335282          3.73739737
     9         -0.82793783          0.81469302          5.24415357
     9         -1.47846910         -3.01487738          5.22788098

 Electric dipole moment (dipole orientation):
 (Debye = 10**-18 statcoulomb cm , SI units = C m)
                  (au)            (Debye)         (10**-30 SI)
   Tot        0.239704D+00      0.609267D+00      0.203230D+01
   x          0.000000D+00      0.000000D+00      0.000000D+00
   y          0.000000D+00      0.000000D+00      0.000000D+00
   z          0.239704D+00      0.609267D+00      0.203230D+01

 Dipole polarizability, Alpha (dipole orientation).
 (esu units = cm**3 , SI units = C**2 m**2 J**-1)
 Alpha(0;0):
               (au)            (10**-24 esu)      (10**-40 SI)
   iso        0.152846D+02      0.226495D+01      0.252010D+01
   aniso      0.423046D+01      0.626889D+00      0.697508D+00
   xx         0.135416D+02      0.200666D+01      0.223271D+01
   yx         0.765356D+00      0.113414D+00      0.126190D+00
   yy         0.179171D+02      0.265505D+01      0.295414D+01
   zx         0.209112D-02      0.309872D-03      0.344779D-03
   zy         0.123101D-01      0.182417D-02      0.202966D-02
   zz         0.143952D+02      0.213314D+01      0.237344D+01

 ----------------------------------------------------------------------
 1\1\GINC-CCLEARTI\Freq\UwB97XD\6-311+G(2d)\C1F2\RAPPE\18-Nov-2025\0\\#
 N Geom=AllCheck Guess=TCheck SCRF=Check GenChk UwB97XD/6-311+G(2d) Fre
 q\\Title Card Required\\0,1\C,-2.1451714995,0.0754573428,0.1021732629\
 F,-2.6004395041,-1.139604972,0.1339268452\F,-3.1826199964,0.8089566291
 ,-0.1653091081\\Version=EM64M-G16RevA.03\State=1-A'\HF=-237.7085678\S2
 =0.\S2-1=0.\S2A=0.\RMSD=4.695e-10\RMSF=1.656e-04\ZeroPoint=0.006927\Th
 ermal=0.0099178\Dipole=-0.2252815,-0.0738141,-0.035466\DipoleDeriv=1.0
 9759,-0.1706495,0.2545662,-0.1709946,1.7165196,-0.2144617,0.2545997,-0
 .2143964,-0.0912466,-0.2732683,-0.5654799,-0.012051,-0.0964854,-1.1557
 513,0.1016892,-0.0575588,0.0129447,0.0682466,-0.8243217,0.7361295,-0.2
 425152,0.26748,-0.5607683,0.1127725,-0.1970409,0.2014517,0.023\Polar=1
 4.6558845,-0.9654868,17.6663774,0.3291271,-0.5955426,13.5316852\Quadru
 pole=-0.9137072,-0.0890834,1.0027906,-0.3254759,-0.3443318,0.0511639\P
 G=CS [SG(C1F2)]\NImag=0\\0.44961921,0.03415511,0.38504952,0.08180941,-
 0.03092269,0.01824118,-0.14970047,-0.13584313,-0.01517866,0.10531161,-
 0.12614828,-0.27432959,0.00276577,0.07825861,0.38588126,-0.01611937,0.
 00093128,-0.00296548,0.01234679,-0.02264146,0.00446420,-0.29991874,0.1
 0168801,-0.06663075,0.04438886,0.04788967,0.00377258,0.25552988,0.0919
 9317,-0.11071992,0.02815692,0.05758452,-0.11155167,0.02171018,-0.14957
 769,0.22227159,-0.06569004,0.02999141,-0.01527569,0.00283186,0.0198756
 9,-0.00149871,0.06285817,-0.04986710,0.01677441\\0.00024654,-0.0001404
 1,0.00006028,0.00001909,-0.00012440,0.00001568,-0.00026563,0.00026482,
 -0.00007596\\\@


 THE WORLD IS MADE UP OF THE WILLS, THE WON'TS, AND THE CANT'S:
 THE WILLS DO EVERYTHING,
 THE WON'TS DO NOTHING,
 THE CAN'TS CAN'T DO ANYTHING.

                               -- FROM WALT DISNEY'S "BLACK HOLE"
 Job cpu time:       0 days  0 hours  3 minutes 49.8 seconds.
 Elapsed time:       0 days  0 hours  0 minutes  9.8 seconds.
 File lengths (MBytes):  RWF=     10 Int=      0 D2E=      0 Chk=      2 Scr=      1
 Normal termination of Gaussian 16 at Tue Nov 18 05:48:45 2025.
