 Entering Gaussian System, Link 0=/applications/g16/g16/g16
 Initial command:
 /applications/g16/g16/l1.exe "/scratch/g98/Gau-60894.inp" -scrdir="/scratch/g98/"
 Entering Link 1 = /applications/g16/g16/l1.exe PID=     60895.
  
 Copyright (c) 1988,1990,1992,1993,1995,1998,2003,2009,2016,
            Gaussian, Inc.  All Rights Reserved.
  
 This is part of the Gaussian(R) 16 program.  It is based on
 the Gaussian(R) 09 system (copyright 2009, Gaussian, Inc.),
 the Gaussian(R) 03 system (copyright 2003, Gaussian, Inc.),
 the Gaussian(R) 98 system (copyright 1998, Gaussian, Inc.),
 the Gaussian(R) 94 system (copyright 1995, Gaussian, Inc.),
 the Gaussian 92(TM) system (copyright 1992, Gaussian, Inc.),
 the Gaussian 90(TM) system (copyright 1990, Gaussian, Inc.),
 the Gaussian 88(TM) system (copyright 1988, Gaussian, Inc.),
 the Gaussian 86(TM) system (copyright 1986, Carnegie Mellon
 University), and the Gaussian 82(TM) system (copyright 1983,
 Carnegie Mellon University). Gaussian is a federally registered
 trademark of Gaussian, Inc.
  
 This software contains proprietary and confidential information,
 including trade secrets, belonging to Gaussian, Inc.
  
 This software is provided under written license and may be
 used, copied, transmitted, or stored only in accord with that
 written license.
  
 The following legend is applicable only to US Government
 contracts under FAR:
  
                    RESTRICTED RIGHTS LEGEND
  
 Use, reproduction and disclosure by the US Government is
 subject to restrictions as set forth in subparagraphs (a)
 and (c) of the Commercial Computer Software - Restricted
 Rights clause in FAR 52.227-19.
  
 Gaussian, Inc.
 340 Quinnipiac St., Bldg. 40, Wallingford CT 06492
  
  
 ---------------------------------------------------------------
 Warning -- This program may not be used in any manner that
 competes with the business of Gaussian, Inc. or will provide
 assistance to any competitor of Gaussian, Inc.  The licensee
 of this program is prohibited from giving any competitor of
 Gaussian, Inc. access to this program.  By using this program,
 the user acknowledges that Gaussian, Inc. is engaged in the
 business of creating and licensing software in the field of
 computational chemistry and represents and warrants to the
 licensee that it is not a competitor of Gaussian, Inc. and that
 it will not use this program in any manner prohibited above.
 ---------------------------------------------------------------
  

 Cite this work as:
 Gaussian 16, Revision A.03,
 M. J. Frisch, G. W. Trucks, H. B. Schlegel, G. E. Scuseria, 
 M. A. Robb, J. R. Cheeseman, G. Scalmani, V. Barone, 
 G. A. Petersson, H. Nakatsuji, X. Li, M. Caricato, A. V. Marenich, 
 J. Bloino, B. G. Janesko, R. Gomperts, B. Mennucci, H. P. Hratchian, 
 J. V. Ortiz, A. F. Izmaylov, J. L. Sonnenberg, D. Williams-Young, 
 F. Ding, F. Lipparini, F. Egidi, J. Goings, B. Peng, A. Petrone, 
 T. Henderson, D. Ranasinghe, V. G. Zakrzewski, J. Gao, N. Rega, 
 G. Zheng, W. Liang, M. Hada, M. Ehara, K. Toyota, R. Fukuda, 
 J. Hasegawa, M. Ishida, T. Nakajima, Y. Honda, O. Kitao, H. Nakai, 
 T. Vreven, K. Throssell, J. A. Montgomery, Jr., J. E. Peralta, 
 F. Ogliaro, M. J. Bearpark, J. J. Heyd, E. N. Brothers, K. N. Kudin, 
 V. N. Staroverov, T. A. Keith, R. Kobayashi, J. Normand, 
 K. Raghavachari, A. P. Rendell, J. C. Burant, S. S. Iyengar, 
 J. Tomasi, M. Cossi, J. M. Millam, M. Klene, C. Adamo, R. Cammi, 
 J. W. Ochterski, R. L. Martin, K. Morokuma, O. Farkas, 
 J. B. Foresman, and D. J. Fox, Gaussian, Inc., Wallingford CT, 2016.
 
 ******************************************
 Gaussian 16:  EM64M-G16RevA.03 25-Dec-2016
                 4-Nov-2022 
 ******************************************
 %mem=24GB
 %nprocshared=8
 Will use up to    8 processors via shared memory.
 %chk=cf2_h2o_ts_react.chk
 ----------------------------------------------------------
 # opt wb97xd/6-311+g(2d,2p) geom=connectivity scf=xqc freq
 ----------------------------------------------------------
 1/18=20,19=15,26=3,38=1,57=2/1,3;
 2/9=110,12=2,17=6,18=5,40=1/2;
 3/5=4,6=6,7=212,11=2,25=1,30=1,71=1,74=-58/1,2,3;
 4//1;
 5/5=2,8=3,13=1,38=5/2,8;
 6/7=2,8=2,9=2,10=2,28=1/1;
 7//1,2,3,16;
 1/18=20,19=15,26=3/3(2);
 2/9=110/2;
 99//99;
 2/9=110/2;
 3/5=4,6=6,7=212,11=2,25=1,30=1,71=1,74=-58/1,2,3;
 4/5=5,16=3,69=1/1;
 5/5=2,8=3,13=1,38=5/2,8;
 7//1,2,3,16;
 1/18=20,19=15,26=3/3(-5);
 2/9=110/2;
 6/7=2,8=2,9=2,10=2,19=2,28=1/1;
 99/9=1/99;
 -------------------
 Title Card Required
 -------------------
 Symbolic Z-matrix:
 Charge =  0 Multiplicity = 1
 C                     0.6602   -0.00913   0.57359 
 H                    -2.10284  -0.23258   0.83617 
 F                     0.89533   1.04562  -0.15237 
 F                     0.94815  -1.01147  -0.19645 
 H                    -2.38399   0.76554  -0.27826 
 O                    -2.00821  -0.0982   -0.1075 
 
 Add virtual bond connecting atoms H2         and C1         Dist= 5.26D+00.
 Add virtual bond connecting atoms O6         and C1         Dist= 5.21D+00.

 GradGradGradGradGradGradGradGradGradGradGradGradGradGradGradGradGradGrad
 Berny optimization.
 Initialization pass.
                           ----------------------------
                           !    Initial Parameters    !
                           ! (Angstroms and Degrees)  !
 --------------------------                            --------------------------
 ! Name  Definition              Value          Derivative Info.                !
 --------------------------------------------------------------------------------
 ! R1    R(1,2)                  2.7845         estimate D2E/DX2                !
 ! R2    R(1,3)                  1.3018         estimate D2E/DX2                !
 ! R3    R(1,4)                  1.2964         estimate D2E/DX2                !
 ! R4    R(1,6)                  2.7554         estimate D2E/DX2                !
 ! R5    R(2,6)                  0.9579         estimate D2E/DX2                !
 ! R6    R(5,6)                  0.9573         estimate D2E/DX2                !
 ! A1    A(2,1,3)              107.2673         estimate D2E/DX2                !
 ! A2    A(2,1,4)              102.3792         estimate D2E/DX2                !
 ! A3    A(3,1,4)              104.7782         estimate D2E/DX2                !
 ! A4    A(3,1,6)               93.6273         estimate D2E/DX2                !
 ! A5    A(4,1,6)               92.481          estimate D2E/DX2                !
 ! A6    A(1,6,5)              113.2709         estimate D2E/DX2                !
 ! A7    A(2,6,5)              105.2792         estimate D2E/DX2                !
 ! D1    D(3,1,6,5)            -31.1549         estimate D2E/DX2                !
 ! D2    D(4,1,6,5)           -136.1405         estimate D2E/DX2                !
 ! D3    D(5,2,6,1)            111.9793         estimate D2E/DX2                !
 --------------------------------------------------------------------------------
 Trust Radius=3.00D-01 FncErr=1.00D-07 GrdErr=1.00D-06 EigMax=2.50D+02 EigMin=1.00D-04
 Number of steps in this run=     26 maximum allowed number of steps=    100.
 GradGradGradGradGradGradGradGradGradGradGradGradGradGradGradGradGradGrad

                          Input orientation:                          
 ---------------------------------------------------------------------
 Center     Atomic      Atomic             Coordinates (Angstroms)
 Number     Number       Type             X           Y           Z
 ---------------------------------------------------------------------
      1          6           0        0.660195   -0.009125    0.573589
      2          1           0       -2.102845   -0.232580    0.836168
      3          9           0        0.895329    1.045623   -0.152372
      4          9           0        0.948150   -1.011465   -0.196454
      5          1           0       -2.383994    0.765537   -0.278263
      6          8           0       -2.008206   -0.098204   -0.107502
 ---------------------------------------------------------------------
                    Distance matrix (angstroms):
                    1          2          3          4          5
     1  C    0.000000
     2  H    2.784469   0.000000
     3  F    1.301845   3.405886   0.000000
     4  F    1.296368   3.313841   2.058238   0.000000
     5  H    3.254664   1.522248   3.293669   3.777249   0.000000
     6  O    2.755392   0.957876   3.121037   3.095480   0.957301
                    6
     6  O    0.000000
 Stoichiometry    CH2F2O
 Framework group  C1[X(CH2F2O)]
 Deg. of freedom    12
 Full point group                 C1      NOp   1
 Largest Abelian subgroup         C1      NOp   1
 Largest concise Abelian subgroup C1      NOp   1
                         Standard orientation:                         
 ---------------------------------------------------------------------
 Center     Atomic      Atomic             Coordinates (Angstroms)
 Number     Number       Type             X           Y           Z
 ---------------------------------------------------------------------
      1          6           0        0.660195   -0.009125    0.573589
      2          1           0       -2.102845   -0.232579    0.836168
      3          9           0        0.895330    1.045623   -0.152372
      4          9           0        0.948150   -1.011465   -0.196454
      5          1           0       -2.383994    0.765538   -0.278263
      6          8           0       -2.008206   -0.098203   -0.107502
 ---------------------------------------------------------------------
 Rotational constants (GHZ):          10.7412802           4.2921941           3.3104446
 Standard basis: 6-311+G(2d,2p) (5D, 7F)
 There are   134 symmetry adapted cartesian basis functions of A   symmetry.
 There are   126 symmetry adapted basis functions of A   symmetry.
   126 basis functions,   190 primitive gaussians,   134 cartesian basis functions
    17 alpha electrons       17 beta electrons
       nuclear repulsion energy       115.4004755880 Hartrees.
 NAtoms=    6 NActive=    6 NUniq=    6 SFac= 1.00D+00 NAtFMM=   60 NAOKFM=F Big=F
 Integral buffers will be    131072 words long.
 Raffenetti 2 integral format.
 Two-electron integral symmetry is turned on.
 Nuclear repulsion after empirical dispersion term =      115.3993424441 Hartrees.
 One-electron integrals computed using PRISM.
 NBasis=   126 RedAO= T EigKep=  1.79D-03  NBF=   126
 NBsUse=   126 1.00D-06 EigRej= -1.00D+00 NBFU=   126
 ExpMin= 4.38D-02 ExpMax= 1.14D+04 ExpMxC= 1.72D+03 IAcc=3 IRadAn=         5 AccDes= 0.00D+00
 Harris functional with IExCor= 4639 and IRadAn=       5 diagonalized for initial guess.
 HarFok:  IExCor= 4639 AccDes= 0.00D+00 IRadAn=         5 IDoV= 1 UseB2=F ITyADJ=14
 ICtDFT=  3500011 ScaDFX=  1.000000  1.000000  1.000000  1.000000
 FoFCou: FMM=F IPFlag=           0 FMFlag=      100000 FMFlg1=           0
         NFxFlg=           0 DoJE=T BraDBF=F KetDBF=T FulRan=T
         wScrn=  0.000000 ICntrl=       500 IOpCl=  0 I1Cent=   200000004 NGrid=           0
         NMat0=    1 NMatS0=      1 NMatT0=    0 NMatD0=    1 NMtDS0=    0 NMtDT0=    0
 Petite list used in FoFCou.
 Keep R1 ints in memory in canonical form, NReq=71692044.
 Requested convergence on RMS density matrix=1.00D-08 within  32 cycles.
 Requested convergence on MAX density matrix=1.00D-06.
 Requested convergence on             energy=1.00D-06.
 No special actions if energy rises.
 SCF Done:  E(RwB97XD) =  -314.148777259     A.U. after   13 cycles
            NFock= 13  Conv=0.57D-08     -V/T= 2.0025
 QCSCF skips out because SCF is already converged.

 **********************************************************************

            Population analysis using the SCF density.

 **********************************************************************

 Orbital symmetries:
       Occupied  (A) (A) (A) (A) (A) (A) (A) (A) (A) (A) (A) (A)
                 (A) (A) (A) (A) (A)
       Virtual   (A) (A) (A) (A) (A) (A) (A) (A) (A) (A) (A) (A)
                 (A) (A) (A) (A) (A) (A) (A) (A) (A) (A) (A) (A)
                 (A) (A) (A) (A) (A) (A) (A) (A) (A) (A) (A) (A)
                 (A) (A) (A) (A) (A) (A) (A) (A) (A) (A) (A) (A)
                 (A) (A) (A) (A) (A) (A) (A) (A) (A) (A) (A) (A)
                 (A) (A) (A) (A) (A) (A) (A) (A) (A) (A) (A) (A)
                 (A) (A) (A) (A) (A) (A) (A) (A) (A) (A) (A) (A)
                 (A) (A) (A) (A) (A) (A) (A) (A) (A) (A) (A) (A)
                 (A) (A) (A) (A) (A) (A) (A) (A) (A) (A) (A) (A)
                 (A)
 The electronic state is 1-A.
 Alpha  occ. eigenvalues --  -24.87924 -24.87858 -19.26524 -10.48397  -1.44249
 Alpha  occ. eigenvalues --   -1.36458  -1.13218  -0.80228  -0.69391  -0.64674
 Alpha  occ. eigenvalues --   -0.64215  -0.63686  -0.56565  -0.53994  -0.49588
 Alpha  occ. eigenvalues --   -0.42708  -0.38089
 Alpha virt. eigenvalues --    0.00208   0.07867   0.10297   0.10614   0.11618
 Alpha virt. eigenvalues --    0.17635   0.20063   0.23697   0.24847   0.26377
 Alpha virt. eigenvalues --    0.28118   0.29190   0.29885   0.33228   0.34425
 Alpha virt. eigenvalues --    0.35860   0.37428   0.40452   0.41656   0.44958
 Alpha virt. eigenvalues --    0.48547   0.54967   0.55987   0.59252   0.63228
 Alpha virt. eigenvalues --    0.68365   0.73554   0.75758   0.81897   0.83653
 Alpha virt. eigenvalues --    0.88926   0.90654   0.93194   0.96393   1.01332
 Alpha virt. eigenvalues --    1.07799   1.14973   1.21033   1.23664   1.34233
 Alpha virt. eigenvalues --    1.34613   1.39789   1.41082   1.41820   1.45163
 Alpha virt. eigenvalues --    1.48807   1.50598   1.56342   1.85395   1.87125
 Alpha virt. eigenvalues --    1.91143   1.98835   2.02913   2.05091   2.05416
 Alpha virt. eigenvalues --    2.11384   2.12856   2.24937   2.29617   2.30892
 Alpha virt. eigenvalues --    2.38824   2.40415   2.47975   2.57870   2.72454
 Alpha virt. eigenvalues --    2.85149   2.90737   2.93598   3.24532   3.31491
 Alpha virt. eigenvalues --    3.36327   3.38150   3.45616   3.72639   3.84447
 Alpha virt. eigenvalues --    3.87987   3.92101   4.05687   4.18624   4.23587
 Alpha virt. eigenvalues --    4.30605   5.18965   5.66020   6.26873   6.35634
 Alpha virt. eigenvalues --    6.36673   6.39673   6.42182   6.59377   6.83140
 Alpha virt. eigenvalues --    6.95584   6.97296   7.09540   7.35503   7.54468
 Alpha virt. eigenvalues --    9.07665   9.09156   9.09738   9.10785   9.27483
 Alpha virt. eigenvalues --    9.30968   9.34057   9.45946   9.68671   9.77713
 Alpha virt. eigenvalues --   23.95681  50.01568  66.87628  66.91616
          Condensed to atoms (all electrons):
               1          2          3          4          5          6
     1  C    5.776428   0.006168  -0.022676  -0.004848   0.001920  -0.009295
     2  H    0.006168   0.473619  -0.003455  -0.000969  -0.008720   0.290113
     3  F   -0.022676  -0.003455   9.138959   0.022105  -0.002982   0.014286
     4  F   -0.004848  -0.000969   0.022105   9.112083   0.000124  -0.003699
     5  H    0.001920  -0.008720  -0.002982   0.000124   0.480784   0.290909
     6  O   -0.009295   0.290113   0.014286  -0.003699   0.290909   7.880163
 Mulliken charges:
               1
     1  C    0.252303
     2  H    0.243243
     3  F   -0.146237
     4  F   -0.124796
     5  H    0.237966
     6  O   -0.462479
 Sum of Mulliken charges =  -0.00000
 Mulliken charges with hydrogens summed into heavy atoms:
               1
     1  C    0.252303
     3  F   -0.146237
     4  F   -0.124796
     6  O    0.018730
 Electronic spatial extent (au):  <R**2>=            344.7011
 Charge=             -0.0000 electrons
 Dipole moment (field-independent basis, Debye):
    X=             -0.9913    Y=              1.1700    Z=              0.6056  Tot=              1.6487
 Quadrupole moment (field-independent basis, Debye-Ang):
   XX=            -18.2687   YY=            -21.8216   ZZ=            -22.6989
   XY=             -3.2879   XZ=             -2.3977   YZ=             -1.0998
 Traceless Quadrupole moment (field-independent basis, Debye-Ang):
   XX=              2.6610   YY=             -0.8918   ZZ=             -1.7692
   XY=             -3.2879   XZ=             -2.3977   YZ=             -1.0998
 Octapole moment (field-independent basis, Debye-Ang**2):
  XXX=             -2.8211  YYY=              1.4255  ZZZ=             -6.8174  XYY=             -2.0083
  XXY=              8.6384  XXZ=              4.2995  XZZ=             -2.5544  YZZ=              0.0886
  YYZ=             -1.7537  XYZ=              2.5901
 Hexadecapole moment (field-independent basis, Debye-Ang**3):
 XXXX=           -230.8100 YYYY=            -79.1229 ZZZZ=            -40.7189 XXXY=            -22.8376
 XXXZ=            -13.4533 YYYX=             -4.0286 YYYZ=             -0.7892 ZZZX=             -8.5098
 ZZZY=             -0.6994 XXYY=            -49.6186 XXZZ=            -41.7292 YYZZ=            -19.0158
 XXYZ=             -5.8300 YYXZ=             -0.9801 ZZXY=             -0.1654
 N-N= 1.153993424441D+02 E-N=-9.768079815356D+02  KE= 3.133576980344D+02
 Calling FoFJK, ICntrl=      2127 FMM=F ISym2X=0 I1Cent= 0 IOpClX= 0 NMat=1 NMatS=1 NMatT=0.
 ***** Axes restored to original set *****
 -------------------------------------------------------------------
 Center     Atomic                   Forces (Hartrees/Bohr)
 Number     Number              X              Y              Z
 -------------------------------------------------------------------
      1        6           0.000004966    0.000095388    0.000010708
      2        1           0.000003405   -0.000000121    0.000000875
      3        9           0.000003801   -0.000052799    0.000027217
      4        9          -0.000010585   -0.000032959   -0.000038605
      5        1           0.000004778    0.000001007   -0.000002450
      6        8          -0.000006365   -0.000010516    0.000002255
 -------------------------------------------------------------------
 Cartesian Forces:  Max     0.000095388 RMS     0.000029504

 GradGradGradGradGradGradGradGradGradGradGradGradGradGradGradGradGradGrad
 Berny optimization.
 FormGI is forming the generalized inverse of G from B-inverse, IUseBI=4.
 Internal  Forces:  Max     0.000057524 RMS     0.000022036
 Search for a local minimum.
 Step number   1 out of a maximum of   26
 All quantities printed in internal units (Hartrees-Bohrs-Radians)
 Mixed Optimization -- En-DIIS/RFO-DIIS
 Second derivative matrix not updated -- first step.
 The second derivative matrix:
                          R1        R2        R3        R4        R5
           R1           0.01465
           R2           0.00000   0.66683
           R3           0.00000   0.00000   0.68212
           R4           0.00000   0.00000   0.00000   0.02476
           R5           0.00000   0.00000   0.00000   0.00000   0.55933
           R6           0.00000   0.00000   0.00000   0.00000   0.00000
           A1           0.00000   0.00000   0.00000   0.00000   0.00000
           A2           0.00000   0.00000   0.00000   0.00000   0.00000
           A3           0.00000   0.00000   0.00000   0.00000   0.00000
           A4           0.00000   0.00000   0.00000   0.00000   0.00000
           A5           0.00000   0.00000   0.00000   0.00000   0.00000
           A6           0.00000   0.00000   0.00000   0.00000   0.00000
           A7           0.00000   0.00000   0.00000   0.00000   0.00000
           D1           0.00000   0.00000   0.00000   0.00000   0.00000
           D2           0.00000   0.00000   0.00000   0.00000   0.00000
           D3           0.00000   0.00000   0.00000   0.00000   0.00000
                          R6        A1        A2        A3        A4
           R6           0.56058
           A1           0.00000   0.16000
           A2           0.00000   0.00000   0.16000
           A3           0.00000   0.00000   0.00000   0.25000
           A4           0.00000   0.00000   0.00000   0.00000   0.25000
           A5           0.00000   0.00000   0.00000   0.00000   0.00000
           A6           0.00000   0.00000   0.00000   0.00000   0.00000
           A7           0.00000   0.00000   0.00000   0.00000   0.00000
           D1           0.00000   0.00000   0.00000   0.00000   0.00000
           D2           0.00000   0.00000   0.00000   0.00000   0.00000
           D3           0.00000   0.00000   0.00000   0.00000   0.00000
                          A5        A6        A7        D1        D2
           A5           0.25000
           A6           0.00000   0.16000
           A7           0.00000   0.00000   0.16000
           D1           0.00000   0.00000   0.00000   0.00230
           D2           0.00000   0.00000   0.00000   0.00000   0.00230
           D3           0.00000   0.00000   0.00000   0.00000   0.00000
                          D3
           D3           0.01586
 ITU=  0
     Eigenvalues ---    0.00815   0.01582   0.02545   0.08653   0.16000
     Eigenvalues ---    0.16642   0.20706   0.21108   0.55468   0.56058
     Eigenvalues ---    0.66683   0.68212
 RFO step:  Lambda=-2.59344597D-08 EMin= 8.15080684D-03
 Linear search not attempted -- first point.
 Iteration  1 RMS(Cart)=  0.00027977 RMS(Int)=  0.00000006
 Iteration  2 RMS(Cart)=  0.00000005 RMS(Int)=  0.00000001
 Variable       Old X    -DE/DX   Delta X   Delta X   Delta X     New X
                                 (Linear)    (Quad)   (Total)
    R1        5.26188  -0.00000   0.00000  -0.00012  -0.00012   5.26176
    R2        2.46013  -0.00006   0.00000  -0.00009  -0.00009   2.46004
    R3        2.44978   0.00004   0.00000   0.00007   0.00007   2.44985
    R4        5.20694   0.00000   0.00000   0.00005   0.00005   5.20699
    R5        1.81012   0.00000   0.00000  -0.00000  -0.00000   1.81012
    R6        1.80904  -0.00000   0.00000  -0.00000  -0.00000   1.80903
    A1        1.87217   0.00001   0.00000  -0.00001  -0.00001   1.87216
    A2        1.78685  -0.00002   0.00000  -0.00002  -0.00002   1.78684
    A3        1.82872  -0.00001   0.00000  -0.00008  -0.00008   1.82865
    A4        1.63410   0.00002   0.00000   0.00012   0.00012   1.63423
    A5        1.61410  -0.00003   0.00000  -0.00021  -0.00021   1.61389
    A6        1.97695  -0.00000   0.00000  -0.00003  -0.00003   1.97692
    A7        1.83747  -0.00001   0.00000   0.00003   0.00003   1.83750
    D1       -0.54376  -0.00000   0.00000   0.00050   0.00050  -0.54325
    D2       -2.37610   0.00001   0.00000   0.00059   0.00059  -2.37551
    D3        1.95441  -0.00000   0.00000  -0.00006  -0.00006   1.95435
         Item               Value     Threshold  Converged?
 Maximum Force            0.000058     0.000450     YES
 RMS     Force            0.000022     0.000300     YES
 Maximum Displacement     0.000458     0.001800     YES
 RMS     Displacement     0.000280     0.001200     YES
 Predicted change in Energy=-1.296753D-08
 Optimization completed.
    -- Stationary point found.
                           ----------------------------
                           !   Optimized Parameters   !
                           ! (Angstroms and Degrees)  !
 --------------------------                            --------------------------
 ! Name  Definition              Value          Derivative Info.                !
 --------------------------------------------------------------------------------
 ! R1    R(1,2)                  2.7845         -DE/DX =    0.0                 !
 ! R2    R(1,3)                  1.3018         -DE/DX =   -0.0001              !
 ! R3    R(1,4)                  1.2964         -DE/DX =    0.0                 !
 ! R4    R(1,6)                  2.7554         -DE/DX =    0.0                 !
 ! R5    R(2,6)                  0.9579         -DE/DX =    0.0                 !
 ! R6    R(5,6)                  0.9573         -DE/DX =    0.0                 !
 ! A1    A(2,1,3)              107.2673         -DE/DX =    0.0                 !
 ! A2    A(2,1,4)              102.3792         -DE/DX =    0.0                 !
 ! A3    A(3,1,4)              104.7782         -DE/DX =    0.0                 !
 ! A4    A(3,1,6)               93.6273         -DE/DX =    0.0                 !
 ! A5    A(4,1,6)               92.481          -DE/DX =    0.0                 !
 ! A6    A(1,6,5)              113.2709         -DE/DX =    0.0                 !
 ! A7    A(2,6,5)              105.2792         -DE/DX =    0.0                 !
 ! D1    D(3,1,6,5)            -31.1549         -DE/DX =    0.0                 !
 ! D2    D(4,1,6,5)           -136.1405         -DE/DX =    0.0                 !
 ! D3    D(5,2,6,1)            111.9793         -DE/DX =    0.0                 !
 --------------------------------------------------------------------------------
 GradGradGradGradGradGradGradGradGradGradGradGradGradGradGradGradGradGrad

                          Input orientation:                          
 ---------------------------------------------------------------------
 Center     Atomic      Atomic             Coordinates (Angstroms)
 Number     Number       Type             X           Y           Z
 ---------------------------------------------------------------------
      1          6           0        0.660195   -0.009125    0.573589
      2          1           0       -2.102845   -0.232580    0.836168
      3          9           0        0.895329    1.045623   -0.152372
      4          9           0        0.948150   -1.011465   -0.196454
      5          1           0       -2.383994    0.765537   -0.278263
      6          8           0       -2.008206   -0.098204   -0.107502
 ---------------------------------------------------------------------
                    Distance matrix (angstroms):
                    1          2          3          4          5
     1  C    0.000000
     2  H    2.784469   0.000000
     3  F    1.301845   3.405886   0.000000
     4  F    1.296368   3.313841   2.058238   0.000000
     5  H    3.254664   1.522248   3.293669   3.777249   0.000000
     6  O    2.755392   0.957876   3.121037   3.095480   0.957301
                    6
     6  O    0.000000
 Stoichiometry    CH2F2O
 Framework group  C1[X(CH2F2O)]
 Deg. of freedom    12
 Full point group                 C1      NOp   1
 Largest Abelian subgroup         C1      NOp   1
 Largest concise Abelian subgroup C1      NOp   1
                         Standard orientation:                         
 ---------------------------------------------------------------------
 Center     Atomic      Atomic             Coordinates (Angstroms)
 Number     Number       Type             X           Y           Z
 ---------------------------------------------------------------------
      1          6           0        0.660195   -0.009125    0.573589
      2          1           0       -2.102845   -0.232579    0.836168
      3          9           0        0.895330    1.045623   -0.152372
      4          9           0        0.948150   -1.011465   -0.196454
      5          1           0       -2.383994    0.765538   -0.278263
      6          8           0       -2.008206   -0.098203   -0.107502
 ---------------------------------------------------------------------
 Rotational constants (GHZ):          10.7412802           4.2921941           3.3104446
 1\1\GINC-CCLEARCH4\FOpt\RwB97XD\6-311+G(2d,2p)\C1H2F2O1\RAPPE\04-Nov-2
 022\0\\# opt wb97xd/6-311+g(2d,2p) geom=connectivity scf=xqc freq\\Tit
 le Card Required\\0,1\C,0.660195,-0.009125,0.573589\H,-2.102845,-0.232
 58,0.836168\F,0.895329,1.045623,-0.152372\F,0.94815,-1.011465,-0.19645
 4\H,-2.383994,0.765537,-0.278263\O,-2.008206,-0.098204,-0.107502\\Vers
 ion=EM64M-G16RevA.03\State=1-A\HF=-314.1487773\RMSD=5.681e-09\RMSF=2.9
 50e-05\Dipole=-0.3900023,0.4602989,0.2382769\Quadrupole=1.9783931,-0.6
 63066,-1.3153271,-2.4444784,-1.7826235,-0.8177088\PG=C01 [X(C1H2F2O1)]
 \\@


 Sometimes the fool who rushes in gets the job done.
                                    -- Al Bernstein
 Job cpu time:       0 days  0 hours  1 minutes 24.3 seconds.
 Elapsed time:       0 days  0 hours  0 minutes 11.6 seconds.
 File lengths (MBytes):  RWF=     10 Int=      0 D2E=      0 Chk=      2 Scr=      1
 Normal termination of Gaussian 16 at Fri Nov  4 11:00:32 2022.
 Link1:  Proceeding to internal job step number  2.
 ----------------------------------------------------------------------
 #N Geom=AllCheck Guess=TCheck SCRF=Check GenChk RwB97XD/6-311+G(2d,2p)
  Freq
 ----------------------------------------------------------------------
 1/10=4,29=7,30=1,38=1,40=1/1,3;
 2/12=2,40=1/2;
 3/5=4,6=6,7=212,11=2,14=-4,25=1,30=1,70=2,71=2,74=-58,116=1,140=1/1,2,3;
 4/5=101/1;
 5/5=2,8=3,13=1,38=6,98=1/2,8;
 8/6=4,10=90,11=11/1;
 11/6=1,8=1,9=11,15=111,16=1/1,2,10;
 10/6=1/2;
 6/7=2,8=2,9=2,10=2,28=1/1;
 7/8=1,10=1,25=1/1,2,3,16;
 1/10=4,30=1/3;
 99//99;
 Structure from the checkpoint file:  "cf2_h2o_ts_react.chk"
 -------------------
 Title Card Required
 -------------------
 Charge =  0 Multiplicity = 1
 Redundant internal coordinates found in file.  (old form).
 C,0,0.660195,-0.009125,0.573589
 H,0,-2.102845,-0.23258,0.836168
 F,0,0.895329,1.045623,-0.152372
 F,0,0.94815,-1.011465,-0.196454
 H,0,-2.383994,0.765537,-0.278263
 O,0,-2.008206,-0.098204,-0.107502
 Recover connectivity data from disk.

 GradGradGradGradGradGradGradGradGradGradGradGradGradGradGradGradGradGrad
 Berny optimization.
 Initialization pass.
                           ----------------------------
                           !    Initial Parameters    !
                           ! (Angstroms and Degrees)  !
 --------------------------                            --------------------------
 ! Name  Definition              Value          Derivative Info.                !
 --------------------------------------------------------------------------------
 ! R1    R(1,2)                  2.7845         calculate D2E/DX2 analytically  !
 ! R2    R(1,3)                  1.3018         calculate D2E/DX2 analytically  !
 ! R3    R(1,4)                  1.2964         calculate D2E/DX2 analytically  !
 ! R4    R(1,6)                  2.7554         calculate D2E/DX2 analytically  !
 ! R5    R(2,6)                  0.9579         calculate D2E/DX2 analytically  !
 ! R6    R(5,6)                  0.9573         calculate D2E/DX2 analytically  !
 ! A1    A(2,1,3)              107.2673         calculate D2E/DX2 analytically  !
 ! A2    A(2,1,4)              102.3792         calculate D2E/DX2 analytically  !
 ! A3    A(3,1,4)              104.7782         calculate D2E/DX2 analytically  !
 ! A4    A(3,1,6)               93.6273         calculate D2E/DX2 analytically  !
 ! A5    A(4,1,6)               92.481          calculate D2E/DX2 analytically  !
 ! A6    A(1,6,5)              113.2709         calculate D2E/DX2 analytically  !
 ! A7    A(2,6,5)              105.2792         calculate D2E/DX2 analytically  !
 ! D1    D(3,1,6,5)            -31.1549         calculate D2E/DX2 analytically  !
 ! D2    D(4,1,6,5)           -136.1405         calculate D2E/DX2 analytically  !
 ! D3    D(5,2,6,1)            111.9793         calculate D2E/DX2 analytically  !
 --------------------------------------------------------------------------------
 Trust Radius=3.00D-01 FncErr=1.00D-07 GrdErr=1.00D-07 EigMax=2.50D+02 EigMin=1.00D-04
 Number of steps in this run=      2 maximum allowed number of steps=      2.
 GradGradGradGradGradGradGradGradGradGradGradGradGradGradGradGradGradGrad

                          Input orientation:                          
 ---------------------------------------------------------------------
 Center     Atomic      Atomic             Coordinates (Angstroms)
 Number     Number       Type             X           Y           Z
 ---------------------------------------------------------------------
      1          6           0        0.660195   -0.009125    0.573589
      2          1           0       -2.102845   -0.232580    0.836168
      3          9           0        0.895329    1.045623   -0.152372
      4          9           0        0.948150   -1.011465   -0.196454
      5          1           0       -2.383994    0.765537   -0.278263
      6          8           0       -2.008206   -0.098204   -0.107502
 ---------------------------------------------------------------------
                    Distance matrix (angstroms):
                    1          2          3          4          5
     1  C    0.000000
     2  H    2.784469   0.000000
     3  F    1.301845   3.405886   0.000000
     4  F    1.296368   3.313841   2.058238   0.000000
     5  H    3.254664   1.522248   3.293669   3.777249   0.000000
     6  O    2.755392   0.957876   3.121037   3.095480   0.957301
                    6
     6  O    0.000000
 Stoichiometry    CH2F2O
 Framework group  C1[X(CH2F2O)]
 Deg. of freedom    12
 Full point group                 C1      NOp   1
 Largest Abelian subgroup         C1      NOp   1
 Largest concise Abelian subgroup C1      NOp   1
                         Standard orientation:                         
 ---------------------------------------------------------------------
 Center     Atomic      Atomic             Coordinates (Angstroms)
 Number     Number       Type             X           Y           Z
 ---------------------------------------------------------------------
      1          6           0        0.660195   -0.009125    0.573589
      2          1           0       -2.102845   -0.232579    0.836168
      3          9           0        0.895330    1.045623   -0.152372
      4          9           0        0.948150   -1.011465   -0.196454
      5          1           0       -2.383994    0.765538   -0.278263
      6          8           0       -2.008206   -0.098203   -0.107502
 ---------------------------------------------------------------------
 Rotational constants (GHZ):          10.7412802           4.2921941           3.3104446
 Standard basis: 6-311+G(2d,2p) (5D, 7F)
 There are   134 symmetry adapted cartesian basis functions of A   symmetry.
 There are   126 symmetry adapted basis functions of A   symmetry.
   126 basis functions,   190 primitive gaussians,   134 cartesian basis functions
    17 alpha electrons       17 beta electrons
       nuclear repulsion energy       115.4004755880 Hartrees.
 NAtoms=    6 NActive=    6 NUniq=    6 SFac= 1.00D+00 NAtFMM=   60 NAOKFM=F Big=F
 Integral buffers will be    131072 words long.
 Raffenetti 2 integral format.
 Two-electron integral symmetry is turned on.
 Nuclear repulsion after empirical dispersion term =      115.3993424441 Hartrees.
 One-electron integrals computed using PRISM.
 NBasis=   126 RedAO= T EigKep=  1.79D-03  NBF=   126
 NBsUse=   126 1.00D-06 EigRej= -1.00D+00 NBFU=   126
 Initial guess from the checkpoint file:  "cf2_h2o_ts_react.chk"
 B after Tr=    -0.000000   -0.000000   -0.000000
         Rot=    1.000000    0.000000   -0.000000   -0.000000 Ang=   0.00 deg.
 Keep R1 ints in memory in canonical form, NReq=71692044.
 Requested convergence on RMS density matrix=1.00D-08 within  32 cycles.
 Requested convergence on MAX density matrix=1.00D-06.
 Requested convergence on             energy=1.00D-06.
 No special actions if energy rises.
 SCF Done:  E(RwB97XD) =  -314.148777259     A.U. after    1 cycles
            NFock=  1  Conv=0.84D-09     -V/T= 2.0025
 QCSCF skips out because SCF is already converged.
 DoSCS=F DFT=T ScalE2(SS,OS)=  1.000000  1.000000
 Range of M.O.s used for correlation:     1   126
 NBasis=   126 NAE=    17 NBE=    17 NFC=     0 NFV=     0
 NROrb=    126 NOA=    17 NOB=    17 NVA=   109 NVB=   109

 **** Warning!!: The largest alpha MO coefficient is  0.10105833D+02

 Symmetrizing basis deriv contribution to polar:
 IMax=3 JMax=2 DiffMx= 0.00D+00
 G2DrvN: will do     7 centers at a time, making    1 passes.
 Calling FoFCou, ICntrl=  3107 FMM=F I1Cent=   0 AccDes= 0.00D+00.
 End of G2Drv F.D. properties file   721 does not exist.
 End of G2Drv F.D. properties file   722 does not exist.
 End of G2Drv F.D. properties file   788 does not exist.
          IDoAtm=111111
          Differentiating once with respect to electric field.
                with respect to dipole field.
          Differentiating once with respect to nuclear coordinates.
 Keep R1 ints in memory in canonical form, NReq=71669806.
          There are    21 degrees of freedom in the 1st order CPHF.  IDoFFX=6 NUNeed=     3.
     18 vectors produced by pass  0 Test12= 8.82D-15 4.76D-09 XBig12= 8.92D+00 2.02D+00.
 AX will form    18 AO Fock derivatives at one time.
     18 vectors produced by pass  1 Test12= 8.82D-15 4.76D-09 XBig12= 1.72D+00 4.46D-01.
     18 vectors produced by pass  2 Test12= 8.82D-15 4.76D-09 XBig12= 6.14D-02 6.08D-02.
     18 vectors produced by pass  3 Test12= 8.82D-15 4.76D-09 XBig12= 1.34D-03 6.92D-03.
     18 vectors produced by pass  4 Test12= 8.82D-15 4.76D-09 XBig12= 1.64D-05 1.06D-03.
     18 vectors produced by pass  5 Test12= 8.82D-15 4.76D-09 XBig12= 8.82D-08 7.53D-05.
     14 vectors produced by pass  6 Test12= 8.82D-15 4.76D-09 XBig12= 5.29D-10 3.75D-06.
      6 vectors produced by pass  7 Test12= 8.82D-15 4.76D-09 XBig12= 2.30D-12 2.60D-07.
      3 vectors produced by pass  8 Test12= 8.82D-15 4.76D-09 XBig12= 1.17D-14 2.36D-08.
 InvSVY:  IOpt=1 It=  1 EMax= 1.33D-15
 Solved reduced A of dimension   131 with    21 vectors.
 Isotropic polarizability for W=    0.000000       24.70 Bohr**3.
 End of Minotr F.D. properties file   721 does not exist.
 End of Minotr F.D. properties file   722 does not exist.
 End of Minotr F.D. properties file   788 does not exist.

 **********************************************************************

            Population analysis using the SCF density.

 **********************************************************************

 Orbital symmetries:
       Occupied  (A) (A) (A) (A) (A) (A) (A) (A) (A) (A) (A) (A)
                 (A) (A) (A) (A) (A)
       Virtual   (A) (A) (A) (A) (A) (A) (A) (A) (A) (A) (A) (A)
                 (A) (A) (A) (A) (A) (A) (A) (A) (A) (A) (A) (A)
                 (A) (A) (A) (A) (A) (A) (A) (A) (A) (A) (A) (A)
                 (A) (A) (A) (A) (A) (A) (A) (A) (A) (A) (A) (A)
                 (A) (A) (A) (A) (A) (A) (A) (A) (A) (A) (A) (A)
                 (A) (A) (A) (A) (A) (A) (A) (A) (A) (A) (A) (A)
                 (A) (A) (A) (A) (A) (A) (A) (A) (A) (A) (A) (A)
                 (A) (A) (A) (A) (A) (A) (A) (A) (A) (A) (A) (A)
                 (A) (A) (A) (A) (A) (A) (A) (A) (A) (A) (A) (A)
                 (A)
 The electronic state is 1-A.
 Alpha  occ. eigenvalues --  -24.87924 -24.87858 -19.26524 -10.48397  -1.44249
 Alpha  occ. eigenvalues --   -1.36458  -1.13218  -0.80228  -0.69391  -0.64674
 Alpha  occ. eigenvalues --   -0.64215  -0.63686  -0.56565  -0.53994  -0.49588
 Alpha  occ. eigenvalues --   -0.42708  -0.38089
 Alpha virt. eigenvalues --    0.00208   0.07867   0.10297   0.10614   0.11618
 Alpha virt. eigenvalues --    0.17635   0.20063   0.23697   0.24847   0.26377
 Alpha virt. eigenvalues --    0.28118   0.29190   0.29885   0.33228   0.34425
 Alpha virt. eigenvalues --    0.35860   0.37428   0.40452   0.41656   0.44958
 Alpha virt. eigenvalues --    0.48547   0.54967   0.55987   0.59252   0.63228
 Alpha virt. eigenvalues --    0.68365   0.73554   0.75758   0.81897   0.83653
 Alpha virt. eigenvalues --    0.88926   0.90654   0.93194   0.96393   1.01332
 Alpha virt. eigenvalues --    1.07799   1.14973   1.21033   1.23664   1.34233
 Alpha virt. eigenvalues --    1.34613   1.39789   1.41082   1.41820   1.45163
 Alpha virt. eigenvalues --    1.48807   1.50598   1.56342   1.85395   1.87125
 Alpha virt. eigenvalues --    1.91143   1.98835   2.02913   2.05091   2.05416
 Alpha virt. eigenvalues --    2.11384   2.12856   2.24937   2.29617   2.30892
 Alpha virt. eigenvalues --    2.38824   2.40415   2.47975   2.57870   2.72454
 Alpha virt. eigenvalues --    2.85149   2.90737   2.93598   3.24532   3.31491
 Alpha virt. eigenvalues --    3.36327   3.38150   3.45616   3.72639   3.84447
 Alpha virt. eigenvalues --    3.87987   3.92101   4.05687   4.18624   4.23587
 Alpha virt. eigenvalues --    4.30605   5.18965   5.66020   6.26873   6.35634
 Alpha virt. eigenvalues --    6.36673   6.39673   6.42182   6.59377   6.83140
 Alpha virt. eigenvalues --    6.95584   6.97296   7.09540   7.35503   7.54468
 Alpha virt. eigenvalues --    9.07665   9.09156   9.09738   9.10785   9.27483
 Alpha virt. eigenvalues --    9.30968   9.34057   9.45946   9.68671   9.77713
 Alpha virt. eigenvalues --   23.95681  50.01568  66.87628  66.91616
          Condensed to atoms (all electrons):
               1          2          3          4          5          6
     1  C    5.776428   0.006168  -0.022676  -0.004848   0.001920  -0.009295
     2  H    0.006168   0.473619  -0.003455  -0.000969  -0.008720   0.290113
     3  F   -0.022676  -0.003455   9.138959   0.022105  -0.002982   0.014286
     4  F   -0.004848  -0.000969   0.022105   9.112083   0.000124  -0.003699
     5  H    0.001920  -0.008720  -0.002982   0.000124   0.480784   0.290909
     6  O   -0.009295   0.290113   0.014286  -0.003699   0.290909   7.880163
 Mulliken charges:
               1
     1  C    0.252303
     2  H    0.243243
     3  F   -0.146237
     4  F   -0.124796
     5  H    0.237966
     6  O   -0.462478
 Sum of Mulliken charges =  -0.00000
 Mulliken charges with hydrogens summed into heavy atoms:
               1
     1  C    0.252303
     3  F   -0.146237
     4  F   -0.124796
     6  O    0.018730
 APT charges:
               1
     1  C    0.931580
     2  H    0.288983
     3  F   -0.464073
     4  F   -0.449420
     5  H    0.268493
     6  O   -0.575564
 Sum of APT charges =  -0.00000
 APT charges with hydrogens summed into heavy atoms:
               1
     1  C    0.931580
     3  F   -0.464073
     4  F   -0.449420
     6  O   -0.018087
 Electronic spatial extent (au):  <R**2>=            344.7011
 Charge=              0.0000 electrons
 Dipole moment (field-independent basis, Debye):
    X=             -0.9913    Y=              1.1700    Z=              0.6056  Tot=              1.6487
 Quadrupole moment (field-independent basis, Debye-Ang):
   XX=            -18.2687   YY=            -21.8216   ZZ=            -22.6989
   XY=             -3.2879   XZ=             -2.3977   YZ=             -1.0998
 Traceless Quadrupole moment (field-independent basis, Debye-Ang):
   XX=              2.6610   YY=             -0.8918   ZZ=             -1.7692
   XY=             -3.2879   XZ=             -2.3977   YZ=             -1.0998
 Octapole moment (field-independent basis, Debye-Ang**2):
  XXX=             -2.8211  YYY=              1.4255  ZZZ=             -6.8174  XYY=             -2.0083
  XXY=              8.6384  XXZ=              4.2995  XZZ=             -2.5544  YZZ=              0.0886
  YYZ=             -1.7537  XYZ=              2.5901
 Hexadecapole moment (field-independent basis, Debye-Ang**3):
 XXXX=           -230.8100 YYYY=            -79.1229 ZZZZ=            -40.7190 XXXY=            -22.8376
 XXXZ=            -13.4533 YYYX=             -4.0286 YYYZ=             -0.7892 ZZZX=             -8.5098
 ZZZY=             -0.6994 XXYY=            -49.6186 XXZZ=            -41.7292 YYZZ=            -19.0158
 XXYZ=             -5.8300 YYXZ=             -0.9801 ZZXY=             -0.1654
 N-N= 1.153993424441D+02 E-N=-9.768079819261D+02  KE= 3.133576982559D+02
  Exact polarizability:  26.392  -0.377  25.502   0.540  -0.354  22.199
 Approx polarizability:  23.157  -0.640  27.565   0.273  -0.482  22.298
 Calling FoFJK, ICntrl=    100127 FMM=F ISym2X=0 I1Cent= 0 IOpClX= 0 NMat=1 NMatS=1 NMatT=0.
 Full mass-weighted force constant matrix:
 Low frequencies ---    0.0007    0.0009    0.0010    3.7060    9.9903   14.4444
 Low frequencies ---   76.9850   82.2597   95.8289
 Diagonal vibrational polarizability:
      231.1889975     122.7453585     127.1662787
 Harmonic frequencies (cm**-1), IR intensities (KM/Mole), Raman scattering
 activities (A**4/AMU), depolarization ratios for plane and unpolarized
 incident light, reduced masses (AMU), force constants (mDyne/A),
 and normal coordinates:
                      1                      2                      3
                      A                      A                      A
 Frequencies --     76.9641                82.2438                95.8008
 Red. masses --      3.9496                 4.7921                 1.3331
 Frc consts  --      0.0138                 0.0191                 0.0072
 IR Inten    --      2.8669                22.6248                64.2660
  Atom  AN      X      Y      Z        X      Y      Z        X      Y      Z
     1   6    -0.02   0.09  -0.03     0.03   0.08   0.06     0.01   0.03  -0.01
     2   1     0.14   0.22   0.10    -0.11  -0.70  -0.16     0.04  -0.68  -0.12
     3   9     0.30   0.06   0.04    -0.01   0.03  -0.02     0.06   0.00  -0.02
     4   9    -0.16   0.05  -0.02    -0.31   0.02   0.00     0.03  -0.00   0.03
     5   1    -0.65  -0.47  -0.32     0.35  -0.00   0.34    -0.01   0.20   0.68
     6   8    -0.12  -0.17   0.02     0.34  -0.08  -0.03    -0.11   0.01  -0.04
                      4                      5                      6
                      A                      A                      A
 Frequencies --    168.5087               189.9095               289.0452
 Red. masses --      2.4537                 1.2530                 1.5512
 Frc consts  --      0.0410                 0.0266                 0.0764
 IR Inten    --     56.6290               114.1035               122.2541
  Atom  AN      X      Y      Z        X      Y      Z        X      Y      Z
     1   6     0.32   0.00   0.11     0.03   0.01   0.01     0.16   0.00   0.06
     2   1    -0.84  -0.14  -0.13    -0.09   0.20   0.04     0.94   0.22   0.06
     3   9    -0.04  -0.00  -0.01     0.03   0.02   0.00    -0.06  -0.00   0.01
     4   9    -0.04  -0.00  -0.02    -0.03   0.02  -0.01    -0.05  -0.01   0.00
     5   1    -0.24  -0.10  -0.24     0.90   0.33  -0.09    -0.06   0.03   0.15
     6   8    -0.08   0.02  -0.02    -0.08  -0.08   0.00    -0.04  -0.01  -0.07
                      7                      8                      9
                      A                      A                      A
 Frequencies --    677.7333              1119.6721              1242.0308
 Red. masses --     17.5972                13.4967                13.5684
 Frc consts  --      4.7622                 9.9692                12.3323
 IR Inten    --      2.5968               378.9080               127.5286
  Atom  AN      X      Y      Z        X      Y      Z        X      Y      Z
     1   6    -0.12  -0.01   0.39    -0.00   0.86  -0.05    -0.26   0.04   0.81
     2   1     0.11   0.02   0.01    -0.02   0.03   0.01     0.12   0.04   0.01
     3   9     0.05  -0.63  -0.13    -0.07  -0.29   0.21     0.07   0.22  -0.23
     4   9     0.02   0.63  -0.11     0.07  -0.25  -0.18     0.10  -0.24  -0.28
     5   1     0.00   0.00   0.02     0.10   0.03  -0.04    -0.03  -0.00   0.03
     6   8     0.00  -0.00  -0.01    -0.00  -0.01   0.00    -0.01  -0.00  -0.01
                     10                     11                     12
                      A                      A                      A
 Frequencies --   1651.5399              3890.0445              3994.1074
 Red. masses --      1.0825                 1.0447                 1.0825
 Frc consts  --      1.7397                 9.3140                10.1743
 IR Inten    --     77.3076                16.8488                75.2282
  Atom  AN      X      Y      Z        X      Y      Z        X      Y      Z
     1   6    -0.00   0.00  -0.00     0.00  -0.00  -0.00    -0.00  -0.00   0.00
     2   1    -0.31   0.63   0.06    -0.06  -0.14   0.72    -0.07  -0.09   0.66
     3   9    -0.00  -0.00   0.00     0.00  -0.00   0.00     0.00   0.00  -0.00
     4   9     0.00  -0.00  -0.00     0.00   0.00   0.00     0.00  -0.00  -0.00
     5   1    -0.16   0.07   0.68    -0.26   0.60  -0.16     0.29  -0.66   0.13
     6   8     0.03  -0.04  -0.05     0.02  -0.03  -0.04    -0.01   0.05  -0.05

 -------------------
 - Thermochemistry -
 -------------------
 Temperature   298.150 Kelvin.  Pressure   1.00000 Atm.
 Atom     1 has atomic number  6 and mass  12.00000
 Atom     2 has atomic number  1 and mass   1.00783
 Atom     3 has atomic number  9 and mass  18.99840
 Atom     4 has atomic number  9 and mass  18.99840
 Atom     5 has atomic number  1 and mass   1.00783
 Atom     6 has atomic number  8 and mass  15.99491
 Molecular mass:    68.00737 amu.
 Principal axes and moments of inertia in atomic units:
                           1         2         3
     Eigenvalues --   168.01919 420.47054 545.16581
           X            0.99978  -0.01921  -0.00786
           Y            0.01911   0.99974  -0.01220
           Z            0.00809   0.01205   0.99989
 This molecule is an asymmetric top.
 Rotational symmetry number  1.
 Rotational temperatures (Kelvin)      0.51550     0.20599     0.15888
 Rotational constants (GHZ):          10.74128     4.29219     3.31044
 Zero-point vibrational energy      80614.0 (Joules/Mol)
                                   19.26720 (Kcal/Mol)
 Warning -- explicit consideration of   6 degrees of freedom as
           vibrations may cause significant error
 Vibrational temperatures:    110.73   118.33   137.84   242.45   273.24
          (Kelvin)            415.87   975.11  1610.96  1787.01  2376.20
                             5596.91  5746.63
 
 Zero-point correction=                           0.030704 (Hartree/Particle)
 Thermal correction to Energy=                    0.037613
 Thermal correction to Enthalpy=                  0.038557
 Thermal correction to Gibbs Free Energy=        -0.000243
 Sum of electronic and zero-point Energies=           -314.118073
 Sum of electronic and thermal Energies=              -314.111165
 Sum of electronic and thermal Enthalpies=            -314.110220
 Sum of electronic and thermal Free Energies=         -314.149020
 
                     E (Thermal)             CV                S
                      KCal/Mol        Cal/Mol-Kelvin    Cal/Mol-Kelvin
 Total                   23.602             18.627             81.660
 Electronic               0.000              0.000              0.000
 Translational            0.889              2.981             38.569
 Rotational               0.889              2.981             25.158
 Vibrational             21.825             12.666             17.934
 Vibration     1          0.599              1.965              3.967
 Vibration     2          0.600              1.961              3.837
 Vibration     3          0.603              1.952              3.538
 Vibration     4          0.625              1.881              2.452
 Vibration     5          0.633              1.854              2.229
 Vibration     6          0.686              1.694              1.480
                       Q            Log10(Q)             Ln(Q)
 Total Bot       0.129299D+01          0.111596          0.256960
 Total V=0       0.171613D+15         14.234550         32.776264
 Vib (Bot)       0.834933D-12        -12.078349        -27.811425
 Vib (Bot)    1  0.267707D+01          0.427660          0.984723
 Vib (Bot)    2  0.250318D+01          0.398492          0.917561
 Vib (Bot)    3  0.214394D+01          0.331212          0.762643
 Vib (Bot)    4  0.119652D+01          0.077919          0.179414
 Vib (Bot)    5  0.105391D+01          0.022802          0.052503
 Vib (Bot)    6  0.661947D+00         -0.179177         -0.412570
 Vib (V=0)       0.110817D+03          2.044605          4.707878
 Vib (V=0)    1  0.322336D+01          0.508309          1.170425
 Vib (V=0)    2  0.305263D+01          0.484674          1.116002
 Vib (V=0)    3  0.270147D+01          0.431600          0.993795
 Vib (V=0)    4  0.179678D+01          0.254496          0.585999
 Vib (V=0)    5  0.166650D+01          0.221805          0.510724
 Vib (V=0)    6  0.132956D+01          0.123709          0.284850
 Electronic      0.100000D+01          0.000000          0.000000
 Translational   0.220439D+08          7.343288         16.908545
 Rotational      0.702517D+05          4.846657         11.159840
 ***** Axes restored to original set *****
 -------------------------------------------------------------------
 Center     Atomic                   Forces (Hartrees/Bohr)
 Number     Number              X              Y              Z
 -------------------------------------------------------------------
      1        6           0.000004943    0.000095385    0.000010704
      2        1           0.000003405   -0.000000122    0.000000877
      3        9           0.000003813   -0.000052796    0.000027218
      4        9          -0.000010574   -0.000032959   -0.000038602
      5        1           0.000004774    0.000001018   -0.000002453
      6        8          -0.000006360   -0.000010526    0.000002256
 -------------------------------------------------------------------
 Cartesian Forces:  Max     0.000095385 RMS     0.000029502
 FormGI is forming the generalized inverse of G from B-inverse, IUseBI=4.

 GradGradGradGradGradGradGradGradGradGradGradGradGradGradGradGradGradGrad
 Berny optimization.
 Internal  Forces:  Max     0.000057518 RMS     0.000022034
 Search for a local minimum.
 Step number   1 out of a maximum of    2
 All quantities printed in internal units (Hartrees-Bohrs-Radians)
 Second derivative matrix not updated -- analytic derivatives used.
 The second derivative matrix:
                          R1        R2        R3        R4        R5
           R1           0.00285
           R2          -0.00252   0.39225
           R3          -0.00289   0.09869   0.40637
           R4          -0.00149   0.00613   0.00498   0.00611
           R5           0.00228   0.00179   0.00159   0.00076   0.54263
           R6          -0.00049  -0.00027  -0.00073   0.00134  -0.00496
           A1           0.00235  -0.00560  -0.00574  -0.00073   0.03520
           A2           0.00264  -0.00522  -0.00659  -0.00137   0.02450
           A3           0.00099   0.05377   0.05381  -0.00210   0.01062
           A4           0.00260   0.00068   0.00305  -0.00124  -0.03605
           A5           0.00250   0.00349  -0.00101  -0.00163  -0.02446
           A6          -0.00032   0.00301  -0.00040   0.00057   0.00787
           A7          -0.00183   0.00199  -0.00387   0.00232   0.02769
           D1           0.00049   0.02533   0.02886  -0.00097   0.00401
           D2          -0.00085  -0.02896  -0.02526   0.00134  -0.00253
           D3           0.00026   0.00188  -0.00129  -0.00050  -0.00751
                          R6        A1        A2        A3        A4
           R6           0.55977
           A1           0.00339   0.01361
           A2          -0.00476   0.00248   0.01237
           A3          -0.00015  -0.01663  -0.01960   0.23550
           A4          -0.00360   0.00219   0.00198   0.01355   0.01451
           A5           0.00476   0.00274   0.00139   0.01489   0.00136
           A6           0.00101   0.00017  -0.00008  -0.00022  -0.00191
           A7           0.02820   0.01969  -0.01935  -0.00208  -0.02123
           D1           0.00100  -0.00702  -0.01131   0.12014   0.00762
           D2           0.00100   0.00933   0.00813  -0.11827  -0.00698
           D3          -0.00035  -0.00127   0.00066  -0.00002   0.00046
                          A5        A6        A7        D1        D2
           A5           0.01461
           A6           0.00029   0.00105
           A7           0.02167   0.00379   0.13726
           D1           0.00756  -0.00044   0.00324   0.06226
           D2          -0.00861  -0.00013   0.00496  -0.05941   0.06042
           D3           0.00051   0.00059  -0.00365  -0.00053  -0.00057
                          D3
           D3           0.00108
 ITU=  0
     Eigenvalues ---    0.00070   0.00129   0.00168   0.00552   0.01222
     Eigenvalues ---    0.02173   0.14563   0.29995   0.31394   0.54406
     Eigenvalues ---    0.55305   0.56288
 Angle between quadratic step and forces=  61.85 degrees.
 Linear search not attempted -- first point.
 Iteration  1 RMS(Cart)=  0.00163272 RMS(Int)=  0.00000161
 Iteration  2 RMS(Cart)=  0.00000149 RMS(Int)=  0.00000041
 Iteration  3 RMS(Cart)=  0.00000000 RMS(Int)=  0.00000041
 Variable       Old X    -DE/DX   Delta X   Delta X   Delta X     New X
                                 (Linear)    (Quad)   (Total)
    R1        5.26188  -0.00000   0.00000   0.00022   0.00022   5.26211
    R2        2.46013  -0.00006   0.00000  -0.00018  -0.00018   2.45996
    R3        2.44978   0.00004   0.00000   0.00014   0.00014   2.44992
    R4        5.20694   0.00000   0.00000  -0.00004  -0.00004   5.20690
    R5        1.81012   0.00000   0.00000  -0.00000  -0.00000   1.81012
    R6        1.80904  -0.00000   0.00000  -0.00000  -0.00000   1.80903
    A1        1.87217   0.00001   0.00000   0.00179   0.00179   1.87396
    A2        1.78685  -0.00002   0.00000  -0.00262  -0.00262   1.78423
    A3        1.82872  -0.00001   0.00000  -0.00001  -0.00001   1.82871
    A4        1.63410   0.00002   0.00000   0.00156   0.00156   1.63566
    A5        1.61410  -0.00003   0.00000  -0.00243  -0.00243   1.61167
    A6        1.97695  -0.00000   0.00000   0.00037   0.00037   1.97732
    A7        1.83747  -0.00001   0.00000   0.00002   0.00002   1.83749
    D1       -0.54376  -0.00000   0.00000  -0.00105  -0.00105  -0.54481
    D2       -2.37610   0.00001   0.00000  -0.00095  -0.00095  -2.37705
    D3        1.95441  -0.00000   0.00000   0.00042   0.00042   1.95483
         Item               Value     Threshold  Converged?
 Maximum Force            0.000058     0.000450     YES
 RMS     Force            0.000022     0.000300     YES
 Maximum Displacement     0.004563     0.001800     NO 
 RMS     Displacement     0.001633     0.001200     NO 
 Predicted change in Energy=-9.491947D-08
                           ----------------------------
                           ! Non-Optimized Parameters !
                           ! (Angstroms and Degrees)  !
 --------------------------                            --------------------------
 ! Name  Definition              Value          Derivative Info.                !
 --------------------------------------------------------------------------------
 ! R1    R(1,2)                  2.7846         -DE/DX =    0.0                 !
 ! R2    R(1,3)                  1.3018         -DE/DX =   -0.0001              !
 ! R3    R(1,4)                  1.2964         -DE/DX =    0.0                 !
 ! R4    R(1,6)                  2.7554         -DE/DX =    0.0                 !
 ! R5    R(2,6)                  0.9579         -DE/DX =    0.0                 !
 ! R6    R(5,6)                  0.9573         -DE/DX =    0.0                 !
 ! A1    A(2,1,3)              107.3698         -DE/DX =    0.0                 !
 ! A2    A(2,1,4)              102.2289         -DE/DX =    0.0                 !
 ! A3    A(3,1,4)              104.7774         -DE/DX =    0.0                 !
 ! A4    A(3,1,6)               93.7167         -DE/DX =    0.0                 !
 ! A5    A(4,1,6)               92.3418         -DE/DX =    0.0                 !
 ! A6    A(1,6,5)              113.2923         -DE/DX =    0.0                 !
 ! A7    A(2,6,5)              105.2805         -DE/DX =    0.0                 !
 ! D1    D(3,1,6,5)            -31.2154         -DE/DX =    0.0                 !
 ! D2    D(4,1,6,5)           -136.1948         -DE/DX =    0.0                 !
 ! D3    D(5,2,6,1)            112.0034         -DE/DX =    0.0                 !
 --------------------------------------------------------------------------------
 GradGradGradGradGradGradGradGradGradGradGradGradGradGradGradGradGradGrad


 ----------------------------------------------------------------------

 Electric dipole moment (input orientation):
 (Debye = 10**-18 statcoulomb cm , SI units = C m)
                  (au)            (Debye)         (10**-30 SI)
   Tot        0.648654D+00      0.164872D+01      0.549952D+01
   x         -0.390002D+00     -0.991287D+00     -0.330658D+01
   y          0.460299D+00      0.116996D+01      0.390258D+01
   z          0.238277D+00      0.605639D+00      0.202020D+01

 Dipole polarizability, Alpha (input orientation).
 (esu units = cm**3 , SI units = C**2 m**2 J**-1)
 Alpha(0;0):
               (au)            (10**-24 esu)      (10**-40 SI)
   iso        0.246978D+02      0.365984D+01      0.407212D+01
   aniso      0.404029D+01      0.598709D+00      0.666153D+00
   xx         0.263924D+02      0.391095D+01      0.435152D+01
   yx        -0.376948D+00     -0.558580D-01     -0.621504D-01
   yy         0.255022D+02      0.377904D+01      0.420474D+01
   zx         0.540292D+00      0.800630D-01      0.890821D-01
   zy        -0.354204D+00     -0.524876D-01     -0.584003D-01
   zz         0.221988D+02      0.328952D+01      0.366009D+01

 ----------------------------------------------------------------------

 Dipole orientation:
     6          1.56407666         -0.39077873         -0.36417652
     1         -2.11029657         -2.63890751          2.65779765
     9          1.68805174          1.98051439          0.27912926
     9          0.49840893         -0.38493766         -2.57001917
     1         -3.17878613         -0.11871721          3.54209440
     8         -2.97169323         -1.15723573          2.07539642

 Electric dipole moment (dipole orientation):
 (Debye = 10**-18 statcoulomb cm , SI units = C m)
                  (au)            (Debye)         (10**-30 SI)
   Tot        0.648654D+00      0.164872D+01      0.549952D+01
   x          0.000000D+00      0.000000D+00      0.000000D+00
   y          0.000000D+00      0.000000D+00      0.000000D+00
   z          0.648654D+00      0.164872D+01      0.549952D+01

 Dipole polarizability, Alpha (dipole orientation).
 (esu units = cm**3 , SI units = C**2 m**2 J**-1)
 Alpha(0;0):
               (au)            (10**-24 esu)      (10**-40 SI)
   iso        0.246978D+02      0.365984D+01      0.407212D+01
   aniso      0.404029D+01      0.598709D+00      0.666153D+00
   xx         0.249617D+02      0.369894D+01      0.411563D+01
   yx         0.116511D+01      0.172651D+00      0.192100D+00
   yy         0.238551D+02      0.353496D+01      0.393317D+01
   zx        -0.149041D+01     -0.220856D+00     -0.245735D+00
   zy         0.114242D+01      0.169289D+00      0.188360D+00
   zz         0.252766D+02      0.374560D+01      0.416754D+01

 ----------------------------------------------------------------------
 1\1\GINC-CCLEARCH4\Freq\RwB97XD\6-311+G(2d,2p)\C1H2F2O1\RAPPE\04-Nov-2
 022\0\\#N Geom=AllCheck Guess=TCheck SCRF=Check GenChk RwB97XD/6-311+G
 (2d,2p) Freq\\Title Card Required\\0,1\C,0.660195,-0.009125,0.573589\H
 ,-2.102845,-0.23258,0.836168\F,0.895329,1.045623,-0.152372\F,0.94815,-
 1.011465,-0.196454\H,-2.383994,0.765537,-0.278263\O,-2.008206,-0.09820
 4,-0.107502\\Version=EM64M-G16RevA.03\State=1-A\HF=-314.1487773\RMSD=8
 .423e-10\RMSF=2.950e-05\ZeroPoint=0.0307042\Thermal=0.0376126\Dipole=-
 0.3900022,0.4602988,0.2382769\DipoleDeriv=0.1777413,-0.0384864,-0.3373
 459,-0.0439029,1.716312,0.0050647,-0.3840112,0.0116754,0.9006871,0.395
 4841,0.0352389,0.0221489,0.0476501,0.2835043,-0.0282009,0.0237899,-0.0
 214917,0.1879619,-0.0279476,-0.2226562,0.1736714,-0.1376104,-0.9158013
 ,0.2496467,0.2085328,0.6829634,-0.4484715,-0.0251215,0.2660782,0.20203
 53,0.174183,-0.8434697,-0.2531262,0.2544187,-0.6901048,-0.4796674,0.30
 88935,0.0432454,0.0209014,0.0463333,0.2019607,-0.0171292,0.0338481,-0.
 0271386,0.294626,-0.8290498,-0.08342,-0.081411,-0.0866531,-0.4425059,0
 .0437449,-0.1365783,0.0440963,-0.4551361\Polar=26.3923854,-0.3769485,2
 5.502197,0.5402919,-0.3542036,22.1987989\Quadrupole=1.9783932,-0.66306
 61,-1.3153271,-2.4444783,-1.7826234,-0.8177088\PG=C01 [X(C1H2F2O1)]\NI
 mag=0\\0.05880034,-0.00765855,0.37976558,-0.13360630,0.00080780,0.4354
 5583,0.00063594,-0.00061550,0.00674658,0.01615865,-0.00017809,0.001604
 23,0.00087916,-0.01081623,0.05526149,0.00036483,-0.00005459,0.00017902
 ,-0.04970320,-0.08782273,0.53824873,-0.02575575,-0.04209891,0.06291416
 ,-0.00109194,-0.00048580,0.00018286,0.02034748,-0.03807935,-0.19215210
 ,0.12793857,0.00130931,-0.00066390,0.00004765,0.03819415,0.31996805,0.
 06299432,0.13816409,-0.20563864,-0.00281734,0.00058736,-0.00027984,-0.
 04651178,-0.12711853,0.14828651,-0.03059648,0.04881362,0.07341391,-0.0
 0096584,0.00024367,0.00033520,0.00725725,0.00307856,-0.01791687,0.0248
 1252,0.04561330,-0.18428282,-0.12944301,-0.00088547,-0.00114065,0.0000
 3690,0.00535823,-0.12892419,-0.00963205,-0.05283557,0.31244429,0.07385
 400,-0.13951027,-0.22262837,-0.00233094,-0.00139182,-0.00016016,-0.017
 85166,0.00053001,0.05467811,-0.05679258,0.13805641,0.16550677,-0.00023
 563,0.00373634,-0.00117253,0.00119079,-0.00425234,0.00509276,0.0000724
 8,-0.00200389,0.00184906,-0.00012362,-0.00095554,-0.00089505,0.0870087
 6,0.00098983,0.00100630,-0.00085312,0.00518048,-0.00855337,-0.00701058
 ,-0.00015204,-0.00101161,0.00082848,-0.00009292,0.00013352,0.00018353,
 -0.19522687,0.45301183,-0.00072569,-0.00066345,0.00051910,-0.02048878,
 0.04744926,-0.01069391,0.00004651,0.00044920,-0.00042680,0.00027317,-0
 .00007874,-0.00025939,0.03462960,-0.09999897,0.06972294,-0.00284843,-0
 .00217701,-0.00829580,-0.01592760,0.01548880,0.04372756,-0.00082952,-0
 .00249878,0.00240261,-0.00038381,0.00370505,0.00401624,-0.08791278,0.1
 8930153,-0.01373480,0.10790214,-0.00068714,-0.00594120,0.00067059,0.00
 582741,-0.04650780,0.09480334,-0.00081563,0.00278375,-0.00282936,0.000
 79264,0.00176983,0.00213215,0.19870231,-0.44458668,0.05284269,-0.20381
 959,0.49248208,-0.00288115,0.00125642,-0.00788694,0.06859369,0.0402987
 6,-0.52729384,0.00121991,-0.00184692,0.00338067,0.00068718,0.00106048,
 0.00286305,-0.03950382,0.10685066,-0.05886193,-0.02811580,-0.14761941,
 0.58779900\\-0.00000494,-0.00009539,-0.00001070,-0.00000340,0.00000012
 ,-0.00000088,-0.00000381,0.00005280,-0.00002722,0.00001057,0.00003296,
 0.00003860,-0.00000477,-0.00000102,0.00000245,0.00000636,0.00001053,-0
 .00000226\\\@


 LEARN FROM YESTERDAY,
 LIVE FOR TODAY,
 LOOK TO TOMORROW,
 REST THIS AFTERNOON.

           -- SNOOPY
 Job cpu time:       0 days  0 hours  5 minutes 29.2 seconds.
 Elapsed time:       0 days  0 hours  0 minutes 43.1 seconds.
 File lengths (MBytes):  RWF=     15 Int=      0 D2E=      0 Chk=      2 Scr=      1
 Normal termination of Gaussian 16 at Fri Nov  4 11:01:16 2022.
