 Entering Gaussian System, Link 0=/applications/g16/g16/g16
 Initial command:
 /applications/g16/g16/l1.exe "/scratch/g98/Gau-11678.inp" -scrdir="/scratch/g98/"
 Entering Link 1 = /applications/g16/g16/l1.exe PID=     11679.
  
 Copyright (c) 1988,1990,1992,1993,1995,1998,2003,2009,2016,
            Gaussian, Inc.  All Rights Reserved.
  
 This is part of the Gaussian(R) 16 program.  It is based on
 the Gaussian(R) 09 system (copyright 2009, Gaussian, Inc.),
 the Gaussian(R) 03 system (copyright 2003, Gaussian, Inc.),
 the Gaussian(R) 98 system (copyright 1998, Gaussian, Inc.),
 the Gaussian(R) 94 system (copyright 1995, Gaussian, Inc.),
 the Gaussian 92(TM) system (copyright 1992, Gaussian, Inc.),
 the Gaussian 90(TM) system (copyright 1990, Gaussian, Inc.),
 the Gaussian 88(TM) system (copyright 1988, Gaussian, Inc.),
 the Gaussian 86(TM) system (copyright 1986, Carnegie Mellon
 University), and the Gaussian 82(TM) system (copyright 1983,
 Carnegie Mellon University). Gaussian is a federally registered
 trademark of Gaussian, Inc.
  
 This software contains proprietary and confidential information,
 including trade secrets, belonging to Gaussian, Inc.
  
 This software is provided under written license and may be
 used, copied, transmitted, or stored only in accord with that
 written license.
  
 The following legend is applicable only to US Government
 contracts under FAR:
  
                    RESTRICTED RIGHTS LEGEND
  
 Use, reproduction and disclosure by the US Government is
 subject to restrictions as set forth in subparagraphs (a)
 and (c) of the Commercial Computer Software - Restricted
 Rights clause in FAR 52.227-19.
  
 Gaussian, Inc.
 340 Quinnipiac St., Bldg. 40, Wallingford CT 06492
  
  
 ---------------------------------------------------------------
 Warning -- This program may not be used in any manner that
 competes with the business of Gaussian, Inc. or will provide
 assistance to any competitor of Gaussian, Inc.  The licensee
 of this program is prohibited from giving any competitor of
 Gaussian, Inc. access to this program.  By using this program,
 the user acknowledges that Gaussian, Inc. is engaged in the
 business of creating and licensing software in the field of
 computational chemistry and represents and warrants to the
 licensee that it is not a competitor of Gaussian, Inc. and that
 it will not use this program in any manner prohibited above.
 ---------------------------------------------------------------
  

 Cite this work as:
 Gaussian 16, Revision A.03,
 M. J. Frisch, G. W. Trucks, H. B. Schlegel, G. E. Scuseria, 
 M. A. Robb, J. R. Cheeseman, G. Scalmani, V. Barone, 
 G. A. Petersson, H. Nakatsuji, X. Li, M. Caricato, A. V. Marenich, 
 J. Bloino, B. G. Janesko, R. Gomperts, B. Mennucci, H. P. Hratchian, 
 J. V. Ortiz, A. F. Izmaylov, J. L. Sonnenberg, D. Williams-Young, 
 F. Ding, F. Lipparini, F. Egidi, J. Goings, B. Peng, A. Petrone, 
 T. Henderson, D. Ranasinghe, V. G. Zakrzewski, J. Gao, N. Rega, 
 G. Zheng, W. Liang, M. Hada, M. Ehara, K. Toyota, R. Fukuda, 
 J. Hasegawa, M. Ishida, T. Nakajima, Y. Honda, O. Kitao, H. Nakai, 
 T. Vreven, K. Throssell, J. A. Montgomery, Jr., J. E. Peralta, 
 F. Ogliaro, M. J. Bearpark, J. J. Heyd, E. N. Brothers, K. N. Kudin, 
 V. N. Staroverov, T. A. Keith, R. Kobayashi, J. Normand, 
 K. Raghavachari, A. P. Rendell, J. C. Burant, S. S. Iyengar, 
 J. Tomasi, M. Cossi, J. M. Millam, M. Klene, C. Adamo, R. Cammi, 
 J. W. Ochterski, R. L. Martin, K. Morokuma, O. Farkas, 
 J. B. Foresman, and D. J. Fox, Gaussian, Inc., Wallingford CT, 2016.
 
 ******************************************
 Gaussian 16:  EM64M-G16RevA.03 25-Dec-2016
                 4-Nov-2022 
 ******************************************
 %mem=24GB
 %nprocshared=8
 Will use up to    8 processors via shared memory.
 %chk=cf2_h2o_ts_prod.chk
 ----------------------------------------------------------
 # opt wb97xd/6-311+g(2d,2p) geom=connectivity scf=xqc freq
 ----------------------------------------------------------
 1/18=20,19=15,26=3,38=1,57=2/1,3;
 2/9=110,12=2,17=6,18=5,40=1/2;
 3/5=4,6=6,7=212,11=2,25=1,30=1,71=1,74=-58/1,2,3;
 4//1;
 5/5=2,8=3,13=1,38=5/2,8;
 6/7=2,8=2,9=2,10=2,28=1/1;
 7//1,2,3,16;
 1/18=20,19=15,26=3/3(2);
 2/9=110/2;
 99//99;
 2/9=110/2;
 3/5=4,6=6,7=212,11=2,25=1,30=1,71=1,74=-58/1,2,3;
 4/5=5,16=3,69=1/1;
 5/5=2,8=3,13=1,38=5/2,8;
 7//1,2,3,16;
 1/18=20,19=15,26=3/3(-5);
 2/9=110/2;
 6/7=2,8=2,9=2,10=2,19=2,28=1/1;
 99/9=1/99;
 -------------------
 Title Card Required
 -------------------
 Symbolic Z-matrix:
 Charge =  0 Multiplicity = 1
 C                    -0.00695  -0.00008   0.35654 
 H                     0.05929  -0.00008   1.44096 
 F                     0.65206   1.08204  -0.13585 
 F                     0.65123  -1.08246  -0.13589 
 H                    -1.34919   0.0006   -0.98 
 O                    -1.29975   0.00047  -0.01932 
 

 GradGradGradGradGradGradGradGradGradGradGradGradGradGradGradGradGradGrad
 Berny optimization.
 Initialization pass.
                           ----------------------------
                           !    Initial Parameters    !
                           ! (Angstroms and Degrees)  !
 --------------------------                            --------------------------
 ! Name  Definition              Value          Derivative Info.                !
 --------------------------------------------------------------------------------
 ! R1    R(1,2)                  1.0864         estimate D2E/DX2                !
 ! R2    R(1,3)                  1.3593         estimate D2E/DX2                !
 ! R3    R(1,4)                  1.3591         estimate D2E/DX2                !
 ! R4    R(1,6)                  1.3463         estimate D2E/DX2                !
 ! R5    R(5,6)                  0.962          estimate D2E/DX2                !
 ! A1    A(2,1,3)              109.3903         estimate D2E/DX2                !
 ! A2    A(2,1,4)              109.3968         estimate D2E/DX2                !
 ! A3    A(2,1,6)              109.7067         estimate D2E/DX2                !
 ! A4    A(3,1,4)              105.5428         estimate D2E/DX2                !
 ! A5    A(3,1,6)              111.3518         estimate D2E/DX2                !
 ! A6    A(4,1,6)              111.3573         estimate D2E/DX2                !
 ! A7    A(1,6,5)              109.1572         estimate D2E/DX2                !
 ! D1    D(2,1,6,5)            179.9917         estimate D2E/DX2                !
 ! D2    D(3,1,6,5)             58.7488         estimate D2E/DX2                !
 ! D3    D(4,1,6,5)            -58.7535         estimate D2E/DX2                !
 --------------------------------------------------------------------------------
 Trust Radius=3.00D-01 FncErr=1.00D-07 GrdErr=1.00D-06 EigMax=2.50D+02 EigMin=1.00D-04
 Number of steps in this run=     25 maximum allowed number of steps=    100.
 GradGradGradGradGradGradGradGradGradGradGradGradGradGradGradGradGradGrad

                          Input orientation:                          
 ---------------------------------------------------------------------
 Center     Atomic      Atomic             Coordinates (Angstroms)
 Number     Number       Type             X           Y           Z
 ---------------------------------------------------------------------
      1          6           0       -0.006954   -0.000076    0.356541
      2          1           0        0.059288   -0.000079    1.440958
      3          9           0        0.652062    1.082043   -0.135846
      4          9           0        0.651230   -1.082463   -0.135890
      5          1           0       -1.349192    0.000595   -0.980004
      6          8           0       -1.299750    0.000465   -0.019322
 ---------------------------------------------------------------------
                    Distance matrix (angstroms):
                    1          2          3          4          5
     1  C    0.000000
     2  H    1.086438   0.000000
     3  F    1.359312   2.002169   0.000000
     4  F    1.359138   2.002099   2.164506   0.000000
     5  H    1.894190   2.800870   2.426345   2.426362   0.000000
     6  O    1.346326   1.994844   2.234493   2.234423   0.961953
                    6
     6  O    0.000000
 Stoichiometry    CH2F2O
 Framework group  C1[X(CH2F2O)]
 Deg. of freedom    12
 Full point group                 C1      NOp   1
 Largest Abelian subgroup         C1      NOp   1
 Largest concise Abelian subgroup C1      NOp   1
                         Standard orientation:                         
 ---------------------------------------------------------------------
 Center     Atomic      Atomic             Coordinates (Angstroms)
 Number     Number       Type             X           Y           Z
 ---------------------------------------------------------------------
      1          6           0        0.006954    0.000076    0.356541
      2          1           0       -0.059288    0.000079    1.440958
      3          9           0       -0.652063   -1.082043   -0.135846
      4          9           0       -0.651229    1.082463   -0.135890
      5          1           0        1.349192   -0.000596   -0.980004
      6          8           0        1.299750   -0.000466   -0.019322
 ---------------------------------------------------------------------
 Rotational constants (GHZ):          10.1624729          10.0709442           5.6491466
 Standard basis: 6-311+G(2d,2p) (5D, 7F)
 There are   134 symmetry adapted cartesian basis functions of A   symmetry.
 There are   126 symmetry adapted basis functions of A   symmetry.
   126 basis functions,   190 primitive gaussians,   134 cartesian basis functions
    17 alpha electrons       17 beta electrons
       nuclear repulsion energy       134.8130074126 Hartrees.
 NAtoms=    6 NActive=    6 NUniq=    6 SFac= 1.00D+00 NAtFMM=   60 NAOKFM=F Big=F
 Integral buffers will be    131072 words long.
 Raffenetti 2 integral format.
 Two-electron integral symmetry is turned on.
 Nuclear repulsion after empirical dispersion term =      134.8122350483 Hartrees.
 One-electron integrals computed using PRISM.
 NBasis=   126 RedAO= T EigKep=  1.48D-03  NBF=   126
 NBsUse=   126 1.00D-06 EigRej= -1.00D+00 NBFU=   126
 ExpMin= 4.38D-02 ExpMax= 1.14D+04 ExpMxC= 1.72D+03 IAcc=3 IRadAn=         5 AccDes= 0.00D+00
 Harris functional with IExCor= 4639 and IRadAn=       5 diagonalized for initial guess.
 HarFok:  IExCor= 4639 AccDes= 0.00D+00 IRadAn=         5 IDoV= 1 UseB2=F ITyADJ=14
 ICtDFT=  3500011 ScaDFX=  1.000000  1.000000  1.000000  1.000000
 FoFCou: FMM=F IPFlag=           0 FMFlag=      100000 FMFlg1=           0
         NFxFlg=           0 DoJE=T BraDBF=F KetDBF=T FulRan=T
         wScrn=  0.000000 ICntrl=       500 IOpCl=  0 I1Cent=   200000004 NGrid=           0
         NMat0=    1 NMatS0=      1 NMatT0=    0 NMatD0=    1 NMtDS0=    0 NMtDT0=    0
 Petite list used in FoFCou.
 Keep R1 ints in memory in canonical form, NReq=71692044.
 Requested convergence on RMS density matrix=1.00D-08 within  32 cycles.
 Requested convergence on MAX density matrix=1.00D-06.
 Requested convergence on             energy=1.00D-06.
 No special actions if energy rises.
 SCF Done:  E(RwB97XD) =  -314.244428086     A.U. after   11 cycles
            NFock= 11  Conv=0.48D-08     -V/T= 2.0026
 QCSCF skips out because SCF is already converged.

 **********************************************************************

            Population analysis using the SCF density.

 **********************************************************************

 Orbital symmetries:
       Occupied  (A) (A) (A) (A) (A) (A) (A) (A) (A) (A) (A) (A)
                 (A) (A) (A) (A) (A)
       Virtual   (A) (A) (A) (A) (A) (A) (A) (A) (A) (A) (A) (A)
                 (A) (A) (A) (A) (A) (A) (A) (A) (A) (A) (A) (A)
                 (A) (A) (A) (A) (A) (A) (A) (A) (A) (A) (A) (A)
                 (A) (A) (A) (A) (A) (A) (A) (A) (A) (A) (A) (A)
                 (A) (A) (A) (A) (A) (A) (A) (A) (A) (A) (A) (A)
                 (A) (A) (A) (A) (A) (A) (A) (A) (A) (A) (A) (A)
                 (A) (A) (A) (A) (A) (A) (A) (A) (A) (A) (A) (A)
                 (A) (A) (A) (A) (A) (A) (A) (A) (A) (A) (A) (A)
                 (A) (A) (A) (A) (A) (A) (A) (A) (A) (A) (A) (A)
                 (A)
 The electronic state is 1-A.
 Alpha  occ. eigenvalues --  -24.83033 -24.83028 -19.30478 -10.50720  -1.38817
 Alpha  occ. eigenvalues --   -1.31784  -1.19410  -0.81722  -0.70305  -0.66721
 Alpha  occ. eigenvalues --   -0.66521  -0.56767  -0.53850  -0.50876  -0.49821
 Alpha  occ. eigenvalues --   -0.48264  -0.44591
 Alpha virt. eigenvalues --    0.07056   0.07798   0.10521   0.10625   0.18964
 Alpha virt. eigenvalues --    0.21870   0.22297   0.24615   0.25773   0.28317
 Alpha virt. eigenvalues --    0.28522   0.30210   0.32107   0.33499   0.36150
 Alpha virt. eigenvalues --    0.38132   0.38502   0.40298   0.40323   0.46440
 Alpha virt. eigenvalues --    0.46739   0.56011   0.56879   0.62901   0.64219
 Alpha virt. eigenvalues --    0.66329   0.80381   0.82628   0.85200   0.85211
 Alpha virt. eigenvalues --    1.00177   1.05614   1.09561   1.12017   1.18014
 Alpha virt. eigenvalues --    1.18937   1.23162   1.26427   1.30673   1.38819
 Alpha virt. eigenvalues --    1.39627   1.43070   1.44691   1.47658   1.50092
 Alpha virt. eigenvalues --    1.52917   1.54202   1.63142   1.85612   1.87383
 Alpha virt. eigenvalues --    1.90220   1.95362   2.07908   2.08220   2.10116
 Alpha virt. eigenvalues --    2.20838   2.28995   2.33170   2.35192   2.39188
 Alpha virt. eigenvalues --    2.54395   2.60565   2.68300   2.82423   2.84527
 Alpha virt. eigenvalues --    2.85684   3.05554   3.37669   3.37896   3.41914
 Alpha virt. eigenvalues --    3.43958   3.52638   3.69988   3.86331   3.95402
 Alpha virt. eigenvalues --    4.05611   4.06958   4.16620   4.25920   4.26496
 Alpha virt. eigenvalues --    4.90247   5.14269   5.56258   6.12352   6.39969
 Alpha virt. eigenvalues --    6.40425   6.45780   6.46205   6.68260   6.70441
 Alpha virt. eigenvalues --    6.99701   7.11944   7.15460   7.25834   7.51849
 Alpha virt. eigenvalues --    9.13153   9.16910   9.22355   9.23914   9.29898
 Alpha virt. eigenvalues --    9.45439   9.52163   9.62127   9.75852   9.82508
 Alpha virt. eigenvalues --   24.04364  50.04705  66.93529  66.98757
          Condensed to atoms (all electrons):
               1          2          3          4          5          6
     1  C    4.256512   0.489625   0.188502   0.188507   0.015493   0.231170
     2  H    0.489625   0.527811  -0.049536  -0.049545   0.007971  -0.067091
     3  F    0.188502  -0.049536   9.181942   0.001893  -0.007364   0.011479
     4  F    0.188507  -0.049545   0.001893   9.181861  -0.007361   0.011492
     5  H    0.015493   0.007971  -0.007364  -0.007361   0.489080   0.249751
     6  O    0.231170  -0.067091   0.011479   0.011492   0.249751   7.932821
 Mulliken charges:
               1
     1  C    0.630191
     2  H    0.140765
     3  F   -0.326917
     4  F   -0.326848
     5  H    0.252430
     6  O   -0.369622
 Sum of Mulliken charges =  -0.00000
 Mulliken charges with hydrogens summed into heavy atoms:
               1
     1  C    0.770956
     3  F   -0.326917
     4  F   -0.326848
     6  O   -0.117191
 Electronic spatial extent (au):  <R**2>=            220.9393
 Charge=             -0.0000 electrons
 Dipole moment (field-independent basis, Debye):
    X=              0.8007    Y=              0.0004    Z=             -0.0511  Tot=              0.8023
 Quadrupole moment (field-independent basis, Debye-Ang):
   XX=            -23.3975   YY=            -24.4765   ZZ=            -17.7818
   XY=             -0.0012   XZ=             -2.8768   YZ=              0.0014
 Traceless Quadrupole moment (field-independent basis, Debye-Ang):
   XX=             -1.5122   YY=             -2.5912   ZZ=              4.1034
   XY=             -0.0012   XZ=             -2.8768   YZ=              0.0014
 Octapole moment (field-independent basis, Debye-Ang**2):
  XXX=             -4.9589  YYY=              0.0019  ZZZ=             -1.9438  XYY=             -0.4517
  XXY=              0.0015  XXZ=             -4.5417  XZZ=              1.5335  YZZ=             -0.0005
  YYZ=             -0.5314  XYZ=              0.0019
 Hexadecapole moment (field-independent basis, Debye-Ang**3):
 XXXX=           -105.7774 YYYY=            -88.9542 ZZZZ=            -25.2711 XXXY=             -0.0008
 XXXZ=             -6.4476 YYYX=              0.0016 YYYZ=             -0.0002 ZZZX=             -3.7163
 ZZZY=              0.0015 XXYY=            -33.1916 XXZZ=            -18.4716 YYZZ=            -19.7886
 XXYZ=              0.0030 YYXZ=              0.1636 ZZXY=             -0.0015
 N-N= 1.348122350483D+02 E-N=-1.015836619150D+03  KE= 3.134139745607D+02
 Calling FoFJK, ICntrl=      2127 FMM=F ISym2X=0 I1Cent= 0 IOpClX= 0 NMat=1 NMatS=1 NMatT=0.
 ***** Axes restored to original set *****
 -------------------------------------------------------------------
 Center     Atomic                   Forces (Hartrees/Bohr)
 Number     Number              X              Y              Z
 -------------------------------------------------------------------
      1        6          -0.000003851    0.000071854   -0.000060947
      2        1          -0.000020580   -0.000001219    0.000000309
      3        9          -0.000038282   -0.000067091    0.000026094
      4        9          -0.000000013   -0.000000994   -0.000004955
      5        1           0.000008304   -0.000000489   -0.000002329
      6        8           0.000054422   -0.000002061    0.000041829
 -------------------------------------------------------------------
 Cartesian Forces:  Max     0.000071854 RMS     0.000033978

 GradGradGradGradGradGradGradGradGradGradGradGradGradGradGradGradGradGrad
 Berny optimization.
 FormGI is forming the generalized inverse of G from B-inverse, IUseBI=4.
 Internal  Forces:  Max     0.000081474 RMS     0.000029718
 Search for a local minimum.
 Step number   1 out of a maximum of   25
 All quantities printed in internal units (Hartrees-Bohrs-Radians)
 Mixed Optimization -- En-DIIS/RFO-DIIS
 Second derivative matrix not updated -- first step.
 The second derivative matrix:
                          R1        R2        R3        R4        R5
           R1           0.35228
           R2           0.00000   0.53087
           R3           0.00000   0.00000   0.53122
           R4           0.00000   0.00000   0.00000   0.55810
           R5           0.00000   0.00000   0.00000   0.00000   0.55055
           A1           0.00000   0.00000   0.00000   0.00000   0.00000
           A2           0.00000   0.00000   0.00000   0.00000   0.00000
           A3           0.00000   0.00000   0.00000   0.00000   0.00000
           A4           0.00000   0.00000   0.00000   0.00000   0.00000
           A5           0.00000   0.00000   0.00000   0.00000   0.00000
           A6           0.00000   0.00000   0.00000   0.00000   0.00000
           A7           0.00000   0.00000   0.00000   0.00000   0.00000
           D1           0.00000   0.00000   0.00000   0.00000   0.00000
           D2           0.00000   0.00000   0.00000   0.00000   0.00000
           D3           0.00000   0.00000   0.00000   0.00000   0.00000
                          A1        A2        A3        A4        A5
           A1           0.16000
           A2           0.00000   0.16000
           A3           0.00000   0.00000   0.16000
           A4           0.00000   0.00000   0.00000   0.25000
           A5           0.00000   0.00000   0.00000   0.00000   0.25000
           A6           0.00000   0.00000   0.00000   0.00000   0.00000
           A7           0.00000   0.00000   0.00000   0.00000   0.00000
           D1           0.00000   0.00000   0.00000   0.00000   0.00000
           D2           0.00000   0.00000   0.00000   0.00000   0.00000
           D3           0.00000   0.00000   0.00000   0.00000   0.00000
                          A6        A7        D1        D2        D3
           A6           0.25000
           A7           0.00000   0.16000
           D1           0.00000   0.00000   0.02402
           D2           0.00000   0.00000   0.00000   0.02402
           D3           0.00000   0.00000   0.00000   0.00000   0.02402
 ITU=  0
     Eigenvalues ---    0.02402   0.11014   0.13611   0.16000   0.16000
     Eigenvalues ---    0.23751   0.24273   0.35228   0.53087   0.53122
     Eigenvalues ---    0.55055   0.55810
 RFO step:  Lambda=-3.09786161D-08 EMin= 2.40177917D-02
 Linear search not attempted -- first point.
 Iteration  1 RMS(Cart)=  0.00010055 RMS(Int)=  0.00000000
 Iteration  2 RMS(Cart)=  0.00000000 RMS(Int)=  0.00000000
 Variable       Old X    -DE/DX   Delta X   Delta X   Delta X     New X
                                 (Linear)    (Quad)   (Total)
    R1        2.05307  -0.00000   0.00000  -0.00000  -0.00000   2.05307
    R2        2.56873  -0.00008   0.00000  -0.00015  -0.00015   2.56857
    R3        2.56840   0.00000   0.00000   0.00000   0.00000   2.56840
    R4        2.54419  -0.00007   0.00000  -0.00013  -0.00013   2.54406
    R5        1.81783   0.00000   0.00000   0.00000   0.00000   1.81783
    A1        1.90922   0.00001   0.00000   0.00009   0.00009   1.90931
    A2        1.90933   0.00001   0.00000   0.00007   0.00007   1.90941
    A3        1.91474  -0.00003   0.00000  -0.00018  -0.00018   1.91456
    A4        1.84207  -0.00000   0.00000   0.00000   0.00000   1.84207
    A5        1.94345   0.00001   0.00000   0.00003   0.00003   1.94349
    A6        1.94355   0.00000   0.00000   0.00000   0.00000   1.94355
    A7        1.90515  -0.00002   0.00000  -0.00010  -0.00010   1.90505
    D1        3.14145   0.00000   0.00000   0.00003   0.00003   3.14147
    D2        1.02536   0.00000   0.00000   0.00002   0.00002   1.02538
    D3       -1.02544  -0.00000   0.00000  -0.00001  -0.00001  -1.02545
         Item               Value     Threshold  Converged?
 Maximum Force            0.000081     0.000450     YES
 RMS     Force            0.000030     0.000300     YES
 Maximum Displacement     0.000213     0.001800     YES
 RMS     Displacement     0.000101     0.001200     YES
 Predicted change in Energy=-1.548930D-08
 Optimization completed.
    -- Stationary point found.
                           ----------------------------
                           !   Optimized Parameters   !
                           ! (Angstroms and Degrees)  !
 --------------------------                            --------------------------
 ! Name  Definition              Value          Derivative Info.                !
 --------------------------------------------------------------------------------
 ! R1    R(1,2)                  1.0864         -DE/DX =    0.0                 !
 ! R2    R(1,3)                  1.3593         -DE/DX =   -0.0001              !
 ! R3    R(1,4)                  1.3591         -DE/DX =    0.0                 !
 ! R4    R(1,6)                  1.3463         -DE/DX =   -0.0001              !
 ! R5    R(5,6)                  0.962          -DE/DX =    0.0                 !
 ! A1    A(2,1,3)              109.3903         -DE/DX =    0.0                 !
 ! A2    A(2,1,4)              109.3968         -DE/DX =    0.0                 !
 ! A3    A(2,1,6)              109.7067         -DE/DX =    0.0                 !
 ! A4    A(3,1,4)              105.5428         -DE/DX =    0.0                 !
 ! A5    A(3,1,6)              111.3518         -DE/DX =    0.0                 !
 ! A6    A(4,1,6)              111.3573         -DE/DX =    0.0                 !
 ! A7    A(1,6,5)              109.1572         -DE/DX =    0.0                 !
 ! D1    D(2,1,6,5)            179.9917         -DE/DX =    0.0                 !
 ! D2    D(3,1,6,5)             58.7488         -DE/DX =    0.0                 !
 ! D3    D(4,1,6,5)            -58.7535         -DE/DX =    0.0                 !
 --------------------------------------------------------------------------------
 GradGradGradGradGradGradGradGradGradGradGradGradGradGradGradGradGradGrad

                          Input orientation:                          
 ---------------------------------------------------------------------
 Center     Atomic      Atomic             Coordinates (Angstroms)
 Number     Number       Type             X           Y           Z
 ---------------------------------------------------------------------
      1          6           0       -0.006954   -0.000076    0.356541
      2          1           0        0.059288   -0.000079    1.440958
      3          9           0        0.652062    1.082043   -0.135846
      4          9           0        0.651230   -1.082463   -0.135890
      5          1           0       -1.349192    0.000595   -0.980004
      6          8           0       -1.299750    0.000465   -0.019322
 ---------------------------------------------------------------------
                    Distance matrix (angstroms):
                    1          2          3          4          5
     1  C    0.000000
     2  H    1.086438   0.000000
     3  F    1.359312   2.002169   0.000000
     4  F    1.359138   2.002099   2.164506   0.000000
     5  H    1.894190   2.800870   2.426345   2.426362   0.000000
     6  O    1.346326   1.994844   2.234493   2.234423   0.961953
                    6
     6  O    0.000000
 Stoichiometry    CH2F2O
 Framework group  C1[X(CH2F2O)]
 Deg. of freedom    12
 Full point group                 C1      NOp   1
 Largest Abelian subgroup         C1      NOp   1
 Largest concise Abelian subgroup C1      NOp   1
                         Standard orientation:                         
 ---------------------------------------------------------------------
 Center     Atomic      Atomic             Coordinates (Angstroms)
 Number     Number       Type             X           Y           Z
 ---------------------------------------------------------------------
      1          6           0        0.006954    0.000076    0.356541
      2          1           0       -0.059288    0.000079    1.440958
      3          9           0       -0.652063   -1.082043   -0.135846
      4          9           0       -0.651229    1.082463   -0.135890
      5          1           0        1.349192   -0.000596   -0.980004
      6          8           0        1.299750   -0.000466   -0.019322
 ---------------------------------------------------------------------
 Rotational constants (GHZ):          10.1624729          10.0709442           5.6491466
 1\1\GINC-CCLEARO2\FOpt\RwB97XD\6-311+G(2d,2p)\C1H2F2O1\RAPPE\04-Nov-20
 22\0\\# opt wb97xd/6-311+g(2d,2p) geom=connectivity scf=xqc freq\\Titl
 e Card Required\\0,1\C,-0.006954,-0.000076,0.356541\H,0.059288,-0.0000
 79,1.440958\F,0.652062,1.082043,-0.135846\F,0.65123,-1.082463,-0.13589
 \H,-1.349192,0.000595,-0.980004\O,-1.29975,0.000465,-0.019322\\Version
 =EM64M-G16RevA.03\State=1-A\HF=-314.2444281\RMSD=4.798e-09\RMSF=3.398e
 -05\Dipole=-0.3150237,-0.0001527,-0.0200958\Quadrupole=-1.1242913,-1.9
 264957,3.0507869,-0.000916,2.1388243,-0.0010466\PG=C01 [X(C1H2F2O1)]\\
 @


 Other things may change us, but we start and end with family.
 -- Anthony Brandt
 Job cpu time:       0 days  0 hours  1 minutes 22.5 seconds.
 Elapsed time:       0 days  0 hours  0 minutes 11.3 seconds.
 File lengths (MBytes):  RWF=     10 Int=      0 D2E=      0 Chk=      2 Scr=      1
 Normal termination of Gaussian 16 at Fri Nov  4 11:00:47 2022.
 Link1:  Proceeding to internal job step number  2.
 ----------------------------------------------------------------------
 #N Geom=AllCheck Guess=TCheck SCRF=Check GenChk RwB97XD/6-311+G(2d,2p)
  Freq
 ----------------------------------------------------------------------
 1/10=4,29=7,30=1,38=1,40=1/1,3;
 2/12=2,40=1/2;
 3/5=4,6=6,7=212,11=2,14=-4,25=1,30=1,70=2,71=2,74=-58,116=1,140=1/1,2,3;
 4/5=101/1;
 5/5=2,8=3,13=1,38=6,98=1/2,8;
 8/6=4,10=90,11=11/1;
 11/6=1,8=1,9=11,15=111,16=1/1,2,10;
 10/6=1/2;
 6/7=2,8=2,9=2,10=2,28=1/1;
 7/8=1,10=1,25=1/1,2,3,16;
 1/10=4,30=1/3;
 99//99;
 Structure from the checkpoint file:  "cf2_h2o_ts_prod.chk"
 -------------------
 Title Card Required
 -------------------
 Charge =  0 Multiplicity = 1
 Redundant internal coordinates found in file.  (old form).
 C,0,-0.006954,-0.000076,0.356541
 H,0,0.059288,-0.000079,1.440958
 F,0,0.652062,1.082043,-0.135846
 F,0,0.65123,-1.082463,-0.13589
 H,0,-1.349192,0.000595,-0.980004
 O,0,-1.29975,0.000465,-0.019322
 Recover connectivity data from disk.

 GradGradGradGradGradGradGradGradGradGradGradGradGradGradGradGradGradGrad
 Berny optimization.
 Initialization pass.
                           ----------------------------
                           !    Initial Parameters    !
                           ! (Angstroms and Degrees)  !
 --------------------------                            --------------------------
 ! Name  Definition              Value          Derivative Info.                !
 --------------------------------------------------------------------------------
 ! R1    R(1,2)                  1.0864         calculate D2E/DX2 analytically  !
 ! R2    R(1,3)                  1.3593         calculate D2E/DX2 analytically  !
 ! R3    R(1,4)                  1.3591         calculate D2E/DX2 analytically  !
 ! R4    R(1,6)                  1.3463         calculate D2E/DX2 analytically  !
 ! R5    R(5,6)                  0.962          calculate D2E/DX2 analytically  !
 ! A1    A(2,1,3)              109.3903         calculate D2E/DX2 analytically  !
 ! A2    A(2,1,4)              109.3968         calculate D2E/DX2 analytically  !
 ! A3    A(2,1,6)              109.7067         calculate D2E/DX2 analytically  !
 ! A4    A(3,1,4)              105.5428         calculate D2E/DX2 analytically  !
 ! A5    A(3,1,6)              111.3518         calculate D2E/DX2 analytically  !
 ! A6    A(4,1,6)              111.3573         calculate D2E/DX2 analytically  !
 ! A7    A(1,6,5)              109.1572         calculate D2E/DX2 analytically  !
 ! D1    D(2,1,6,5)            179.9917         calculate D2E/DX2 analytically  !
 ! D2    D(3,1,6,5)             58.7488         calculate D2E/DX2 analytically  !
 ! D3    D(4,1,6,5)            -58.7535         calculate D2E/DX2 analytically  !
 --------------------------------------------------------------------------------
 Trust Radius=3.00D-01 FncErr=1.00D-07 GrdErr=1.00D-07 EigMax=2.50D+02 EigMin=1.00D-04
 Number of steps in this run=      2 maximum allowed number of steps=      2.
 GradGradGradGradGradGradGradGradGradGradGradGradGradGradGradGradGradGrad

                          Input orientation:                          
 ---------------------------------------------------------------------
 Center     Atomic      Atomic             Coordinates (Angstroms)
 Number     Number       Type             X           Y           Z
 ---------------------------------------------------------------------
      1          6           0       -0.006954   -0.000076    0.356541
      2          1           0        0.059288   -0.000079    1.440958
      3          9           0        0.652062    1.082043   -0.135846
      4          9           0        0.651230   -1.082463   -0.135890
      5          1           0       -1.349192    0.000595   -0.980004
      6          8           0       -1.299750    0.000465   -0.019322
 ---------------------------------------------------------------------
                    Distance matrix (angstroms):
                    1          2          3          4          5
     1  C    0.000000
     2  H    1.086438   0.000000
     3  F    1.359312   2.002169   0.000000
     4  F    1.359138   2.002099   2.164506   0.000000
     5  H    1.894190   2.800870   2.426345   2.426362   0.000000
     6  O    1.346326   1.994844   2.234493   2.234423   0.961953
                    6
     6  O    0.000000
 Stoichiometry    CH2F2O
 Framework group  C1[X(CH2F2O)]
 Deg. of freedom    12
 Full point group                 C1      NOp   1
 Largest Abelian subgroup         C1      NOp   1
 Largest concise Abelian subgroup C1      NOp   1
                         Standard orientation:                         
 ---------------------------------------------------------------------
 Center     Atomic      Atomic             Coordinates (Angstroms)
 Number     Number       Type             X           Y           Z
 ---------------------------------------------------------------------
      1          6           0        0.006954    0.000076    0.356541
      2          1           0       -0.059288    0.000079    1.440958
      3          9           0       -0.652063   -1.082043   -0.135846
      4          9           0       -0.651229    1.082463   -0.135890
      5          1           0        1.349192   -0.000596   -0.980004
      6          8           0        1.299750   -0.000466   -0.019322
 ---------------------------------------------------------------------
 Rotational constants (GHZ):          10.1624729          10.0709442           5.6491466
 Standard basis: 6-311+G(2d,2p) (5D, 7F)
 There are   134 symmetry adapted cartesian basis functions of A   symmetry.
 There are   126 symmetry adapted basis functions of A   symmetry.
   126 basis functions,   190 primitive gaussians,   134 cartesian basis functions
    17 alpha electrons       17 beta electrons
       nuclear repulsion energy       134.8130074126 Hartrees.
 NAtoms=    6 NActive=    6 NUniq=    6 SFac= 1.00D+00 NAtFMM=   60 NAOKFM=F Big=F
 Integral buffers will be    131072 words long.
 Raffenetti 2 integral format.
 Two-electron integral symmetry is turned on.
 Nuclear repulsion after empirical dispersion term =      134.8122350483 Hartrees.
 One-electron integrals computed using PRISM.
 NBasis=   126 RedAO= T EigKep=  1.48D-03  NBF=   126
 NBsUse=   126 1.00D-06 EigRej= -1.00D+00 NBFU=   126
 Initial guess from the checkpoint file:  "cf2_h2o_ts_prod.chk"
 B after Tr=     0.000000    0.000000   -0.000000
         Rot=    1.000000   -0.000000    0.000000   -0.000000 Ang=   0.00 deg.
 Keep R1 ints in memory in canonical form, NReq=71692044.
 Requested convergence on RMS density matrix=1.00D-08 within  32 cycles.
 Requested convergence on MAX density matrix=1.00D-06.
 Requested convergence on             energy=1.00D-06.
 No special actions if energy rises.
 SCF Done:  E(RwB97XD) =  -314.244428086     A.U. after    1 cycles
            NFock=  1  Conv=0.27D-08     -V/T= 2.0026
 QCSCF skips out because SCF is already converged.
 DoSCS=F DFT=T ScalE2(SS,OS)=  1.000000  1.000000
 Range of M.O.s used for correlation:     1   126
 NBasis=   126 NAE=    17 NBE=    17 NFC=     0 NFV=     0
 NROrb=    126 NOA=    17 NOB=    17 NVA=   109 NVB=   109

 **** Warning!!: The largest alpha MO coefficient is  0.12057872D+02

 Symmetrizing basis deriv contribution to polar:
 IMax=3 JMax=2 DiffMx= 0.00D+00
 G2DrvN: will do     7 centers at a time, making    1 passes.
 Calling FoFCou, ICntrl=  3107 FMM=F I1Cent=   0 AccDes= 0.00D+00.
 End of G2Drv F.D. properties file   721 does not exist.
 End of G2Drv F.D. properties file   722 does not exist.
 End of G2Drv F.D. properties file   788 does not exist.
          IDoAtm=111111
          Differentiating once with respect to electric field.
                with respect to dipole field.
          Differentiating once with respect to nuclear coordinates.
 Keep R1 ints in memory in canonical form, NReq=71669806.
          There are    21 degrees of freedom in the 1st order CPHF.  IDoFFX=6 NUNeed=     3.
     18 vectors produced by pass  0 Test12= 8.82D-15 4.76D-09 XBig12= 5.87D+00 8.91D-01.
 AX will form    18 AO Fock derivatives at one time.
     18 vectors produced by pass  1 Test12= 8.82D-15 4.76D-09 XBig12= 8.95D-01 2.74D-01.
     18 vectors produced by pass  2 Test12= 8.82D-15 4.76D-09 XBig12= 2.67D-02 5.62D-02.
     18 vectors produced by pass  3 Test12= 8.82D-15 4.76D-09 XBig12= 4.71D-04 6.39D-03.
     18 vectors produced by pass  4 Test12= 8.82D-15 4.76D-09 XBig12= 5.60D-06 5.79D-04.
     18 vectors produced by pass  5 Test12= 8.82D-15 4.76D-09 XBig12= 4.12D-08 4.33D-05.
     17 vectors produced by pass  6 Test12= 8.82D-15 4.76D-09 XBig12= 2.92D-10 3.58D-06.
      6 vectors produced by pass  7 Test12= 8.82D-15 4.76D-09 XBig12= 2.05D-12 3.24D-07.
      3 vectors produced by pass  8 Test12= 8.82D-15 4.76D-09 XBig12= 1.28D-14 2.18D-08.
 InvSVY:  IOpt=1 It=  1 EMax= 2.22D-15
 Solved reduced A of dimension   134 with    21 vectors.
 Isotropic polarizability for W=    0.000000       20.47 Bohr**3.
 End of Minotr F.D. properties file   721 does not exist.
 End of Minotr F.D. properties file   722 does not exist.
 End of Minotr F.D. properties file   788 does not exist.

 **********************************************************************

            Population analysis using the SCF density.

 **********************************************************************

 Orbital symmetries:
       Occupied  (A) (A) (A) (A) (A) (A) (A) (A) (A) (A) (A) (A)
                 (A) (A) (A) (A) (A)
       Virtual   (A) (A) (A) (A) (A) (A) (A) (A) (A) (A) (A) (A)
                 (A) (A) (A) (A) (A) (A) (A) (A) (A) (A) (A) (A)
                 (A) (A) (A) (A) (A) (A) (A) (A) (A) (A) (A) (A)
                 (A) (A) (A) (A) (A) (A) (A) (A) (A) (A) (A) (A)
                 (A) (A) (A) (A) (A) (A) (A) (A) (A) (A) (A) (A)
                 (A) (A) (A) (A) (A) (A) (A) (A) (A) (A) (A) (A)
                 (A) (A) (A) (A) (A) (A) (A) (A) (A) (A) (A) (A)
                 (A) (A) (A) (A) (A) (A) (A) (A) (A) (A) (A) (A)
                 (A) (A) (A) (A) (A) (A) (A) (A) (A) (A) (A) (A)
                 (A)
 The electronic state is 1-A.
 Alpha  occ. eigenvalues --  -24.83033 -24.83028 -19.30478 -10.50720  -1.38817
 Alpha  occ. eigenvalues --   -1.31784  -1.19410  -0.81722  -0.70305  -0.66721
 Alpha  occ. eigenvalues --   -0.66521  -0.56767  -0.53850  -0.50876  -0.49821
 Alpha  occ. eigenvalues --   -0.48264  -0.44591
 Alpha virt. eigenvalues --    0.07056   0.07798   0.10521   0.10625   0.18964
 Alpha virt. eigenvalues --    0.21870   0.22297   0.24615   0.25773   0.28317
 Alpha virt. eigenvalues --    0.28522   0.30210   0.32107   0.33499   0.36150
 Alpha virt. eigenvalues --    0.38132   0.38502   0.40298   0.40323   0.46440
 Alpha virt. eigenvalues --    0.46739   0.56011   0.56879   0.62901   0.64219
 Alpha virt. eigenvalues --    0.66329   0.80381   0.82628   0.85200   0.85211
 Alpha virt. eigenvalues --    1.00177   1.05614   1.09561   1.12017   1.18014
 Alpha virt. eigenvalues --    1.18937   1.23162   1.26427   1.30673   1.38819
 Alpha virt. eigenvalues --    1.39627   1.43070   1.44691   1.47658   1.50092
 Alpha virt. eigenvalues --    1.52917   1.54202   1.63142   1.85612   1.87383
 Alpha virt. eigenvalues --    1.90220   1.95362   2.07908   2.08220   2.10116
 Alpha virt. eigenvalues --    2.20838   2.28995   2.33170   2.35192   2.39188
 Alpha virt. eigenvalues --    2.54395   2.60565   2.68300   2.82423   2.84527
 Alpha virt. eigenvalues --    2.85684   3.05554   3.37669   3.37896   3.41914
 Alpha virt. eigenvalues --    3.43958   3.52638   3.69988   3.86331   3.95402
 Alpha virt. eigenvalues --    4.05611   4.06958   4.16620   4.25920   4.26496
 Alpha virt. eigenvalues --    4.90247   5.14269   5.56258   6.12352   6.39969
 Alpha virt. eigenvalues --    6.40425   6.45780   6.46205   6.68260   6.70441
 Alpha virt. eigenvalues --    6.99701   7.11944   7.15460   7.25834   7.51849
 Alpha virt. eigenvalues --    9.13153   9.16910   9.22355   9.23914   9.29898
 Alpha virt. eigenvalues --    9.45439   9.52163   9.62127   9.75852   9.82508
 Alpha virt. eigenvalues --   24.04364  50.04705  66.93529  66.98757
          Condensed to atoms (all electrons):
               1          2          3          4          5          6
     1  C    4.256512   0.489625   0.188502   0.188507   0.015493   0.231170
     2  H    0.489625   0.527811  -0.049536  -0.049545   0.007971  -0.067091
     3  F    0.188502  -0.049536   9.181942   0.001893  -0.007364   0.011479
     4  F    0.188507  -0.049545   0.001893   9.181862  -0.007361   0.011492
     5  H    0.015493   0.007971  -0.007364  -0.007361   0.489080   0.249750
     6  O    0.231170  -0.067091   0.011479   0.011492   0.249750   7.932821
 Mulliken charges:
               1
     1  C    0.630190
     2  H    0.140765
     3  F   -0.326917
     4  F   -0.326848
     5  H    0.252431
     6  O   -0.369622
 Sum of Mulliken charges =  -0.00000
 Mulliken charges with hydrogens summed into heavy atoms:
               1
     1  C    0.770956
     3  F   -0.326917
     4  F   -0.326848
     6  O   -0.117191
 APT charges:
               1
     1  C    1.535205
     2  H   -0.006694
     3  F   -0.580707
     4  F   -0.580653
     5  H    0.308925
     6  O   -0.676075
 Sum of APT charges =  -0.00000
 APT charges with hydrogens summed into heavy atoms:
               1
     1  C    1.528510
     3  F   -0.580707
     4  F   -0.580653
     6  O   -0.367151
 Electronic spatial extent (au):  <R**2>=            220.9393
 Charge=             -0.0000 electrons
 Dipole moment (field-independent basis, Debye):
    X=              0.8007    Y=              0.0004    Z=             -0.0511  Tot=              0.8023
 Quadrupole moment (field-independent basis, Debye-Ang):
   XX=            -23.3975   YY=            -24.4765   ZZ=            -17.7818
   XY=             -0.0012   XZ=             -2.8768   YZ=              0.0014
 Traceless Quadrupole moment (field-independent basis, Debye-Ang):
   XX=             -1.5122   YY=             -2.5912   ZZ=              4.1034
   XY=             -0.0012   XZ=             -2.8768   YZ=              0.0014
 Octapole moment (field-independent basis, Debye-Ang**2):
  XXX=             -4.9589  YYY=              0.0019  ZZZ=             -1.9438  XYY=             -0.4517
  XXY=              0.0015  XXZ=             -4.5417  XZZ=              1.5335  YZZ=             -0.0005
  YYZ=             -0.5314  XYZ=              0.0019
 Hexadecapole moment (field-independent basis, Debye-Ang**3):
 XXXX=           -105.7774 YYYY=            -88.9542 ZZZZ=            -25.2711 XXXY=             -0.0008
 XXXZ=             -6.4476 YYYX=              0.0016 YYYZ=             -0.0002 ZZZX=             -3.7163
 ZZZY=              0.0015 XXYY=            -33.1916 XXZZ=            -18.4716 YYZZ=            -19.7886
 XXYZ=              0.0030 YYXZ=              0.1636 ZZXY=             -0.0015
 N-N= 1.348122350483D+02 E-N=-1.015836620413D+03  KE= 3.134139751844D+02
  Exact polarizability:  21.158   0.000  20.253  -0.592   0.001  19.999
 Approx polarizability:  21.218   0.001  20.931  -0.181   0.001  20.837
 Calling FoFJK, ICntrl=    100127 FMM=F ISym2X=0 I1Cent= 0 IOpClX= 0 NMat=1 NMatS=1 NMatT=0.
 Full mass-weighted force constant matrix:
 Low frequencies ---   -6.6621   -0.0012   -0.0005    0.0006   11.5447   14.0933
 Low frequencies ---  320.8287  513.4020  546.0075
 Diagonal vibrational polarizability:
       10.4748376      38.8445087       2.7752365
 Harmonic frequencies (cm**-1), IR intensities (KM/Mole), Raman scattering
 activities (A**4/AMU), depolarization ratios for plane and unpolarized
 incident light, reduced masses (AMU), force constants (mDyne/A),
 and normal coordinates:
                      1                      2                      3
                      A                      A                      A
 Frequencies --    320.8278               513.4020               546.0075
 Red. masses --      1.1505                10.2116                 6.9893
 Frc consts  --      0.0698                 1.5858                 1.2277
 IR Inten    --    107.9701                 9.9567                27.8283
  Atom  AN      X      Y      Z        X      Y      Z        X      Y      Z
     1   6    -0.00  -0.03  -0.00     0.23  -0.00  -0.00    -0.00  -0.15  -0.00
     2   1    -0.00  -0.06  -0.00     0.43  -0.00   0.01    -0.00  -0.31  -0.00
     3   9    -0.05  -0.02   0.03    -0.24   0.37  -0.03    -0.26  -0.11  -0.00
     4   9     0.05  -0.02  -0.03    -0.24  -0.37  -0.03     0.26  -0.11   0.00
     5   1     0.00   0.99  -0.00     0.51  -0.00   0.07    -0.00  -0.73   0.00
     6   8     0.00   0.01   0.00     0.33  -0.00   0.07     0.00   0.44  -0.00
                      4                      5                      6
                      A                      A                      A
 Frequencies --    661.6498              1030.1274              1062.0500
 Red. masses --      4.6162                 4.4101                 7.3863
 Frc consts  --      1.1907                 2.7572                 4.9087
 IR Inten    --     38.9489                56.7092               328.2889
  Atom  AN      X      Y      Z        X      Y      Z        X      Y      Z
     1   6    -0.02  -0.00   0.28     0.17   0.00   0.33    -0.00   0.62  -0.00
     2   1    -0.06  -0.00   0.29     0.01   0.00   0.31     0.00   0.70  -0.00
     3   9     0.12   0.19  -0.06    -0.10  -0.14  -0.10    -0.09  -0.19  -0.11
     4   9     0.12  -0.19  -0.06    -0.10   0.14  -0.10     0.10  -0.20   0.11
     5   1    -0.81   0.00  -0.10    -0.80   0.00  -0.09     0.01   0.09   0.00
     6   8    -0.21   0.00  -0.07     0.17  -0.00  -0.02    -0.00  -0.05   0.00
                      7                      8                      9
                      A                      A                      A
 Frequencies --   1196.8711              1359.0853              1363.4218
 Red. masses --      3.3238                 1.7040                 1.1580
 Frc consts  --      2.8053                 1.8544                 1.2682
 IR Inten    --    355.8189                17.2032                18.7045
  Atom  AN      X      Y      Z        X      Y      Z        X      Y      Z
     1   6     0.33  -0.00  -0.00    -0.16  -0.00   0.17     0.00  -0.11  -0.00
     2   1     0.80  -0.00   0.03     0.48   0.01   0.23    -0.00   0.99  -0.00
     3   9    -0.03  -0.03  -0.03     0.01  -0.01  -0.03    -0.01   0.00  -0.02
     4   9    -0.03   0.03  -0.03     0.01   0.01  -0.03     0.01   0.00   0.02
     5   1     0.41  -0.00   0.12     0.81  -0.00  -0.01    -0.01   0.03   0.00
     6   8    -0.26   0.00   0.07     0.02   0.00  -0.07    -0.00   0.01   0.00
                     10                     11                     12
                      A                      A                      A
 Frequencies --   1444.5333              3171.2439              3867.3206
 Red. masses --      1.2430                 1.0914                 1.0647
 Frc consts  --      1.5282                 6.4669                 9.3822
 IR Inten    --     98.6391                21.5838                75.8675
  Atom  AN      X      Y      Z        X      Y      Z        X      Y      Z
     1   6    -0.10   0.00  -0.07     0.01   0.00  -0.09     0.00  -0.00  -0.00
     2   1     0.85  -0.00  -0.01    -0.07   0.00   0.99    -0.00  -0.00   0.02
     3   9     0.01  -0.00  -0.00    -0.00  -0.00   0.00    -0.00  -0.00   0.00
     4   9     0.01   0.00  -0.00    -0.00   0.00   0.00    -0.00   0.00   0.00
     5   1    -0.50   0.00   0.01    -0.01   0.00  -0.02    -0.08   0.00   0.99
     6   8     0.04  -0.00   0.06     0.00  -0.00   0.00     0.01  -0.00  -0.06

 -------------------
 - Thermochemistry -
 -------------------
 Temperature   298.150 Kelvin.  Pressure   1.00000 Atm.
 Atom     1 has atomic number  6 and mass  12.00000
 Atom     2 has atomic number  1 and mass   1.00783
 Atom     3 has atomic number  9 and mass  18.99840
 Atom     4 has atomic number  9 and mass  18.99840
 Atom     5 has atomic number  1 and mass   1.00783
 Atom     6 has atomic number  8 and mass  15.99491
 Molecular mass:    68.00737 amu.
 Principal axes and moments of inertia in atomic units:
                           1         2         3
     Eigenvalues --   177.58878 179.20278 319.47147
           X            0.99924  -0.00317  -0.03894
           Y            0.00318   0.99999   0.00002
           Z            0.03894  -0.00015   0.99924
 This molecule is an asymmetric top.
 Rotational symmetry number  1.
 Rotational temperatures (Kelvin)      0.48772     0.48333     0.27112
 Rotational constants (GHZ):          10.16247    10.07094     5.64915
 Zero-point vibrational energy      98910.5 (Joules/Mol)
                                   23.64017 (Kcal/Mol)
 Warning -- explicit consideration of   3 degrees of freedom as
           vibrations may cause significant error
 Vibrational temperatures:    461.60   738.67   785.58   951.97  1482.12
          (Kelvin)           1528.05  1722.03  1955.42  1961.66  2078.36
                             4562.71  5564.21
 
 Zero-point correction=                           0.037673 (Hartree/Particle)
 Thermal correction to Energy=                    0.041538
 Thermal correction to Enthalpy=                  0.042482
 Thermal correction to Gibbs Free Energy=         0.011363
 Sum of electronic and zero-point Energies=           -314.206755
 Sum of electronic and thermal Energies=              -314.202890
 Sum of electronic and thermal Enthalpies=            -314.201946
 Sum of electronic and thermal Free Energies=         -314.233065
 
                     E (Thermal)             CV                S
                      KCal/Mol        Cal/Mol-Kelvin    Cal/Mol-Kelvin
 Total                   26.066             12.067             65.496
 Electronic               0.000              0.000              0.000
 Translational            0.889              2.981             38.569
 Rotational               0.889              2.981             23.834
 Vibrational             24.288              6.105              3.093
 Vibration     1          0.706              1.634              1.306
 Vibration     2          0.868              1.220              0.625
 Vibration     3          0.901              1.148              0.553
                       Q            Log10(Q)             Ln(Q)
 Total Bot       0.593450D-05         -5.226616        -12.034728
 Total V=0       0.126401D+13         12.101751         27.865311
 Vib (Bot)       0.745855D-17        -17.127346        -39.437171
 Vib (Bot)    1  0.585639D+00         -0.232370         -0.535052
 Vib (Bot)    2  0.316298D+00         -0.499904         -1.151071
 Vib (Bot)    3  0.288518D+00         -0.539827         -1.242998
 Vib (V=0)       0.158862D+01          0.201021          0.462869
 Vib (V=0)    1  0.127005D+01          0.103820          0.239054
 Vib (V=0)    2  0.109165D+01          0.038082          0.087686
 Vib (V=0)    3  0.107727D+01          0.032325          0.074432
 Electronic      0.100000D+01          0.000000          0.000000
 Translational   0.220439D+08          7.343288         16.908545
 Rotational      0.360946D+05          4.557442         10.493898
 ***** Axes restored to original set *****
 -------------------------------------------------------------------
 Center     Atomic                   Forces (Hartrees/Bohr)
 Number     Number              X              Y              Z
 -------------------------------------------------------------------
      1        6          -0.000003837    0.000072013   -0.000060961
      2        1          -0.000020577   -0.000001241    0.000000330
      3        9          -0.000038300   -0.000067149    0.000026115
      4        9           0.000000007   -0.000001048   -0.000004973
      5        1           0.000008305   -0.000000489   -0.000002332
      6        8           0.000054402   -0.000002086    0.000041822
 -------------------------------------------------------------------
 Cartesian Forces:  Max     0.000072013 RMS     0.000034004
 FormGI is forming the generalized inverse of G from B-inverse, IUseBI=4.

 GradGradGradGradGradGradGradGradGradGradGradGradGradGradGradGradGradGrad
 Berny optimization.
 Internal  Forces:  Max     0.000081536 RMS     0.000029726
 Search for a local minimum.
 Step number   1 out of a maximum of    2
 All quantities printed in internal units (Hartrees-Bohrs-Radians)
 Second derivative matrix not updated -- analytic derivatives used.
 The second derivative matrix:
                          R1        R2        R3        R4        R5
           R1           0.35468
           R2           0.01239   0.35767
           R3           0.01239   0.05467   0.35803
           R4           0.01092   0.05616   0.05618   0.43752
           R5          -0.00177  -0.00240  -0.00240   0.00711   0.53786
           A1           0.00190   0.02148  -0.01203  -0.02838   0.00173
           A2           0.00191  -0.01203   0.02149  -0.02839   0.00173
           A3           0.00659  -0.03123  -0.03123   0.03038   0.00715
           A4          -0.00157   0.02957   0.02956  -0.03852   0.00270
           A5          -0.00450   0.02825  -0.03346   0.03024  -0.00669
           A6          -0.00450  -0.03346   0.02825   0.03025  -0.00669
           A7           0.00198  -0.00058  -0.00058   0.04683   0.02877
           D1          -0.00000   0.02747  -0.02747  -0.00000  -0.00000
           D2          -0.00389   0.00297   0.03070  -0.00463  -0.00262
           D3           0.00389  -0.03070  -0.00296   0.00463   0.00262
                          A1        A2        A3        A4        A5
           A1           0.10564
           A2           0.01816   0.10565
           A3          -0.03186  -0.03187   0.14544
           A4           0.00799   0.00799  -0.01505   0.17556
           A5          -0.07019  -0.02423  -0.03737  -0.08444   0.23754
           A6          -0.02423  -0.07020  -0.03738  -0.08444  -0.02611
           A7           0.00208   0.00207   0.02168  -0.00085  -0.01284
           D1           0.02757  -0.02756  -0.00000   0.00001   0.03654
           D2          -0.03782  -0.01303  -0.03350   0.05551  -0.00579
           D3           0.01302   0.03781   0.03351  -0.05551  -0.03630
                          A6        A7        D1        D2        D3
           A6           0.23755
           A7          -0.01284   0.18313
           D1          -0.03654  -0.00000   0.04051
           D2           0.03630  -0.00881  -0.01815   0.05583
           D3           0.00580   0.00881  -0.01816  -0.03333   0.05584
 ITU=  0
     Eigenvalues ---    0.00419   0.10456   0.15584   0.16640   0.20352
     Eigenvalues ---    0.24021   0.31033   0.35407   0.36837   0.41996
     Eigenvalues ---    0.51869   0.54233
 Angle between quadratic step and forces=  35.72 degrees.
 Linear search not attempted -- first point.
 Iteration  1 RMS(Cart)=  0.00009432 RMS(Int)=  0.00000001
 Iteration  2 RMS(Cart)=  0.00000001 RMS(Int)=  0.00000000
 Variable       Old X    -DE/DX   Delta X   Delta X   Delta X     New X
                                 (Linear)    (Quad)   (Total)
    R1        2.05307  -0.00000   0.00000   0.00001   0.00001   2.05308
    R2        2.56873  -0.00008   0.00000  -0.00026  -0.00026   2.56847
    R3        2.56840   0.00000   0.00000   0.00007   0.00007   2.56847
    R4        2.54419  -0.00007   0.00000  -0.00012  -0.00012   2.54407
    R5        1.81783   0.00000   0.00000   0.00001   0.00001   1.81784
    A1        1.90922   0.00001   0.00000   0.00012   0.00012   1.90934
    A2        1.90933   0.00001   0.00000   0.00001   0.00001   1.90934
    A3        1.91474  -0.00003   0.00000  -0.00017  -0.00017   1.91458
    A4        1.84207  -0.00000   0.00000  -0.00000  -0.00000   1.84207
    A5        1.94345   0.00001   0.00000   0.00007   0.00007   1.94353
    A6        1.94355   0.00000   0.00000  -0.00002  -0.00002   1.94353
    A7        1.90515  -0.00002   0.00000  -0.00004  -0.00004   1.90512
    D1        3.14145   0.00000   0.00000   0.00015   0.00015  -3.14159
    D2        1.02536   0.00000   0.00000   0.00006   0.00006   1.02542
    D3       -1.02544  -0.00000   0.00000   0.00003   0.00003  -1.02541
         Item               Value     Threshold  Converged?
 Maximum Force            0.000082     0.000450     YES
 RMS     Force            0.000030     0.000300     YES
 Maximum Displacement     0.000189     0.001800     YES
 RMS     Displacement     0.000094     0.001200     YES
 Predicted change in Energy=-1.887585D-08
 Optimization completed.
    -- Stationary point found.
                           ----------------------------
                           !   Optimized Parameters   !
                           ! (Angstroms and Degrees)  !
 --------------------------                            --------------------------
 ! Name  Definition              Value          Derivative Info.                !
 --------------------------------------------------------------------------------
 ! R1    R(1,2)                  1.0864         -DE/DX =    0.0                 !
 ! R2    R(1,3)                  1.3593         -DE/DX =   -0.0001              !
 ! R3    R(1,4)                  1.3591         -DE/DX =    0.0                 !
 ! R4    R(1,6)                  1.3463         -DE/DX =   -0.0001              !
 ! R5    R(5,6)                  0.962          -DE/DX =    0.0                 !
 ! A1    A(2,1,3)              109.3903         -DE/DX =    0.0                 !
 ! A2    A(2,1,4)              109.3968         -DE/DX =    0.0                 !
 ! A3    A(2,1,6)              109.7067         -DE/DX =    0.0                 !
 ! A4    A(3,1,4)              105.5428         -DE/DX =    0.0                 !
 ! A5    A(3,1,6)              111.3518         -DE/DX =    0.0                 !
 ! A6    A(4,1,6)              111.3573         -DE/DX =    0.0                 !
 ! A7    A(1,6,5)              109.1572         -DE/DX =    0.0                 !
 ! D1    D(2,1,6,5)           -180.0083         -DE/DX =    0.0                 !
 ! D2    D(3,1,6,5)             58.7488         -DE/DX =    0.0                 !
 ! D3    D(4,1,6,5)            -58.7535         -DE/DX =    0.0                 !
 --------------------------------------------------------------------------------
 GradGradGradGradGradGradGradGradGradGradGradGradGradGradGradGradGradGrad


 ----------------------------------------------------------------------

 Electric dipole moment (input orientation):
 (Debye = 10**-18 statcoulomb cm , SI units = C m)
                  (au)            (Debye)         (10**-30 SI)
   Tot        0.315664D+00      0.802338D+00      0.267631D+01
   x         -0.315024D+00     -0.800710D+00     -0.267088D+01
   y         -0.151872D-03     -0.386019D-03     -0.128762D-02
   z         -0.200959D-01     -0.510788D-01     -0.170380D+00

 Dipole polarizability, Alpha (input orientation).
 (esu units = cm**3 , SI units = C**2 m**2 J**-1)
 Alpha(0;0):
               (au)            (10**-24 esu)      (10**-40 SI)
   iso        0.204701D+02      0.303336D+01      0.337507D+01
   aniso      0.147137D+01      0.218035D+00      0.242596D+00
   xx         0.211580D+02      0.313529D+01      0.348848D+01
   yx         0.302991D-03      0.448986D-04      0.499565D-04
   yy         0.202535D+02      0.300125D+01      0.333935D+01
   zx         0.592094D+00      0.877393D-01      0.976231D-01
   zy        -0.560537D-03     -0.830630D-04     -0.924201D-04
   zz         0.199989D+02      0.296354D+01      0.329738D+01

 ----------------------------------------------------------------------

 Dipole orientation:
     6          0.67323469          0.00018728         -0.02977893
     1          2.71035949          0.00110335         -0.28516451
     9         -0.33568520          2.04400905         -1.21435977
     9         -0.33357063         -2.04631271         -1.21081749
     1         -1.68586956          0.00154079          2.66232956
     8          0.11992555          0.00212065          2.45351298

 Electric dipole moment (dipole orientation):
 (Debye = 10**-18 statcoulomb cm , SI units = C m)
                  (au)            (Debye)         (10**-30 SI)
   Tot        0.315664D+00      0.802338D+00      0.267631D+01
   x          0.000000D+00      0.000000D+00      0.000000D+00
   y          0.000000D+00      0.000000D+00      0.000000D+00
   z          0.315664D+00      0.802338D+00      0.267631D+01

 Dipole polarizability, Alpha (dipole orientation).
 (esu units = cm**3 , SI units = C**2 m**2 J**-1)
 Alpha(0;0):
               (au)            (10**-24 esu)      (10**-40 SI)
   iso        0.204701D+02      0.303336D+01      0.337507D+01
   aniso      0.147137D+01      0.218035D+00      0.242596D+00
   xx         0.199284D+02      0.295308D+01      0.328575D+01
   yx        -0.992510D-03     -0.147075D-03     -0.163643D-03
   yy         0.202535D+02      0.300125D+01      0.333935D+01
   zx        -0.513655D+00     -0.761158D-01     -0.846903D-01
   zy        -0.609632D-04     -0.903382D-05     -0.100515D-04
   zz         0.212285D+02      0.314575D+01      0.350011D+01

 ----------------------------------------------------------------------
 1\1\GINC-CCLEARO2\Freq\RwB97XD\6-311+G(2d,2p)\C1H2F2O1\RAPPE\04-Nov-20
 22\0\\#N Geom=AllCheck Guess=TCheck SCRF=Check GenChk RwB97XD/6-311+G(
 2d,2p) Freq\\Title Card Required\\0,1\C,-0.006954,-0.000076,0.356541\H
 ,0.059288,-0.000079,1.440958\F,0.652062,1.082043,-0.135846\F,0.65123,-
 1.082463,-0.13589\H,-1.349192,0.000595,-0.980004\O,-1.29975,0.000465,-
 0.019322\\Version=EM64M-G16RevA.03\State=1-A\HF=-314.2444281\RMSD=2.71
 2e-09\RMSF=3.400e-05\ZeroPoint=0.037673\Thermal=0.0415383\Dipole=-0.31
 50237,-0.0001519,-0.0200959\DipoleDeriv=1.8689105,-0.000061,0.0326074,
 -0.0000448,1.7451507,0.0000227,-0.0410958,0.0000689,0.9915528,0.022031
 8,-0.0000108,-0.0161081,-0.0000054,0.0213105,0.0000158,0.0037516,0.000
 0057,-0.0634257,-0.5776641,-0.3099722,0.0447327,-0.3176661,-0.7952442,
 0.1047773,0.1619472,0.2412887,-0.3692112,-0.577148,0.3098514,0.0446952
 ,0.3174851,-0.7956436,-0.1048569,0.1618157,-0.2414712,-0.3691669,0.310
 3359,0.0000221,0.0712663,0.0000334,0.3749751,-0.0000181,0.0529746,-0.0
 000076,0.2414625,-1.0464661,0.0001706,-0.1771936,0.0001977,-0.5505486,
 0.0000592,-0.3393934,0.0001155,-0.4312114\Polar=21.1580038,0.000303,20
 .2534711,0.5920941,-0.0005605,19.9989369\Quadrupole=-1.124291,-1.92649
 58,3.0507868,-0.0009151,2.1388243,-0.0010467\PG=C01 [X(C1H2F2O1)]\NIma
 g=0\\0.53197973,-0.00019018,0.42536144,0.05739710,0.00008695,0.7708955
 1,-0.05294374,0.00000389,-0.01843871,0.06896324,0.00000306,-0.04741121
 ,0.00000662,-0.00000562,0.06388647,-0.02214951,0.00000356,-0.32919332,
 0.01966538,-0.00000005,0.35334412,-0.10461895,-0.05344533,0.03662678,0
 .00138795,-0.01092887,0.00505697,0.14223296,-0.05380577,-0.15386494,0.
 06716234,-0.01243833,-0.01255344,0.00976242,0.10708017,0.25704719,0.02
 881576,0.05752456,-0.12958160,0.02116774,0.03503684,-0.00888860,-0.052
 06027,-0.08289801,0.09595418,-0.10461819,0.05354144,0.03664846,0.00140
 827,0.01092018,0.00505224,0.01740315,-0.00523267,-0.00532984,0.1421621
 5,0.05391026,-0.15414612,-0.06730441,0.01242757,-0.01256600,-0.0097689
 8,0.00515735,-0.08419898,-0.00552566,-0.10713777,0.25740107,0.02883895
 ,-0.05765443,-0.12964154,0.02114820,-0.03506100,-0.00889338,-0.0053243
 1,0.00552414,0.01930907,-0.05207600,0.08305935,0.09601061,-0.01023269,
 0.00000959,-0.06057169,-0.00538298,0.00000313,-0.00067935,0.00217263,0
 .00074104,0.00331795,0.00216964,-0.00074227,0.00331863,0.05829179,0.00
 000193,0.00192413,0.00002503,0.00000242,0.00258473,-0.00000037,0.00154
 365,-0.00063983,0.00022457,-0.00154424,-0.00063885,-0.00022792,-0.0000
 2591,0.00438371,-0.00681385,0.00000329,-0.02027653,-0.00218116,0.00000
 128,0.00196793,0.00381530,0.00118525,0.00112615,0.00381388,-0.00118746
 ,0.00112624,0.04051217,-0.00007676,0.53496413,-0.25956615,0.00008059,-
 0.05166194,-0.01343274,0.00000813,-0.00694573,-0.05857774,-0.03634442,
 0.00408867,-0.05852502,0.03638485,0.00409453,-0.04701838,0.00002215,-0
 .03914634,0.43712002,0.00008071,-0.07186331,0.00002347,0.00001007,0.00
 605945,0.00000343,-0.04940696,-0.00578999,-0.00436231,0.04945306,-0.00
 585112,0.00435987,0.00001443,-0.00761389,0.00007441,-0.00015131,0.0850
 5886,-0.08608845,0.00003608,-0.16220252,-0.04136145,0.00001632,-0.0083
 3675,0.01188552,-0.00073613,0.02208080,0.01189127,0.00072717,0.0220890
 0,0.01410230,0.00005544,-0.51890791,0.08957081,-0.00009887,0.64527739\
 \0.00000384,-0.00007201,0.00006096,0.00002058,0.00000124,-0.00000033,0
 .00003830,0.00006715,-0.00002612,0.,0.00000105,0.00000497,-0.00000831,
 0.00000049,0.00000233,-0.00005440,0.00000209,-0.00004182\\\@


 BE CAREFUL NOT TO BECOME TOO GOOD OF A SONGBIRD OR 
 THEY'LL THROW YOU INTO A CAGE.

                                    -- SNOOPY TO WOODSTOCK
 Job cpu time:       0 days  0 hours  6 minutes 27.5 seconds.
 Elapsed time:       0 days  0 hours  0 minutes 50.8 seconds.
 File lengths (MBytes):  RWF=     15 Int=      0 D2E=      0 Chk=      2 Scr=      1
 Normal termination of Gaussian 16 at Fri Nov  4 11:01:38 2022.
