 Entering Gaussian System, Link 0=/applications/g16/g16/g16
 Initial command:
 /applications/g16/g16/l1.exe "/scratch/g98/Gau-36966.inp" -scrdir="/scratch/g98/"
 Entering Link 1 = /applications/g16/g16/l1.exe PID=     36967.
  
 Copyright (c) 1988,1990,1992,1993,1995,1998,2003,2009,2016,
            Gaussian, Inc.  All Rights Reserved.
  
 This is part of the Gaussian(R) 16 program.  It is based on
 the Gaussian(R) 09 system (copyright 2009, Gaussian, Inc.),
 the Gaussian(R) 03 system (copyright 2003, Gaussian, Inc.),
 the Gaussian(R) 98 system (copyright 1998, Gaussian, Inc.),
 the Gaussian(R) 94 system (copyright 1995, Gaussian, Inc.),
 the Gaussian 92(TM) system (copyright 1992, Gaussian, Inc.),
 the Gaussian 90(TM) system (copyright 1990, Gaussian, Inc.),
 the Gaussian 88(TM) system (copyright 1988, Gaussian, Inc.),
 the Gaussian 86(TM) system (copyright 1986, Carnegie Mellon
 University), and the Gaussian 82(TM) system (copyright 1983,
 Carnegie Mellon University). Gaussian is a federally registered
 trademark of Gaussian, Inc.
  
 This software contains proprietary and confidential information,
 including trade secrets, belonging to Gaussian, Inc.
  
 This software is provided under written license and may be
 used, copied, transmitted, or stored only in accord with that
 written license.
  
 The following legend is applicable only to US Government
 contracts under FAR:
  
                    RESTRICTED RIGHTS LEGEND
  
 Use, reproduction and disclosure by the US Government is
 subject to restrictions as set forth in subparagraphs (a)
 and (c) of the Commercial Computer Software - Restricted
 Rights clause in FAR 52.227-19.
  
 Gaussian, Inc.
 340 Quinnipiac St., Bldg. 40, Wallingford CT 06492
  
  
 ---------------------------------------------------------------
 Warning -- This program may not be used in any manner that
 competes with the business of Gaussian, Inc. or will provide
 assistance to any competitor of Gaussian, Inc.  The licensee
 of this program is prohibited from giving any competitor of
 Gaussian, Inc. access to this program.  By using this program,
 the user acknowledges that Gaussian, Inc. is engaged in the
 business of creating and licensing software in the field of
 computational chemistry and represents and warrants to the
 licensee that it is not a competitor of Gaussian, Inc. and that
 it will not use this program in any manner prohibited above.
 ---------------------------------------------------------------
  

 Cite this work as:
 Gaussian 16, Revision A.03,
 M. J. Frisch, G. W. Trucks, H. B. Schlegel, G. E. Scuseria, 
 M. A. Robb, J. R. Cheeseman, G. Scalmani, V. Barone, 
 G. A. Petersson, H. Nakatsuji, X. Li, M. Caricato, A. V. Marenich, 
 J. Bloino, B. G. Janesko, R. Gomperts, B. Mennucci, H. P. Hratchian, 
 J. V. Ortiz, A. F. Izmaylov, J. L. Sonnenberg, D. Williams-Young, 
 F. Ding, F. Lipparini, F. Egidi, J. Goings, B. Peng, A. Petrone, 
 T. Henderson, D. Ranasinghe, V. G. Zakrzewski, J. Gao, N. Rega, 
 G. Zheng, W. Liang, M. Hada, M. Ehara, K. Toyota, R. Fukuda, 
 J. Hasegawa, M. Ishida, T. Nakajima, Y. Honda, O. Kitao, H. Nakai, 
 T. Vreven, K. Throssell, J. A. Montgomery, Jr., J. E. Peralta, 
 F. Ogliaro, M. J. Bearpark, J. J. Heyd, E. N. Brothers, K. N. Kudin, 
 V. N. Staroverov, T. A. Keith, R. Kobayashi, J. Normand, 
 K. Raghavachari, A. P. Rendell, J. C. Burant, S. S. Iyengar, 
 J. Tomasi, M. Cossi, J. M. Millam, M. Klene, C. Adamo, R. Cammi, 
 J. W. Ochterski, R. L. Martin, K. Morokuma, O. Farkas, 
 J. B. Foresman, and D. J. Fox, Gaussian, Inc., Wallingford CT, 2016.
 
 ******************************************
 Gaussian 16:  EM64M-G16RevA.03 25-Dec-2016
                18-Nov-2025 
 ******************************************
 %mem=48GB
 %nprocshared=24
 Will use up to   24 processors via shared memory.
 %chk=cf3.chk
 ------------------------------------------------
 # opt freq uwb97xd/6-311+g(2d) geom=connectivity
 ------------------------------------------------
 1/18=20,19=15,26=3,38=1,57=2/1,3;
 2/9=110,12=2,17=6,18=5,40=1/2;
 3/5=4,6=6,7=12,11=2,25=1,30=1,71=1,74=-58,116=2/1,2,3;
 4//1;
 5/5=2,38=5/2;
 6/7=2,8=2,9=2,10=2,28=1/1;
 7//1,2,3,16;
 1/18=20,19=15,26=3/3(2);
 2/9=110/2;
 99//99;
 2/9=110/2;
 3/5=4,6=6,7=12,11=2,25=1,30=1,71=1,74=-58,116=2/1,2,3;
 4/5=5,16=3,69=1/1;
 5/5=2,38=5/2;
 7//1,2,3,16;
 1/18=20,19=15,26=3/3(-5);
 2/9=110/2;
 6/7=2,8=2,9=2,10=2,19=2,28=1/1;
 99/9=1/99;
 -------------------
 Title Card Required
 -------------------
 Symbolic Z-matrix:
 Charge =  0 Multiplicity = 2
 C                     2.03183   0.05491   0. 
 F                     2.77154   1.14005   0.00001 
 F                     2.22201  -0.65798  -1.08524 
 F                     2.222    -0.65799   1.08524 
 

 GradGradGradGradGradGradGradGradGradGradGradGradGradGradGradGradGradGrad
 Berny optimization.
 Initialization pass.
                           ----------------------------
                           !    Initial Parameters    !
                           ! (Angstroms and Degrees)  !
 --------------------------                            --------------------------
 ! Name  Definition              Value          Derivative Info.                !
 --------------------------------------------------------------------------------
 ! R1    R(1,2)                  1.3133         estimate D2E/DX2                !
 ! R2    R(1,3)                  1.3123         estimate D2E/DX2                !
 ! R3    R(1,4)                  1.3123         estimate D2E/DX2                !
 ! A1    A(2,1,3)              111.546          estimate D2E/DX2                !
 ! A2    A(2,1,4)              111.546          estimate D2E/DX2                !
 ! A3    A(3,1,4)              111.5783         estimate D2E/DX2                !
 ! D1    D(2,1,4,3)           -125.5032         estimate D2E/DX2                !
 --------------------------------------------------------------------------------
 Trust Radius=3.00D-01 FncErr=1.00D-07 GrdErr=1.00D-06 EigMax=2.50D+02 EigMin=1.00D-04
 Number of steps in this run=     20 maximum allowed number of steps=    100.
 GradGradGradGradGradGradGradGradGradGradGradGradGradGradGradGradGradGrad

                          Input orientation:                          
 ---------------------------------------------------------------------
 Center     Atomic      Atomic             Coordinates (Angstroms)
 Number     Number       Type             X           Y           Z
 ---------------------------------------------------------------------
      1          6           0        2.031828    0.054911    0.000000
      2          9           0        2.771543    1.140051    0.000009
      3          9           0        2.222006   -0.657983   -1.085242
      4          9           0        2.221995   -0.657994    1.085236
 ---------------------------------------------------------------------
                    Distance matrix (angstroms):
                    1          2          3          4
     1  C    0.000000
     2  F    1.313281   0.000000
     3  F    1.312302   2.170872   0.000000
     4  F    1.312301   2.170872   2.170478   0.000000
 Stoichiometry    CF3(2)
 Framework group  C1[X(CF3)]
 Deg. of freedom     6
 Full point group                 C1      NOp   1
 Largest Abelian subgroup         C1      NOp   1
 Largest concise Abelian subgroup C1      NOp   1
                         Standard orientation:                         
 ---------------------------------------------------------------------
 Center     Atomic      Atomic             Coordinates (Angstroms)
 Number     Number       Type             X           Y           Z
 ---------------------------------------------------------------------
      1          6           0        0.000451    0.000000    0.319287
      2          9           0       -1.253530   -0.000141   -0.070890
      3          9           0        0.626736   -1.085169   -0.070984
      4          9           0        0.626493    1.085309   -0.070984
 ---------------------------------------------------------------------
 Rotational constants (GHZ):          10.9247276          10.9196087           5.6452621
 Standard basis: 6-311+G(2d) (5D, 7F)
 There are   116 symmetry adapted cartesian basis functions of A   symmetry.
 There are   108 symmetry adapted basis functions of A   symmetry.
   108 basis functions,   168 primitive gaussians,   116 cartesian basis functions
    17 alpha electrons       16 beta electrons
       nuclear repulsion energy       124.5470970746 Hartrees.
 NAtoms=    4 NActive=    4 NUniq=    4 SFac= 1.00D+00 NAtFMM=   60 NAOKFM=F Big=F
 Integral buffers will be    131072 words long.
 Raffenetti 2 integral format.
 Two-electron integral symmetry is turned on.
 Nuclear repulsion after empirical dispersion term =      124.5469178745 Hartrees.
 One-electron integrals computed using PRISM.
 NBasis=   108 RedAO= T EigKep=  1.79D-03  NBF=   108
 NBsUse=   108 1.00D-06 EigRej= -1.00D+00 NBFU=   108
 ExpMin= 4.38D-02 ExpMax= 1.14D+04 ExpMxC= 1.72D+03 IAcc=3 IRadAn=         5 AccDes= 0.00D+00
 Harris functional with IExCor= 4639 and IRadAn=       5 diagonalized for initial guess.
 HarFok:  IExCor= 4639 AccDes= 0.00D+00 IRadAn=         5 IDoV= 1 UseB2=F ITyADJ=14
 ICtDFT=  3500011 ScaDFX=  1.000000  1.000000  1.000000  1.000000
 FoFCou: FMM=F IPFlag=           0 FMFlag=      100000 FMFlg1=           0
         NFxFlg=           0 DoJE=T BraDBF=F KetDBF=T FulRan=T
         wScrn=  0.000000 ICntrl=       500 IOpCl=  0 I1Cent=   200000004 NGrid=           0
         NMat0=    1 NMatS0=      1 NMatT0=    0 NMatD0=    1 NMtDS0=    0 NMtDT0=    0
 Petite list used in FoFCou.
 Initial guess <Sx>= 0.0000 <Sy>= 0.0000 <Sz>= 0.5000 <S**2>= 0.7500 S= 0.5000
 Keep R1 and R2 ints in memory in canonical form, NReq=91901340.
 Requested convergence on RMS density matrix=1.00D-08 within 128 cycles.
 Requested convergence on MAX density matrix=1.00D-06.
 Requested convergence on             energy=1.00D-06.
 No special actions if energy rises.
 SCF Done:  E(UwB97XD) =  -337.579992989     A.U. after   13 cycles
            NFock= 13  Conv=0.34D-08     -V/T= 2.0023
 <Sx>= 0.0000 <Sy>= 0.0000 <Sz>= 0.5000 <S**2>= 0.7520 S= 0.5010
 <L.S>= 0.000000000000E+00
 Annihilation of the first spin contaminant:
 S**2 before annihilation     0.7520,   after     0.7500

 **********************************************************************

            Population analysis using the SCF density.

 **********************************************************************

 Orbital symmetries:
 Alpha Orbitals:
       Occupied  (A) (A) (A) (A) (A) (A) (A) (A) (A) (A) (A) (A)
                 (A) (A) (A) (A) (A)
       Virtual   (A) (A) (A) (A) (A) (A) (A) (A) (A) (A) (A) (A)
                 (A) (A) (A) (A) (A) (A) (A) (A) (A) (A) (A) (A)
                 (A) (A) (A) (A) (A) (A) (A) (A) (A) (A) (A) (A)
                 (A) (A) (A) (A) (A) (A) (A) (A) (A) (A) (A) (A)
                 (A) (A) (A) (A) (A) (A) (A) (A) (A) (A) (A) (A)
                 (A) (A) (A) (A) (A) (A) (A) (A) (A) (A) (A) (A)
                 (A) (A) (A) (A) (A) (A) (A) (A) (A) (A) (A) (A)
                 (A) (A) (A) (A) (A) (A) (A)
 Beta  Orbitals:
       Occupied  (A) (A) (A) (A) (A) (A) (A) (A) (A) (A) (A) (A)
                 (A) (A) (A) (A)
       Virtual   (A) (A) (A) (A) (A) (A) (A) (A) (A) (A) (A) (A)
                 (A) (A) (A) (A) (A) (A) (A) (A) (A) (A) (A) (A)
                 (A) (A) (A) (A) (A) (A) (A) (A) (A) (A) (A) (A)
                 (A) (A) (A) (A) (A) (A) (A) (A) (A) (A) (A) (A)
                 (A) (A) (A) (A) (A) (A) (A) (A) (A) (A) (A) (A)
                 (A) (A) (A) (A) (A) (A) (A) (A) (A) (A) (A) (A)
                 (A) (A) (A) (A) (A) (A) (A) (A) (A) (A) (A) (A)
                 (A) (A) (A) (A) (A) (A) (A) (A)
 The electronic state is 2-A.
 Alpha  occ. eigenvalues --  -24.88046 -24.88046 -24.88012 -10.55332  -1.46588
 Alpha  occ. eigenvalues --   -1.37867  -1.37826  -0.83122  -0.72801  -0.72787
 Alpha  occ. eigenvalues --   -0.69263  -0.59907  -0.59906  -0.56582  -0.56566
 Alpha  occ. eigenvalues --   -0.53893  -0.36331
 Alpha virt. eigenvalues --    0.08084   0.10088   0.10307   0.10307   0.25393
 Alpha virt. eigenvalues --    0.25434   0.25665   0.29961   0.29964   0.31551
 Alpha virt. eigenvalues --    0.32215   0.32221   0.35439   0.39192   0.39197
 Alpha virt. eigenvalues --    0.39535   0.39852   0.47440   0.47445   0.59833
 Alpha virt. eigenvalues --    0.66957   0.66978   0.82221   0.90215   0.90216
 Alpha virt. eigenvalues --    1.03973   1.17870   1.17887   1.31863   1.31874
 Alpha virt. eigenvalues --    1.35609   1.36382   1.36397   1.43034   1.45262
 Alpha virt. eigenvalues --    1.51207   1.51212   1.87999   1.88023   2.02382
 Alpha virt. eigenvalues --    2.02606   2.02619   2.03132   2.07109   2.11185
 Alpha virt. eigenvalues --    2.11193   2.19699   2.36420   2.36421   2.45111
 Alpha virt. eigenvalues --    2.65562   2.65679   2.79220   2.79274   2.89487
 Alpha virt. eigenvalues --    3.11905   3.34622   3.34642   3.48930   3.48988
 Alpha virt. eigenvalues --    3.51034   4.20538   4.20540   6.33145   6.33156
 Alpha virt. eigenvalues --    6.34774   6.40521   6.40524   6.41933   6.46753
 Alpha virt. eigenvalues --    6.85091   6.85277   9.06525   9.08110   9.08125
 Alpha virt. eigenvalues --    9.08774   9.18196   9.18197   9.20214   9.24385
 Alpha virt. eigenvalues --    9.24390   9.43825   9.61531   9.61534   9.64907
 Alpha virt. eigenvalues --    9.81618   9.81642  24.00643  66.87354  66.87380
 Alpha virt. eigenvalues --   66.94264
  Beta  occ. eigenvalues --  -24.87726 -24.87726 -24.87693 -10.53900  -1.45571
  Beta  occ. eigenvalues --   -1.36997  -1.36956  -0.81347  -0.71765  -0.71752
  Beta  occ. eigenvalues --   -0.65407  -0.58871  -0.58869  -0.55615  -0.55596
  Beta  occ. eigenvalues --   -0.53568
  Beta virt. eigenvalues --   -0.03181   0.09629   0.11014   0.11014   0.12080
  Beta virt. eigenvalues --    0.26832   0.27349   0.27373   0.31025   0.31030
  Beta virt. eigenvalues --    0.31881   0.32888   0.32904   0.36168   0.39732
  Beta virt. eigenvalues --    0.39739   0.40000   0.40221   0.47578   0.47582
  Beta virt. eigenvalues --    0.62987   0.67428   0.67449   0.83710   0.91971
  Beta virt. eigenvalues --    0.91972   1.05965   1.18472   1.18489   1.32206
  Beta virt. eigenvalues --    1.32216   1.35948   1.37107   1.37122   1.43677
  Beta virt. eigenvalues --    1.45444   1.51406   1.51411   1.88230   1.88255
  Beta virt. eigenvalues --    2.02710   2.02908   2.02922   2.04424   2.07743
  Beta virt. eigenvalues --    2.11681   2.11689   2.19741   2.37368   2.37371
  Beta virt. eigenvalues --    2.47542   2.66622   2.66740   2.80411   2.80467
  Beta virt. eigenvalues --    2.92666   3.16224   3.39927   3.39934   3.50821
  Beta virt. eigenvalues --    3.50871   3.55795   4.22307   4.22307   6.33893
  Beta virt. eigenvalues --    6.33903   6.35578   6.41065   6.41067   6.42193
  Beta virt. eigenvalues --    6.47573   6.85913   6.86099   9.07634   9.08828
  Beta virt. eigenvalues --    9.08842   9.10012   9.19103   9.19103   9.20511
  Beta virt. eigenvalues --    9.25589   9.25595   9.44645   9.62250   9.62253
  Beta virt. eigenvalues --    9.65670   9.82310   9.82334  24.03104  66.87598
  Beta virt. eigenvalues --   66.87624  66.94510
          Condensed to atoms (all electrons):
               1          2          3          4
     1  C    4.887074   0.118918   0.118865   0.118865
     2  F    0.118918   9.095407   0.019046   0.019046
     3  F    0.118865   0.019046   9.094866   0.019154
     4  F    0.118865   0.019046   0.019154   9.094866
          Atomic-Atomic Spin Densities.
               1          2          3          4
     1  C    1.428833  -0.174501  -0.174781  -0.174781
     2  F   -0.174501   0.166588   0.019847   0.019847
     3  F   -0.174781   0.019847   0.166791   0.019868
     4  F   -0.174781   0.019847   0.019868   0.166791
 Mulliken charges and spin densities:
               1          2
     1  C    0.756278   0.904770
     2  F   -0.252418   0.031781
     3  F   -0.251930   0.031725
     4  F   -0.251930   0.031725
 Sum of Mulliken charges =  -0.00000   1.00000
 Mulliken charges and spin densities with hydrogens summed into heavy atoms:
               1          2
     1  C    0.756278   0.904770
     2  F   -0.252418   0.031781
     3  F   -0.251930   0.031725
     4  F   -0.251930   0.031725
 Electronic spatial extent (au):  <R**2>=            199.8964
 Charge=             -0.0000 electrons
 Dipole moment (field-independent basis, Debye):
    X=              0.0056    Y=              0.0000    Z=              0.2751  Tot=              0.2751
 Quadrupole moment (field-independent basis, Debye-Ang):
   XX=            -20.9404   YY=            -20.9341   ZZ=            -19.7029
   XY=              0.0000   XZ=              0.0003   YZ=              0.0000
 Traceless Quadrupole moment (field-independent basis, Debye-Ang):
   XX=             -0.4146   YY=             -0.4083   ZZ=              0.8229
   XY=              0.0000   XZ=              0.0003   YZ=              0.0000
 Octapole moment (field-independent basis, Debye-Ang**2):
  XXX=              0.7656  YYY=             -0.0002  ZZZ=             -2.8163  XYY=             -0.7531
  XXY=              0.0003  XXZ=             -0.6470  XZZ=              0.0019  YZZ=              0.0000
  YYZ=             -0.6470  XYZ=             -0.0000
 Hexadecapole moment (field-independent basis, Debye-Ang**3):
 XXXX=            -82.1637 YYYY=            -82.1056 ZZZZ=            -19.6764 XXXY=              0.0000
 XXXZ=              0.3415 YYYX=              0.0000 YYYZ=             -0.0001 ZZZX=             -0.0013
 ZZZY=             -0.0000 XXYY=            -27.3788 XXZZ=            -16.6919 YYZZ=            -16.6828
 XXYZ=              0.0001 YYXZ=             -0.3418 ZZXY=              0.0000
 N-N= 1.245469178745D+02 E-N=-1.052511083585D+03  KE= 3.367939036935D+02
                          Isotropic Fermi Contact Couplings
        Atom                 a.u.       MegaHertz       Gauss      10(-4) cm-1
     1  C(13)              0.62249     699.79256     249.70339     233.42567
     2  F(19)              0.09176     386.07871     137.76248     128.78200
     3  F(19)              0.09177     386.09631     137.76876     128.78786
     4  F(19)              0.09177     386.09637     137.76878     128.78789
 --------------------------------------------------------
       Center         ----  Spin Dipole Couplings  ----
                      3XX-RR        3YY-RR        3ZZ-RR
 --------------------------------------------------------
     1   Atom       -0.490430     -0.490433      0.980863
     2   Atom       -0.316469     -0.366107      0.682576
     3   Atom       -0.354186     -0.329579      0.683765
     4   Atom       -0.354196     -0.329570      0.683766
 --------------------------------------------------------
                        XY            XZ            YZ
 --------------------------------------------------------
     1   Atom        0.000000     -0.000308     -0.000000
     2   Atom        0.000006      0.289267      0.000033
     3   Atom       -0.021214     -0.143765      0.249328
     4   Atom        0.021208     -0.143709     -0.249359
 --------------------------------------------------------


 ---------------------------------------------------------------------------------
              Anisotropic Spin Dipole Couplings in Principal Axis System
 ---------------------------------------------------------------------------------

       Atom             a.u.   MegaHertz   Gauss  10(-4) cm-1        Axes

              Baa    -0.4904   -65.811   -23.483   -21.952 -0.0364  0.9993 -0.0000
     1 C(13)  Bbb    -0.4904   -65.811   -23.483   -21.952  0.9993  0.0364  0.0002
              Bcc     0.9809   131.622    46.966    43.905 -0.0002 -0.0000  1.0000
 
              Baa    -0.3942  -197.967   -70.640   -66.035  0.9658  0.0001 -0.2594
     2 F(19)  Bbb    -0.3661  -183.868   -65.609   -61.332 -0.0001  1.0000 -0.0000
              Bcc     0.7603   381.836   136.248   127.367  0.2594  0.0000  0.9658
 
              Baa    -0.3942  -197.978   -70.643   -66.038 -0.4832  0.8366 -0.2580
     3 F(19)  Bbb    -0.3664  -184.019   -65.662   -61.382  0.8660  0.5001 -0.0002
              Bcc     0.7606   381.996   136.306   127.420 -0.1288  0.2235  0.9662
 
              Baa    -0.3942  -197.978   -70.643   -66.038  0.4831  0.8367  0.2580
     4 F(19)  Bbb    -0.3664  -184.019   -65.662   -61.382  0.8661 -0.4999 -0.0002
              Bcc     0.7606   381.996   136.306   127.420 -0.1288 -0.2235  0.9662
 

 ---------------------------------------------------------------------------------

 Calling FoFJK, ICntrl=      2127 FMM=F ISym2X=0 I1Cent= 0 IOpClX= 1 NMat=1 NMatS=1 NMatT=0.
 ***** Axes restored to original set *****
 -------------------------------------------------------------------
 Center     Atomic                   Forces (Hartrees/Bohr)
 Number     Number              X              Y              Z
 -------------------------------------------------------------------
      1        6          -0.003537736    0.001758390   -0.000000344
      2        9           0.001444036    0.000677634    0.000000041
      3        9           0.001046820   -0.001217921   -0.001433677
      4        9           0.001046880   -0.001218103    0.001433980
 -------------------------------------------------------------------
 Cartesian Forces:  Max     0.003537736 RMS     0.001511692

 GradGradGradGradGradGradGradGradGradGradGradGradGradGradGradGradGradGrad
 Berny optimization.
 FormGI is forming the generalized inverse of G from B-inverse, IUseBI=4.
 Internal  Forces:  Max     0.002001357 RMS     0.001428790
 Search for a local minimum.
 Step number   1 out of a maximum of   20
 All quantities printed in internal units (Hartrees-Bohrs-Radians)
 Mixed Optimization -- RFO/linear search
 Second derivative matrix not updated -- first step.
 The second derivative matrix:
                          R1        R2        R3        A1        A2
           R1           0.63636
           R2           0.00000   0.63889
           R3           0.00000   0.00000   0.63890
           A1           0.00000   0.00000   0.00000   0.25000
           A2           0.00000   0.00000   0.00000   0.00000   0.25000
           A3           0.00000   0.00000   0.00000   0.00000   0.00000
           D1           0.00000   0.00000   0.00000   0.00000   0.00000
                          A3        D1
           A3           0.25000
           D1           0.00000   0.02587
 ITU=  0
     Eigenvalues ---    0.08301   0.25000   0.25000   0.63636   0.63889
     Eigenvalues ---    0.63890
 RFO step:  Lambda=-6.00463774D-05 EMin= 8.30119145D-02
 Linear search not attempted -- first point.
 Iteration  1 RMS(Cart)=  0.00634073 RMS(Int)=  0.00008106
 Iteration  2 RMS(Cart)=  0.00005597 RMS(Int)=  0.00005990
 Iteration  3 RMS(Cart)=  0.00000000 RMS(Int)=  0.00005990
 Variable       Old X    -DE/DX   Delta X   Delta X   Delta X     New X
                                 (Linear)    (Quad)   (Total)
    R1        2.48174   0.00137   0.00000   0.00215   0.00215   2.48389
    R2        2.47989   0.00200   0.00000   0.00313   0.00313   2.48302
    R3        2.47989   0.00200   0.00000   0.00313   0.00313   2.48302
    A1        1.94684  -0.00006   0.00000  -0.00600  -0.00610   1.94074
    A2        1.94684  -0.00094   0.00000  -0.00709  -0.00715   1.93970
    A3        1.94741  -0.00101   0.00000  -0.00738  -0.00744   1.93997
    D1       -2.19044   0.00158   0.00000   0.01902   0.01894  -2.17150
         Item               Value     Threshold  Converged?
 Maximum Force            0.002001     0.000450     NO 
 RMS     Force            0.001429     0.000300     NO 
 Maximum Displacement     0.013106     0.001800     NO 
 RMS     Displacement     0.006364     0.001200     NO 
 Predicted change in Energy=-2.969547D-05
 GradGradGradGradGradGradGradGradGradGradGradGradGradGradGradGradGradGrad

                          Input orientation:                          
 ---------------------------------------------------------------------
 Center     Atomic      Atomic             Coordinates (Angstroms)
 Number     Number       Type             X           Y           Z
 ---------------------------------------------------------------------
      1          6           0        2.024893    0.057350   -0.000185
      2          9           0        2.773364    1.137855    0.000330
      3          9           0        2.224466   -0.658309   -1.083924
      4          9           0        2.224650   -0.657911    1.083782
 ---------------------------------------------------------------------
                    Distance matrix (angstroms):
                    1          2          3          4
     1  C    0.000000
     2  F    1.314419   0.000000
     3  F    1.313959   2.168663   0.000000
     4  F    1.313959   2.167886   2.167706   0.000000
 Stoichiometry    CF3(2)
 Framework group  C1[X(CF3)]
 Deg. of freedom     6
 Full point group                 C1      NOp   1
 Largest Abelian subgroup         C1      NOp   1
 Largest concise Abelian subgroup C1      NOp   1
                         Standard orientation:                         
 ---------------------------------------------------------------------
 Center     Atomic      Atomic             Coordinates (Angstroms)
 Number     Number       Type             X           Y           Z
 ---------------------------------------------------------------------
      1          6           0        0.000173   -0.000162    0.327300
      2          9           0       -1.135671   -0.526984   -0.072721
      3          9           0        1.024438   -0.719408   -0.072767
      4          9           0        0.111118    1.246500   -0.072713
 ---------------------------------------------------------------------
 Rotational constants (GHZ):          10.9356189          10.9241846           5.6591003
 Standard basis: 6-311+G(2d) (5D, 7F)
 There are   116 symmetry adapted cartesian basis functions of A   symmetry.
 There are   108 symmetry adapted basis functions of A   symmetry.
   108 basis functions,   168 primitive gaussians,   116 cartesian basis functions
    17 alpha electrons       16 beta electrons
       nuclear repulsion energy       124.5458812335 Hartrees.
 NAtoms=    4 NActive=    4 NUniq=    4 SFac= 1.00D+00 NAtFMM=   60 NAOKFM=F Big=F
 Integral buffers will be    131072 words long.
 Raffenetti 2 integral format.
 Two-electron integral symmetry is turned on.
 Nuclear repulsion after empirical dispersion term =      124.5457032035 Hartrees.
 One-electron integrals computed using PRISM.
 NBasis=   108 RedAO= T EigKep=  1.79D-03  NBF=   108
 NBsUse=   108 1.00D-06 EigRej= -1.00D+00 NBFU=   108
 Initial guess from the checkpoint file:  "cf3.chk"
 B after Tr=     0.000000   -0.000000    0.000000
         Rot=    0.976484   -0.000032    0.000033   -0.215590 Ang= -24.90 deg.
 Initial guess <Sx>= 0.0000 <Sy>= 0.0000 <Sz>= 0.5000 <S**2>= 0.7520 S= 0.5010
 Keep R1 and R2 ints in memory in canonical form, NReq=91901340.
 Requested convergence on RMS density matrix=1.00D-08 within 128 cycles.
 Requested convergence on MAX density matrix=1.00D-06.
 Requested convergence on             energy=1.00D-06.
 No special actions if energy rises.
 SCF Done:  E(UwB97XD) =  -337.580001410     A.U. after   10 cycles
            NFock= 10  Conv=0.32D-08     -V/T= 2.0024
 <Sx>= 0.0000 <Sy>= 0.0000 <Sz>= 0.5000 <S**2>= 0.7520 S= 0.5010
 <L.S>= 0.000000000000E+00
 Annihilation of the first spin contaminant:
 S**2 before annihilation     0.7520,   after     0.7500
 Calling FoFJK, ICntrl=      2127 FMM=F ISym2X=0 I1Cent= 0 IOpClX= 1 NMat=1 NMatS=1 NMatT=0.
 ***** Axes restored to original set *****
 -------------------------------------------------------------------
 Center     Atomic                   Forces (Hartrees/Bohr)
 Number     Number              X              Y              Z
 -------------------------------------------------------------------
      1        6           0.001794910   -0.000293105    0.000098175
      2        9          -0.000348625    0.001091070   -0.000110484
      3        9          -0.000683451   -0.000341405   -0.001117540
      4        9          -0.000762835   -0.000456560    0.001129849
 -------------------------------------------------------------------
 Cartesian Forces:  Max     0.001794910 RMS     0.000843648

 GradGradGradGradGradGradGradGradGradGradGradGradGradGradGradGradGradGrad
 Berny optimization.
 Using GEDIIS/GDIIS optimizer.
 FormGI is forming the generalized inverse of G from B-inverse, IUseBI=4.
 Internal  Forces:  Max     0.001780437 RMS     0.001131643
 Search for a local minimum.
 Step number   2 out of a maximum of   20
 All quantities printed in internal units (Hartrees-Bohrs-Radians)
 Mixed Optimization -- RFO/linear search
 Update second derivatives using D2CorX and points    1    2
 DE= -8.42D-06 DEPred=-2.97D-05 R= 2.84D-01
 Trust test= 2.84D-01 RLast= 2.30D-02 DXMaxT set to 3.00D-01
 The second derivative matrix:
                          R1        R2        R3        A1        A2
           R1           0.60981
           R2          -0.03869   0.58252
           R3          -0.03909  -0.05698   0.58135
           A1           0.03433   0.05016   0.05018   0.21166
           A2           0.02606   0.03772   0.03905  -0.04464   0.24421
           A3           0.02736   0.03961   0.04097  -0.04647  -0.00678
           D1           0.01066   0.01614   0.01414   0.01189  -0.05695
                          A3        D1
           A3           0.24217
           D1          -0.05814   0.13070
 ITU=  0  0
 Use linear search instead of GDIIS.
     Eigenvalues ---    0.14691   0.24995   0.30944   0.50592   0.63685
     Eigenvalues ---    0.63892
 RFO step:  Lambda=-1.08208947D-05 EMin= 1.46905677D-01
 Quartic linear search produced a step of -0.41760.
 Iteration  1 RMS(Cart)=  0.00378549 RMS(Int)=  0.00001481
 Iteration  2 RMS(Cart)=  0.00000971 RMS(Int)=  0.00001041
 Iteration  3 RMS(Cart)=  0.00000000 RMS(Int)=  0.00001041
 Variable       Old X    -DE/DX   Delta X   Delta X   Delta X     New X
                                 (Linear)    (Quad)   (Total)
    R1        2.48389   0.00070  -0.00090   0.00192   0.00102   2.48492
    R2        2.48302   0.00100  -0.00131   0.00278   0.00147   2.48450
    R3        2.48302   0.00107  -0.00131   0.00284   0.00153   2.48455
    A1        1.94074  -0.00005   0.00255  -0.00003   0.00254   1.94328
    A2        1.93970   0.00127   0.00299   0.00083   0.00383   1.94352
    A3        1.93997   0.00125   0.00311   0.00061   0.00373   1.94369
    D1       -2.17150  -0.00178  -0.00791  -0.00102  -0.00892  -2.18042
         Item               Value     Threshold  Converged?
 Maximum Force            0.001780     0.000450     NO 
 RMS     Force            0.001132     0.000300     NO 
 Maximum Displacement     0.005838     0.001800     NO 
 RMS     Displacement     0.003783     0.001200     NO 
 Predicted change in Energy=-1.463407D-05
 GradGradGradGradGradGradGradGradGradGradGradGradGradGradGradGradGradGrad

                          Input orientation:                          
 ---------------------------------------------------------------------
 Center     Atomic      Atomic             Coordinates (Angstroms)
 Number     Number       Type             X           Y           Z
 ---------------------------------------------------------------------
      1          6           0        2.027982    0.056363    0.000035
      2          9           0        2.772893    1.139982   -0.000070
      3          9           0        2.223278   -0.658620   -1.085874
      4          9           0        2.223219   -0.658739    1.085912
 ---------------------------------------------------------------------
                    Distance matrix (angstroms):
                    1          2          3          4
     1  C    0.000000
     2  F    1.314961   0.000000
     3  F    1.314739   2.171639   0.000000
     4  F    1.314769   2.171842   2.171786   0.000000
 Stoichiometry    CF3(2)
 Framework group  C1[X(CF3)]
 Deg. of freedom     6
 Full point group                 C1      NOp   1
 Largest Abelian subgroup         C1      NOp   1
 Largest concise Abelian subgroup C1      NOp   1
                         Standard orientation:                         
 ---------------------------------------------------------------------
 Center     Atomic      Atomic             Coordinates (Angstroms)
 Number     Number       Type             X           Y           Z
 ---------------------------------------------------------------------
      1          6           0        0.000118   -0.000083    0.323762
      2          9           0       -0.767860    0.991261   -0.071928
      3          9           0       -0.474647   -1.160492   -0.071952
      4          9           0        1.242428    0.169286   -0.071962
 ---------------------------------------------------------------------
 Rotational constants (GHZ):          10.9034380          10.9010872           5.6399871
 Standard basis: 6-311+G(2d) (5D, 7F)
 There are   116 symmetry adapted cartesian basis functions of A   symmetry.
 There are   108 symmetry adapted basis functions of A   symmetry.
   108 basis functions,   168 primitive gaussians,   116 cartesian basis functions
    17 alpha electrons       16 beta electrons
       nuclear repulsion energy       124.4103607555 Hartrees.
 NAtoms=    4 NActive=    4 NUniq=    4 SFac= 1.00D+00 NAtFMM=   60 NAOKFM=F Big=F
 Integral buffers will be    131072 words long.
 Raffenetti 2 integral format.
 Two-electron integral symmetry is turned on.
 Nuclear repulsion after empirical dispersion term =      124.4101810273 Hartrees.
 One-electron integrals computed using PRISM.
 NBasis=   108 RedAO= T EigKep=  1.80D-03  NBF=   108
 NBsUse=   108 1.00D-06 EigRej= -1.00D+00 NBFU=   108
 Initial guess from the checkpoint file:  "cf3.chk"
 B after Tr=     0.000000    0.000000   -0.000000
         Rot=    0.781804    0.000026   -0.000012    0.623524 Ang=  77.15 deg.
 Initial guess <Sx>= 0.0000 <Sy>= 0.0000 <Sz>= 0.5000 <S**2>= 0.7520 S= 0.5010
 Keep R1 and R2 ints in memory in canonical form, NReq=91901340.
 Requested convergence on RMS density matrix=1.00D-08 within 128 cycles.
 Requested convergence on MAX density matrix=1.00D-06.
 Requested convergence on             energy=1.00D-06.
 No special actions if energy rises.
 SCF Done:  E(UwB97XD) =  -337.580014850     A.U. after    9 cycles
            NFock=  9  Conv=0.83D-08     -V/T= 2.0024
 <Sx>= 0.0000 <Sy>= 0.0000 <Sz>= 0.5000 <S**2>= 0.7520 S= 0.5010
 <L.S>= 0.000000000000E+00
 Annihilation of the first spin contaminant:
 S**2 before annihilation     0.7520,   after     0.7500
 Calling FoFJK, ICntrl=      2127 FMM=F ISym2X=0 I1Cent= 0 IOpClX= 1 NMat=1 NMatS=1 NMatT=0.
 ***** Axes restored to original set *****
 -------------------------------------------------------------------
 Center     Atomic                   Forces (Hartrees/Bohr)
 Number     Number              X              Y              Z
 -------------------------------------------------------------------
      1        6           0.000116728    0.000129754   -0.000012178
      2        9          -0.000115867   -0.000203864    0.000036252
      3        9           0.000000354    0.000009748    0.000099958
      4        9          -0.000001215    0.000064362   -0.000124032
 -------------------------------------------------------------------
 Cartesian Forces:  Max     0.000203864 RMS     0.000098541

 GradGradGradGradGradGradGradGradGradGradGradGradGradGradGradGradGradGrad
 Berny optimization.
 Using GEDIIS/GDIIS optimizer.
 FormGI is forming the generalized inverse of G from B-inverse, IUseBI=4.
 Internal  Forces:  Max     0.000235061 RMS     0.000116970
 Search for a local minimum.
 Step number   3 out of a maximum of   20
 All quantities printed in internal units (Hartrees-Bohrs-Radians)
 Mixed Optimization -- En-DIIS/RFO-DIIS
 Update second derivatives using D2CorX and points    1    2    3
 DE= -1.34D-05 DEPred=-1.46D-05 R= 9.18D-01
 TightC=F SS=  1.41D+00  RLast= 1.10D-02 DXNew= 5.0454D-01 3.2877D-02
 Trust test= 9.18D-01 RLast= 1.10D-02 DXMaxT set to 3.00D-01
 The second derivative matrix:
                          R1        R2        R3        A1        A2
           R1           0.63557
           R2          -0.01935   0.58771
           R3          -0.01614  -0.04780   0.59485
           A1           0.00979   0.01515   0.01399   0.20549
           A2           0.02373   0.02448   0.02707  -0.06283   0.23084
           A3           0.02627   0.02848   0.03111  -0.06374  -0.01880
           D1          -0.01370  -0.00904  -0.01354   0.02274  -0.06403
                          A3        D1
           A3           0.23140
           D1          -0.06552   0.14966
 ITU=  1  0  0
 Use linear search instead of GDIIS.
     Eigenvalues ---    0.14598   0.24986   0.31421   0.54963   0.63872
     Eigenvalues ---    0.64402
 RFO step:  Lambda=-1.11227337D-07 EMin= 1.45981683D-01
 Quartic linear search produced a step of -0.04593.
 Iteration  1 RMS(Cart)=  0.00024510 RMS(Int)=  0.00000066
 Iteration  2 RMS(Cart)=  0.00000002 RMS(Int)=  0.00000066
 Variable       Old X    -DE/DX   Delta X   Delta X   Delta X     New X
                                 (Linear)    (Quad)   (Total)
    R1        2.48492  -0.00024  -0.00005  -0.00032  -0.00037   2.48455
    R2        2.48450  -0.00009  -0.00007  -0.00011  -0.00017   2.48432
    R3        2.48455  -0.00013  -0.00007  -0.00017  -0.00024   2.48432
    A1        1.94328   0.00006  -0.00012   0.00030   0.00019   1.94347
    A2        1.94352  -0.00006  -0.00018   0.00003  -0.00015   1.94338
    A3        1.94369  -0.00008  -0.00017  -0.00005  -0.00022   1.94347
    D1       -2.18042   0.00003   0.00041  -0.00038   0.00003  -2.18039
         Item               Value     Threshold  Converged?
 Maximum Force            0.000235     0.000450     YES
 RMS     Force            0.000117     0.000300     YES
 Maximum Displacement     0.000381     0.001800     YES
 RMS     Displacement     0.000245     0.001200     YES
 Predicted change in Energy=-8.540810D-08
 Optimization completed.
    -- Stationary point found.
                           ----------------------------
                           !   Optimized Parameters   !
                           ! (Angstroms and Degrees)  !
 --------------------------                            --------------------------
 ! Name  Definition              Value          Derivative Info.                !
 --------------------------------------------------------------------------------
 ! R1    R(1,2)                  1.315          -DE/DX =   -0.0002              !
 ! R2    R(1,3)                  1.3147         -DE/DX =   -0.0001              !
 ! R3    R(1,4)                  1.3148         -DE/DX =   -0.0001              !
 ! A1    A(2,1,3)              111.3419         -DE/DX =    0.0001              !
 ! A2    A(2,1,4)              111.3557         -DE/DX =   -0.0001              !
 ! A3    A(3,1,4)              111.3655         -DE/DX =   -0.0001              !
 ! D1    D(2,1,4,3)           -124.9289         -DE/DX =    0.0                 !
 --------------------------------------------------------------------------------
 GradGradGradGradGradGradGradGradGradGradGradGradGradGradGradGradGradGrad

                          Input orientation:                          
 ---------------------------------------------------------------------
 Center     Atomic      Atomic             Coordinates (Angstroms)
 Number     Number       Type             X           Y           Z
 ---------------------------------------------------------------------
      1          6           0        2.027982    0.056363    0.000035
      2          9           0        2.772893    1.139982   -0.000070
      3          9           0        2.223278   -0.658620   -1.085874
      4          9           0        2.223219   -0.658739    1.085912
 ---------------------------------------------------------------------
                    Distance matrix (angstroms):
                    1          2          3          4
     1  C    0.000000
     2  F    1.314961   0.000000
     3  F    1.314739   2.171639   0.000000
     4  F    1.314769   2.171842   2.171786   0.000000
 Stoichiometry    CF3(2)
 Framework group  C1[X(CF3)]
 Deg. of freedom     6
 Full point group                 C1      NOp   1
 Largest Abelian subgroup         C1      NOp   1
 Largest concise Abelian subgroup C1      NOp   1
                         Standard orientation:                         
 ---------------------------------------------------------------------
 Center     Atomic      Atomic             Coordinates (Angstroms)
 Number     Number       Type             X           Y           Z
 ---------------------------------------------------------------------
      1          6           0        0.000118   -0.000083    0.323762
      2          9           0       -0.767860    0.991261   -0.071928
      3          9           0       -0.474647   -1.160492   -0.071952
      4          9           0        1.242428    0.169286   -0.071962
 ---------------------------------------------------------------------
 Rotational constants (GHZ):          10.9034380          10.9010872           5.6399871

 **********************************************************************

            Population analysis using the SCF density.

 **********************************************************************

 Orbital symmetries:
 Alpha Orbitals:
       Occupied  (A) (A) (A) (A) (A) (A) (A) (A) (A) (A) (A) (A)
                 (A) (A) (A) (A) (A)
       Virtual   (A) (A) (A) (A) (A) (A) (A) (A) (A) (A) (A) (A)
                 (A) (A) (A) (A) (A) (A) (A) (A) (A) (A) (A) (A)
                 (A) (A) (A) (A) (A) (A) (A) (A) (A) (A) (A) (A)
                 (A) (A) (A) (A) (A) (A) (A) (A) (A) (A) (A) (A)
                 (A) (A) (A) (A) (A) (A) (A) (A) (A) (A) (A) (A)
                 (A) (A) (A) (A) (A) (A) (A) (A) (A) (A) (A) (A)
                 (A) (A) (A) (A) (A) (A) (A) (A) (A) (A) (A) (A)
                 (A) (A) (A) (A) (A) (A) (A)
 Beta  Orbitals:
       Occupied  (A) (A) (A) (A) (A) (A) (A) (A) (A) (A) (A) (A)
                 (A) (A) (A) (A)
       Virtual   (A) (A) (A) (A) (A) (A) (A) (A) (A) (A) (A) (A)
                 (A) (A) (A) (A) (A) (A) (A) (A) (A) (A) (A) (A)
                 (A) (A) (A) (A) (A) (A) (A) (A) (A) (A) (A) (A)
                 (A) (A) (A) (A) (A) (A) (A) (A) (A) (A) (A) (A)
                 (A) (A) (A) (A) (A) (A) (A) (A) (A) (A) (A) (A)
                 (A) (A) (A) (A) (A) (A) (A) (A) (A) (A) (A) (A)
                 (A) (A) (A) (A) (A) (A) (A) (A) (A) (A) (A) (A)
                 (A) (A) (A) (A) (A) (A) (A) (A)
 The electronic state is 2-A.
 Alpha  occ. eigenvalues --  -24.88029 -24.88029 -24.88020 -10.55446  -1.46489
 Alpha  occ. eigenvalues --   -1.37766  -1.37755  -0.83123  -0.72726  -0.72722
 Alpha  occ. eigenvalues --   -0.69195  -0.59879  -0.59877  -0.56519  -0.56515
 Alpha  occ. eigenvalues --   -0.53869  -0.36572
 Alpha virt. eigenvalues --    0.08100   0.10089   0.10301   0.10302   0.25199
 Alpha virt. eigenvalues --    0.25211   0.25598   0.29902   0.29903   0.31606
 Alpha virt. eigenvalues --    0.32180   0.32183   0.35395   0.39173   0.39174
 Alpha virt. eigenvalues --    0.39570   0.39855   0.47470   0.47471   0.59742
 Alpha virt. eigenvalues --    0.66799   0.66804   0.82207   0.90131   0.90136
 Alpha virt. eigenvalues --    1.03958   1.17876   1.17880   1.31774   1.31779
 Alpha virt. eigenvalues --    1.35651   1.36431   1.36435   1.43111   1.45268
 Alpha virt. eigenvalues --    1.51237   1.51238   1.88039   1.88047   2.02383
 Alpha virt. eigenvalues --    2.02674   2.02680   2.02959   2.07213   2.11245
 Alpha virt. eigenvalues --    2.11258   2.19704   2.35846   2.35854   2.45038
 Alpha virt. eigenvalues --    2.65187   2.65216   2.78519   2.78529   2.89058
 Alpha virt. eigenvalues --    3.12150   3.34495   3.34502   3.48881   3.48893
 Alpha virt. eigenvalues --    3.50716   4.20521   4.20527   6.33112   6.33116
 Alpha virt. eigenvalues --    6.34767   6.40554   6.40555   6.41958   6.46572
 Alpha virt. eigenvalues --    6.84525   6.84572   9.06531   9.08135   9.08141
 Alpha virt. eigenvalues --    9.08678   9.18157   9.18160   9.20191   9.24167
 Alpha virt. eigenvalues --    9.24168   9.43953   9.61100   9.61101   9.64729
 Alpha virt. eigenvalues --    9.81558   9.81562  23.99868  66.87380  66.87389
 Alpha virt. eigenvalues --   66.94241
  Beta  occ. eigenvalues --  -24.87709 -24.87709 -24.87701 -10.54011  -1.45474
  Beta  occ. eigenvalues --   -1.36895  -1.36885  -0.81338  -0.71684  -0.71680
  Beta  occ. eigenvalues --   -0.65339  -0.58838  -0.58837  -0.55562  -0.55557
  Beta  occ. eigenvalues --   -0.53544
  Beta virt. eigenvalues --   -0.03409   0.09632   0.10997   0.10997   0.12049
  Beta virt. eigenvalues --    0.26751   0.27249   0.27257   0.30949   0.30951
  Beta virt. eigenvalues --    0.31936   0.32790   0.32796   0.36112   0.39697
  Beta virt. eigenvalues --    0.39698   0.39999   0.40248   0.47603   0.47604
  Beta virt. eigenvalues --    0.62888   0.67261   0.67267   0.83712   0.91884
  Beta virt. eigenvalues --    0.91889   1.05959   1.18483   1.18487   1.32110
  Beta virt. eigenvalues --    1.32114   1.35987   1.37164   1.37169   1.43750
  Beta virt. eigenvalues --    1.45448   1.51435   1.51436   1.88271   1.88279
  Beta virt. eigenvalues --    2.02711   2.02973   2.02979   2.04268   2.07807
  Beta virt. eigenvalues --    2.11740   2.11754   2.19746   2.36796   2.36804
  Beta virt. eigenvalues --    2.47484   2.66266   2.66295   2.79700   2.79711
  Beta virt. eigenvalues --    2.92189   3.16470   3.39740   3.39743   3.50822
  Beta virt. eigenvalues --    3.50834   3.55506   4.22303   4.22309   6.33851
  Beta virt. eigenvalues --    6.33853   6.35567   6.41105   6.41105   6.42218
  Beta virt. eigenvalues --    6.47395   6.85347   6.85394   9.07640   9.08849
  Beta virt. eigenvalues --    9.08855   9.09914   9.19060   9.19064   9.20487
  Beta virt. eigenvalues --    9.25373   9.25374   9.44776   9.61820   9.61821
  Beta virt. eigenvalues --    9.65493   9.82257   9.82261  24.02333  66.87624
  Beta virt. eigenvalues --   66.87632  66.94486
          Condensed to atoms (all electrons):
               1          2          3          4
     1  C    4.883451   0.120440   0.120443   0.120419
     2  F    0.120440   9.094296   0.018526   0.018555
     3  F    0.120443   0.018526   9.094166   0.018588
     4  F    0.120419   0.018555   0.018588   9.094145
          Atomic-Atomic Spin Densities.
               1          2          3          4
     1  C    1.421418  -0.172771  -0.172811  -0.172852
     2  F   -0.172771   0.165876   0.019618   0.019620
     3  F   -0.172811   0.019618   0.165911   0.019620
     4  F   -0.172852   0.019620   0.019620   0.165949
 Mulliken charges and spin densities:
               1          2
     1  C    0.755247   0.902983
     2  F   -0.251817   0.032342
     3  F   -0.251724   0.032338
     4  F   -0.251706   0.032336
 Sum of Mulliken charges =  -0.00000   1.00000
 Mulliken charges and spin densities with hydrogens summed into heavy atoms:
               1          2
     1  C    0.755247   0.902983
     2  F   -0.251817   0.032342
     3  F   -0.251724   0.032338
     4  F   -0.251706   0.032336
 Electronic spatial extent (au):  <R**2>=            200.1246
 Charge=             -0.0000 electrons
 Dipole moment (field-independent basis, Debye):
    X=              0.0009    Y=             -0.0011    Z=              0.2950  Tot=              0.2950
 Quadrupole moment (field-independent basis, Debye-Ang):
   XX=            -20.9491   YY=            -20.9492   ZZ=            -19.6941
   XY=              0.0006   XZ=             -0.0000   YZ=             -0.0001
 Traceless Quadrupole moment (field-independent basis, Debye-Ang):
   XX=             -0.4183   YY=             -0.4184   ZZ=              0.8367
   XY=              0.0006   XZ=             -0.0000   YZ=             -0.0001
 Octapole moment (field-independent basis, Debye-Ang**2):
  XXX=             -0.6967  YYY=              0.2983  ZZZ=             -2.8239  XYY=              0.6977
  XXY=             -0.3006  XXZ=             -0.6607  XZZ=              0.0001  YZZ=             -0.0003
  YYZ=             -0.6607  XYZ=             -0.0000
 Hexadecapole moment (field-independent basis, Debye-Ang**3):
 XXXX=            -82.2429 YYYY=            -82.2301 ZZZZ=            -19.7510 XXXY=              0.0013
 XXXZ=             -0.3231 YYYX=              0.0015 YYYZ=              0.1389 ZZZX=             -0.0005
 ZZZY=              0.0002 XXYY=            -27.4118 XXZZ=            -16.7104 YYZZ=            -16.7082
 XXYZ=             -0.1389 YYXZ=              0.3229 ZZXY=              0.0004
 N-N= 1.244101810273D+02 E-N=-1.052234587923D+03  KE= 3.367795724530D+02
                          Isotropic Fermi Contact Couplings
        Atom                 a.u.       MegaHertz       Gauss      10(-4) cm-1
     1  C(13)              0.63005     708.29243     252.73635     236.26093
     2  F(19)              0.09096     382.71655     136.56278     127.66050
     3  F(19)              0.09097     382.75029     136.57482     127.67175
     4  F(19)              0.09099     382.85040     136.61054     127.70515
 --------------------------------------------------------
       Center         ----  Spin Dipole Couplings  ----
                      3XX-RR        3YY-RR        3ZZ-RR
 --------------------------------------------------------
     1   Atom       -0.488331     -0.488345      0.976676
     2   Atom       -0.347771     -0.335466      0.683238
     3   Atom       -0.359297     -0.324175      0.683472
     4   Atom       -0.317999     -0.365527      0.683526
 --------------------------------------------------------
                        XY            XZ            YZ
 --------------------------------------------------------
     1   Atom        0.000003      0.000045      0.000035
     2   Atom       -0.023916      0.177092     -0.228481
     3   Atom        0.017289      0.109426      0.267172
     4   Atom        0.006611     -0.286219     -0.039061
 --------------------------------------------------------


 ---------------------------------------------------------------------------------
              Anisotropic Spin Dipole Couplings in Principal Axis System
 ---------------------------------------------------------------------------------

       Atom             a.u.   MegaHertz   Gauss  10(-4) cm-1        Axes

              Baa    -0.4883   -65.531   -23.383   -21.859 -0.2291  0.9734 -0.0000
     1 C(13)  Bbb    -0.4883   -65.529   -23.382   -21.858  0.9734  0.2291 -0.0000
              Bcc     0.9767   131.061    46.766    43.717  0.0000  0.0000  1.0000
 
              Baa    -0.3945  -198.110   -70.691   -66.082 -0.5915  0.7635  0.2591
     2 F(19)  Bbb    -0.3663  -183.972   -65.646   -61.366  0.7905  0.6124 -0.0001
              Bcc     0.7608   382.082   136.336   127.449  0.1587 -0.2048  0.9659
 
              Baa    -0.3944  -198.090   -70.683   -66.076  0.3660  0.8939 -0.2587
     3 F(19)  Bbb    -0.3664  -184.005   -65.658   -61.378  0.9254 -0.3789 -0.0000
              Bcc     0.7608   382.095   136.341   127.453  0.0981  0.2394  0.9660
 
              Baa    -0.3945  -198.130   -70.698   -66.089  0.9571  0.1306  0.2588
     4 F(19)  Bbb    -0.3664  -184.030   -65.666   -61.386 -0.1352  0.9908  0.0000
              Bcc     0.7609   382.160   136.364   127.475 -0.2565 -0.0350  0.9659
 

 ---------------------------------------------------------------------------------

 1\1\GINC-CCLEARCO\FOpt\UwB97XD\6-311+G(2d)\C1F3(2)\RAPPE\18-Nov-2025\0
 \\# opt freq uwb97xd/6-311+g(2d) geom=connectivity\\Title Card Require
 d\\0,2\C,2.0279819305,0.0563626494,0.0000351002\F,2.7728927564,1.13998
 21466,-0.0000704841\F,2.2232779397,-0.6586203505,-1.0858738608\F,2.223
 2193734,-0.6587394455,1.0859122446\\Version=EM64M-G16RevA.03\State=2-A
 \HF=-337.5800148\S2=0.751967\S2-1=0.\S2A=0.750003\RMSD=8.280e-09\RMSF=
 9.854e-05\Dipole=-0.1111533,0.0333921,0.0000341\Quadrupole=0.5423594,-
 0.2318012,-0.3105582,-0.2608876,0.0000741,0.0000402\PG=C01 [X(C1F3)]\\
 @


 Ideas are like rabbits. You get a couple and learn
 how to handle them, and pretty soon you have a dozen.
                                    -- John Steinbeck
 Job cpu time:       0 days  0 hours  6 minutes 37.4 seconds.
 Elapsed time:       0 days  0 hours  0 minutes 18.2 seconds.
 File lengths (MBytes):  RWF=     14 Int=      0 D2E=      0 Chk=      2 Scr=      1
 Normal termination of Gaussian 16 at Tue Nov 18 05:52:40 2025.
 Link1:  Proceeding to internal job step number  2.
 ----------------------------------------------------------------------
 #N Geom=AllCheck Guess=TCheck SCRF=Check GenChk UwB97XD/6-311+G(2d) Fr
 eq
 ----------------------------------------------------------------------
 1/10=4,29=7,30=1,38=1,40=1/1,3;
 2/12=2,40=1/2;
 3/5=4,6=6,7=12,11=2,14=-4,25=1,30=1,70=2,71=2,74=-58,116=2,140=1/1,2,3;
 4/5=101/1;
 5/5=2,38=6,98=1/2;
 8/6=4,10=90,11=11/1;
 11/6=1,8=1,9=11,15=111,16=1/1,2,10;
 10/6=1/2;
 6/7=2,8=2,9=2,10=2,28=1/1;
 7/8=1,10=1,25=1/1,2,3,16;
 1/10=4,30=1/3;
 99//99;
 Structure from the checkpoint file:  "cf3.chk"
 -------------------
 Title Card Required
 -------------------
 Charge =  0 Multiplicity = 2
 Redundant internal coordinates found in file.  (old form).
 C,0,2.0279819305,0.0563626494,0.0000351002
 F,0,2.7728927564,1.1399821466,-0.0000704841
 F,0,2.2232779397,-0.6586203505,-1.0858738608
 F,0,2.2232193734,-0.6587394455,1.0859122446
 Recover connectivity data from disk.

 GradGradGradGradGradGradGradGradGradGradGradGradGradGradGradGradGradGrad
 Berny optimization.
 Initialization pass.
                           ----------------------------
                           !    Initial Parameters    !
                           ! (Angstroms and Degrees)  !
 --------------------------                            --------------------------
 ! Name  Definition              Value          Derivative Info.                !
 --------------------------------------------------------------------------------
 ! R1    R(1,2)                  1.315          calculate D2E/DX2 analytically  !
 ! R2    R(1,3)                  1.3147         calculate D2E/DX2 analytically  !
 ! R3    R(1,4)                  1.3148         calculate D2E/DX2 analytically  !
 ! A1    A(2,1,3)              111.3419         calculate D2E/DX2 analytically  !
 ! A2    A(2,1,4)              111.3557         calculate D2E/DX2 analytically  !
 ! A3    A(3,1,4)              111.3655         calculate D2E/DX2 analytically  !
 ! D1    D(2,1,4,3)           -124.9289         calculate D2E/DX2 analytically  !
 --------------------------------------------------------------------------------
 Trust Radius=3.00D-01 FncErr=1.00D-07 GrdErr=1.00D-07 EigMax=2.50D+02 EigMin=1.00D-04
 Number of steps in this run=      2 maximum allowed number of steps=      2.
 GradGradGradGradGradGradGradGradGradGradGradGradGradGradGradGradGradGrad

                          Input orientation:                          
 ---------------------------------------------------------------------
 Center     Atomic      Atomic             Coordinates (Angstroms)
 Number     Number       Type             X           Y           Z
 ---------------------------------------------------------------------
      1          6           0        2.027982    0.056363    0.000035
      2          9           0        2.772893    1.139982   -0.000070
      3          9           0        2.223278   -0.658620   -1.085874
      4          9           0        2.223219   -0.658739    1.085912
 ---------------------------------------------------------------------
                    Distance matrix (angstroms):
                    1          2          3          4
     1  C    0.000000
     2  F    1.314961   0.000000
     3  F    1.314739   2.171639   0.000000
     4  F    1.314769   2.171842   2.171786   0.000000
 Stoichiometry    CF3(2)
 Framework group  C1[X(CF3)]
 Deg. of freedom     6
 Full point group                 C1      NOp   1
 Largest Abelian subgroup         C1      NOp   1
 Largest concise Abelian subgroup C1      NOp   1
                         Standard orientation:                         
 ---------------------------------------------------------------------
 Center     Atomic      Atomic             Coordinates (Angstroms)
 Number     Number       Type             X           Y           Z
 ---------------------------------------------------------------------
      1          6           0        0.000118   -0.000083    0.323762
      2          9           0       -0.767860    0.991261   -0.071928
      3          9           0       -0.474647   -1.160492   -0.071952
      4          9           0        1.242428    0.169286   -0.071962
 ---------------------------------------------------------------------
 Rotational constants (GHZ):          10.9034380          10.9010872           5.6399871
 Standard basis: 6-311+G(2d) (5D, 7F)
 There are   116 symmetry adapted cartesian basis functions of A   symmetry.
 There are   108 symmetry adapted basis functions of A   symmetry.
   108 basis functions,   168 primitive gaussians,   116 cartesian basis functions
    17 alpha electrons       16 beta electrons
       nuclear repulsion energy       124.4103607555 Hartrees.
 NAtoms=    4 NActive=    4 NUniq=    4 SFac= 1.00D+00 NAtFMM=   60 NAOKFM=F Big=F
 Integral buffers will be    131072 words long.
 Raffenetti 2 integral format.
 Two-electron integral symmetry is turned on.
 Nuclear repulsion after empirical dispersion term =      124.4101810273 Hartrees.
 One-electron integrals computed using PRISM.
 NBasis=   108 RedAO= T EigKep=  1.80D-03  NBF=   108
 NBsUse=   108 1.00D-06 EigRej= -1.00D+00 NBFU=   108
 Initial guess from the checkpoint file:  "cf3.chk"
 B after Tr=    -0.000000    0.000000    0.000000
         Rot=    1.000000    0.000000   -0.000000    0.000000 Ang=   0.00 deg.
 Initial guess <Sx>= 0.0000 <Sy>= 0.0000 <Sz>= 0.5000 <S**2>= 0.7520 S= 0.5010
 Keep R1 and R2 ints in memory in canonical form, NReq=91901340.
 Requested convergence on RMS density matrix=1.00D-08 within 128 cycles.
 Requested convergence on MAX density matrix=1.00D-06.
 Requested convergence on             energy=1.00D-06.
 No special actions if energy rises.
 SCF Done:  E(UwB97XD) =  -337.580014850     A.U. after    1 cycles
            NFock=  1  Conv=0.11D-08     -V/T= 2.0024
 <Sx>= 0.0000 <Sy>= 0.0000 <Sz>= 0.5000 <S**2>= 0.7520 S= 0.5010
 <L.S>= 0.000000000000E+00
 Annihilation of the first spin contaminant:
 S**2 before annihilation     0.7520,   after     0.7500
 DoSCS=F DFT=T ScalE2(SS,OS)=  1.000000  1.000000
 Range of M.O.s used for correlation:     1   108
 NBasis=   108 NAE=    17 NBE=    16 NFC=     0 NFV=     0
 NROrb=    108 NOA=    17 NOB=    16 NVA=    91 NVB=    92

 **** Warning!!: The largest alpha MO coefficient is  0.12850553D+02


 **** Warning!!: The largest beta MO coefficient is  0.12503210D+02

 Symmetrizing basis deriv contribution to polar:
 IMax=3 JMax=2 DiffMx= 0.00D+00
 G2DrvN: will do     5 centers at a time, making    1 passes.
 Calling FoFCou, ICntrl=  3107 FMM=F I1Cent=   0 AccDes= 0.00D+00.
 End of G2Drv F.D. properties file   721 does not exist.
 End of G2Drv F.D. properties file   722 does not exist.
 End of G2Drv F.D. properties file   788 does not exist.
          IDoAtm=1111
          Differentiating once with respect to electric field.
                with respect to dipole field.
          Differentiating once with respect to nuclear coordinates.
 Keep R1 and R2 ints in memory in canonical form, NReq=91821177.
          There are    15 degrees of freedom in the 1st order CPHF.  IDoFFX=6 NUNeed=     3.
     12 vectors produced by pass  0 Test12= 2.01D-14 6.67D-09 XBig12= 9.74D+00 1.09D+00.
 AX will form    12 AO Fock derivatives at one time.
     12 vectors produced by pass  1 Test12= 2.01D-14 6.67D-09 XBig12= 1.71D+00 4.58D-01.
     12 vectors produced by pass  2 Test12= 2.01D-14 6.67D-09 XBig12= 1.05D-01 1.28D-01.
     12 vectors produced by pass  3 Test12= 2.01D-14 6.67D-09 XBig12= 3.11D-03 2.24D-02.
     12 vectors produced by pass  4 Test12= 2.01D-14 6.67D-09 XBig12= 7.98D-05 2.30D-03.
     12 vectors produced by pass  5 Test12= 2.01D-14 6.67D-09 XBig12= 1.60D-06 3.31D-04.
     12 vectors produced by pass  6 Test12= 2.01D-14 6.67D-09 XBig12= 1.88D-08 3.50D-05.
     12 vectors produced by pass  7 Test12= 2.01D-14 6.67D-09 XBig12= 1.26D-10 2.70D-06.
      4 vectors produced by pass  8 Test12= 2.01D-14 6.67D-09 XBig12= 8.30D-13 1.90D-07.
      3 vectors produced by pass  9 Test12= 2.01D-14 6.67D-09 XBig12= 7.60D-15 2.27D-08.
 InvSVY:  IOpt=1 It=  1 EMax= 1.11D-15
 Solved reduced A of dimension   103 with    12 vectors.
 Isotropic polarizability for W=    0.000000       15.99 Bohr**3.
 End of Minotr F.D. properties file   721 does not exist.
 End of Minotr F.D. properties file   722 does not exist.
 End of Minotr F.D. properties file   788 does not exist.

 **********************************************************************

            Population analysis using the SCF density.

 **********************************************************************

 Orbital symmetries:
 Alpha Orbitals:
       Occupied  (A) (A) (A) (A) (A) (A) (A) (A) (A) (A) (A) (A)
                 (A) (A) (A) (A) (A)
       Virtual   (A) (A) (A) (A) (A) (A) (A) (A) (A) (A) (A) (A)
                 (A) (A) (A) (A) (A) (A) (A) (A) (A) (A) (A) (A)
                 (A) (A) (A) (A) (A) (A) (A) (A) (A) (A) (A) (A)
                 (A) (A) (A) (A) (A) (A) (A) (A) (A) (A) (A) (A)
                 (A) (A) (A) (A) (A) (A) (A) (A) (A) (A) (A) (A)
                 (A) (A) (A) (A) (A) (A) (A) (A) (A) (A) (A) (A)
                 (A) (A) (A) (A) (A) (A) (A) (A) (A) (A) (A) (A)
                 (A) (A) (A) (A) (A) (A) (A)
 Beta  Orbitals:
       Occupied  (A) (A) (A) (A) (A) (A) (A) (A) (A) (A) (A) (A)
                 (A) (A) (A) (A)
       Virtual   (A) (A) (A) (A) (A) (A) (A) (A) (A) (A) (A) (A)
                 (A) (A) (A) (A) (A) (A) (A) (A) (A) (A) (A) (A)
                 (A) (A) (A) (A) (A) (A) (A) (A) (A) (A) (A) (A)
                 (A) (A) (A) (A) (A) (A) (A) (A) (A) (A) (A) (A)
                 (A) (A) (A) (A) (A) (A) (A) (A) (A) (A) (A) (A)
                 (A) (A) (A) (A) (A) (A) (A) (A) (A) (A) (A) (A)
                 (A) (A) (A) (A) (A) (A) (A) (A) (A) (A) (A) (A)
                 (A) (A) (A) (A) (A) (A) (A) (A)
 The electronic state is 2-A.
 Alpha  occ. eigenvalues --  -24.88029 -24.88029 -24.88020 -10.55446  -1.46489
 Alpha  occ. eigenvalues --   -1.37766  -1.37755  -0.83123  -0.72726  -0.72722
 Alpha  occ. eigenvalues --   -0.69195  -0.59879  -0.59877  -0.56519  -0.56515
 Alpha  occ. eigenvalues --   -0.53869  -0.36572
 Alpha virt. eigenvalues --    0.08100   0.10089   0.10301   0.10302   0.25199
 Alpha virt. eigenvalues --    0.25211   0.25598   0.29902   0.29903   0.31606
 Alpha virt. eigenvalues --    0.32180   0.32183   0.35395   0.39173   0.39174
 Alpha virt. eigenvalues --    0.39570   0.39855   0.47470   0.47471   0.59742
 Alpha virt. eigenvalues --    0.66799   0.66804   0.82207   0.90131   0.90136
 Alpha virt. eigenvalues --    1.03958   1.17876   1.17880   1.31774   1.31779
 Alpha virt. eigenvalues --    1.35651   1.36431   1.36435   1.43111   1.45268
 Alpha virt. eigenvalues --    1.51237   1.51238   1.88039   1.88047   2.02383
 Alpha virt. eigenvalues --    2.02674   2.02680   2.02959   2.07213   2.11245
 Alpha virt. eigenvalues --    2.11258   2.19704   2.35846   2.35854   2.45038
 Alpha virt. eigenvalues --    2.65187   2.65216   2.78519   2.78529   2.89058
 Alpha virt. eigenvalues --    3.12150   3.34495   3.34502   3.48881   3.48893
 Alpha virt. eigenvalues --    3.50716   4.20521   4.20527   6.33112   6.33116
 Alpha virt. eigenvalues --    6.34767   6.40554   6.40555   6.41958   6.46572
 Alpha virt. eigenvalues --    6.84525   6.84572   9.06531   9.08135   9.08141
 Alpha virt. eigenvalues --    9.08678   9.18157   9.18160   9.20191   9.24167
 Alpha virt. eigenvalues --    9.24168   9.43953   9.61100   9.61101   9.64729
 Alpha virt. eigenvalues --    9.81558   9.81562  23.99868  66.87380  66.87389
 Alpha virt. eigenvalues --   66.94241
  Beta  occ. eigenvalues --  -24.87709 -24.87709 -24.87701 -10.54011  -1.45474
  Beta  occ. eigenvalues --   -1.36895  -1.36885  -0.81338  -0.71684  -0.71680
  Beta  occ. eigenvalues --   -0.65339  -0.58838  -0.58837  -0.55562  -0.55557
  Beta  occ. eigenvalues --   -0.53544
  Beta virt. eigenvalues --   -0.03409   0.09632   0.10997   0.10997   0.12049
  Beta virt. eigenvalues --    0.26751   0.27249   0.27257   0.30949   0.30951
  Beta virt. eigenvalues --    0.31936   0.32790   0.32796   0.36112   0.39697
  Beta virt. eigenvalues --    0.39698   0.39999   0.40248   0.47603   0.47604
  Beta virt. eigenvalues --    0.62888   0.67261   0.67267   0.83712   0.91884
  Beta virt. eigenvalues --    0.91889   1.05959   1.18483   1.18487   1.32110
  Beta virt. eigenvalues --    1.32114   1.35987   1.37164   1.37169   1.43750
  Beta virt. eigenvalues --    1.45448   1.51435   1.51436   1.88271   1.88279
  Beta virt. eigenvalues --    2.02711   2.02973   2.02979   2.04268   2.07807
  Beta virt. eigenvalues --    2.11740   2.11754   2.19746   2.36796   2.36804
  Beta virt. eigenvalues --    2.47484   2.66266   2.66295   2.79700   2.79711
  Beta virt. eigenvalues --    2.92189   3.16470   3.39740   3.39743   3.50822
  Beta virt. eigenvalues --    3.50834   3.55506   4.22303   4.22309   6.33851
  Beta virt. eigenvalues --    6.33853   6.35567   6.41105   6.41105   6.42218
  Beta virt. eigenvalues --    6.47395   6.85347   6.85394   9.07640   9.08849
  Beta virt. eigenvalues --    9.08855   9.09914   9.19060   9.19064   9.20487
  Beta virt. eigenvalues --    9.25373   9.25374   9.44776   9.61820   9.61821
  Beta virt. eigenvalues --    9.65493   9.82257   9.82261  24.02333  66.87624
  Beta virt. eigenvalues --   66.87632  66.94486
          Condensed to atoms (all electrons):
               1          2          3          4
     1  C    4.883450   0.120440   0.120443   0.120419
     2  F    0.120440   9.094296   0.018526   0.018555
     3  F    0.120443   0.018526   9.094166   0.018588
     4  F    0.120419   0.018555   0.018588   9.094145
          Atomic-Atomic Spin Densities.
               1          2          3          4
     1  C    1.421418  -0.172771  -0.172811  -0.172852
     2  F   -0.172771   0.165875   0.019618   0.019620
     3  F   -0.172811   0.019618   0.165911   0.019620
     4  F   -0.172852   0.019620   0.019620   0.165949
 Mulliken charges and spin densities:
               1          2
     1  C    0.755247   0.902983
     2  F   -0.251817   0.032342
     3  F   -0.251724   0.032338
     4  F   -0.251706   0.032336
 Sum of Mulliken charges =  -0.00000   1.00000
 Mulliken charges and spin densities with hydrogens summed into heavy atoms:
               1          2
     1  C    0.755247   0.902983
     2  F   -0.251817   0.032342
     3  F   -0.251724   0.032338
     4  F   -0.251706   0.032336
 APT charges:
               1
     1  C    1.507586
     2  F   -0.502530
     3  F   -0.502521
     4  F   -0.502535
 Sum of APT charges =   0.00000
 APT charges with hydrogens summed into heavy atoms:
               1
     1  C    1.507586
     2  F   -0.502530
     3  F   -0.502521
     4  F   -0.502535
 Electronic spatial extent (au):  <R**2>=            200.1246
 Charge=             -0.0000 electrons
 Dipole moment (field-independent basis, Debye):
    X=              0.0009    Y=             -0.0011    Z=              0.2950  Tot=              0.2950
 Quadrupole moment (field-independent basis, Debye-Ang):
   XX=            -20.9491   YY=            -20.9492   ZZ=            -19.6941
   XY=              0.0006   XZ=             -0.0000   YZ=             -0.0001
 Traceless Quadrupole moment (field-independent basis, Debye-Ang):
   XX=             -0.4183   YY=             -0.4184   ZZ=              0.8367
   XY=              0.0006   XZ=             -0.0000   YZ=             -0.0001
 Octapole moment (field-independent basis, Debye-Ang**2):
  XXX=             -0.6967  YYY=              0.2983  ZZZ=             -2.8239  XYY=              0.6977
  XXY=             -0.3006  XXZ=             -0.6607  XZZ=              0.0001  YZZ=             -0.0003
  YYZ=             -0.6607  XYZ=             -0.0000
 Hexadecapole moment (field-independent basis, Debye-Ang**3):
 XXXX=            -82.2429 YYYY=            -82.2301 ZZZZ=            -19.7510 XXXY=              0.0013
 XXXZ=             -0.3231 YYYX=              0.0015 YYYZ=              0.1389 ZZZX=             -0.0005
 ZZZY=              0.0002 XXYY=            -27.4118 XXZZ=            -16.7104 YYZZ=            -16.7082
 XXYZ=             -0.1389 YYXZ=              0.3229 ZZXY=              0.0004
 N-N= 1.244101810273D+02 E-N=-1.052234588107D+03  KE= 3.367795725386D+02
  Exact polarizability:  17.265   0.001  17.267   0.000   0.001  13.451
 Approx polarizability:  17.550  -0.000  17.548   0.000  -0.000  13.242
                          Isotropic Fermi Contact Couplings
        Atom                 a.u.       MegaHertz       Gauss      10(-4) cm-1
     1  C(13)              0.63005     708.29263     252.73642     236.26099
     2  F(19)              0.09096     382.71645     136.56275     127.66047
     3  F(19)              0.09097     382.75019     136.57479     127.67172
     4  F(19)              0.09099     382.85036     136.61053     127.70513
 --------------------------------------------------------
       Center         ----  Spin Dipole Couplings  ----
                      3XX-RR        3YY-RR        3ZZ-RR
 --------------------------------------------------------
     1   Atom       -0.488331     -0.488345      0.976676
     2   Atom       -0.347771     -0.335467      0.683238
     3   Atom       -0.359297     -0.324175      0.683472
     4   Atom       -0.318000     -0.365526      0.683526
 --------------------------------------------------------
                        XY            XZ            YZ
 --------------------------------------------------------
     1   Atom        0.000003      0.000045      0.000035
     2   Atom       -0.023916      0.177092     -0.228481
     3   Atom        0.017288      0.109425      0.267172
     4   Atom        0.006611     -0.286219     -0.039061
 --------------------------------------------------------


 ---------------------------------------------------------------------------------
              Anisotropic Spin Dipole Couplings in Principal Axis System
 ---------------------------------------------------------------------------------

       Atom             a.u.   MegaHertz   Gauss  10(-4) cm-1        Axes

              Baa    -0.4883   -65.531   -23.383   -21.859 -0.2290  0.9734 -0.0000
     1 C(13)  Bbb    -0.4883   -65.529   -23.382   -21.858  0.9734  0.2290 -0.0000
              Bcc     0.9767   131.061    46.766    43.717  0.0000  0.0000  1.0000
 
              Baa    -0.3945  -198.110   -70.691   -66.082 -0.5915  0.7635  0.2591
     2 F(19)  Bbb    -0.3663  -183.972   -65.646   -61.366  0.7905  0.6124 -0.0001
              Bcc     0.7608   382.082   136.336   127.449  0.1587 -0.2048  0.9659
 
              Baa    -0.3944  -198.090   -70.683   -66.076  0.3660  0.8939 -0.2587
     3 F(19)  Bbb    -0.3664  -184.005   -65.658   -61.377  0.9254 -0.3789 -0.0000
              Bcc     0.7608   382.095   136.341   127.453  0.0981  0.2394  0.9660
 
              Baa    -0.3945  -198.130   -70.698   -66.089  0.9571  0.1306  0.2588
     4 F(19)  Bbb    -0.3664  -184.030   -65.666   -61.386 -0.1352  0.9908  0.0000
              Bcc     0.7609   382.160   136.364   127.475 -0.2565 -0.0350  0.9659
 

 ---------------------------------------------------------------------------------

 Calling FoFJK, ICntrl=    100127 FMM=F ISym2X=0 I1Cent= 0 IOpClX= 1 NMat=1 NMatS=1 NMatT=0.
 Full mass-weighted force constant matrix:
 Low frequencies ---   -3.5184   -0.0014   -0.0010   -0.0006   11.6452   14.1500
 Low frequencies ---  510.2631  510.4463  702.4281
 Diagonal vibrational polarizability:
        6.6271023       6.6325591       1.6449971
 Harmonic frequencies (cm**-1), IR intensities (KM/Mole), Raman scattering
 activities (A**4/AMU), depolarization ratios for plane and unpolarized
 incident light, reduced masses (AMU), force constants (mDyne/A),
 and normal coordinates:
                      1                      2                      3
                      A                      A                      A
 Frequencies --    510.2630               510.4463               702.4281
 Red. masses --     18.2765                18.2769                16.2773
 Frc consts  --      2.8037                 2.8058                 4.7319
 IR Inten    --      1.4308                 1.4307                12.9929
  Atom  AN      X      Y      Z        X      Y      Z        X      Y      Z
     1   6     0.11  -0.30   0.00     0.30   0.11  -0.00     0.00   0.00   0.62
     2   9     0.42  -0.25  -0.04    -0.37  -0.47  -0.01     0.26  -0.34  -0.13
     3   9    -0.51  -0.17   0.03    -0.29   0.47  -0.03     0.16   0.40  -0.13
     4   9     0.02   0.60   0.01     0.48  -0.07   0.04    -0.43  -0.06  -0.13
                      4                      5                      6
                      A                      A                      A
 Frequencies --   1090.4429              1258.2069              1258.9913
 Red. masses --     14.4519                13.3216                13.3214
 Frc consts  --     10.1247                12.4254                12.4407
 IR Inten    --     41.3733               381.3874               381.7098
  Atom  AN      X      Y      Z        X      Y      Z        X      Y      Z
     1   6     0.00  -0.00   0.81    -0.50   0.75   0.00     0.75   0.50   0.00
     2   9    -0.18   0.23  -0.17     0.20  -0.26   0.12    -0.05  -0.01  -0.01
     3   9    -0.11  -0.27  -0.17    -0.03  -0.19  -0.07    -0.13  -0.24  -0.10
     4   9     0.29   0.04  -0.17     0.15  -0.02  -0.05    -0.29  -0.06   0.11

 -------------------
 - Thermochemistry -
 -------------------
 Temperature   298.150 Kelvin.  Pressure   1.00000 Atm.
 Atom     1 has atomic number  6 and mass  12.00000
 Atom     2 has atomic number  9 and mass  18.99840
 Atom     3 has atomic number  9 and mass  18.99840
 Atom     4 has atomic number  9 and mass  18.99840
 Molecular mass:    68.99521 amu.
 Principal axes and moments of inertia in atomic units:
                           1         2         3
     Eigenvalues --   165.52038 165.55607 319.99031
           X            1.00000  -0.00000   0.00000
           Y            0.00000   1.00000  -0.00000
           Z           -0.00000   0.00000   1.00000
 This molecule is an asymmetric top.
 Rotational symmetry number  1.
 Rotational temperatures (Kelvin)      0.52328     0.52317     0.27068
 Rotational constants (GHZ):          10.90344    10.90109     5.63999
 Zero-point vibrational energy      31885.1 (Joules/Mol)
                                    7.62073 (Kcal/Mol)
 Warning -- explicit consideration of   2 degrees of freedom as
           vibrations may cause significant error
 Vibrational temperatures:    734.15   734.42  1010.64  1568.90  1810.28
          (Kelvin)           1811.41
 
 Zero-point correction=                           0.012144 (Hartree/Particle)
 Thermal correction to Energy=                    0.015574
 Thermal correction to Enthalpy=                  0.016518
 Thermal correction to Gibbs Free Energy=        -0.014543
 Sum of electronic and zero-point Energies=           -337.567870
 Sum of electronic and thermal Energies=              -337.564441
 Sum of electronic and thermal Enthalpies=            -337.563497
 Sum of electronic and thermal Free Energies=         -337.594558
 
                     E (Thermal)             CV                S
                      KCal/Mol        Cal/Mol-Kelvin    Cal/Mol-Kelvin
 Total                    9.773              9.868             65.375
 Electronic               0.000              0.000              1.377
 Translational            0.889              2.981             38.612
 Rotational               0.889              2.981             23.687
 Vibrational              7.995              3.906              1.698
 Vibration     1          0.865              1.227              0.633
 Vibration     2          0.866              1.227              0.633
                       Q            Log10(Q)             Ln(Q)
 Total Bot       0.489204D+07          6.689490         15.403119
 Total V=0       0.188592D+13         12.275524         28.265439
 Vib (Bot)       0.323940D-05         -5.489535        -12.640121
 Vib (Bot)    1  0.319149D+00         -0.496007         -1.142098
 Vib (Bot)    2  0.318982D+00         -0.496234         -1.142622
 Vib (V=0)       0.124882D+01          0.096500          0.222199
 Vib (V=0)    1  0.109317D+01          0.038690          0.089086
 Vib (V=0)    2  0.109308D+01          0.038654          0.089004
 Electronic      0.200000D+01          0.301030          0.693147
 Translational   0.225259D+08          7.352682         16.930177
 Rotational      0.335206D+05          4.525312         10.419917
 ***** Axes restored to original set *****
 -------------------------------------------------------------------
 Center     Atomic                   Forces (Hartrees/Bohr)
 Number     Number              X              Y              Z
 -------------------------------------------------------------------
      1        6           0.000116725    0.000129746   -0.000012172
      2        9          -0.000115865   -0.000203864    0.000036252
      3        9           0.000000355    0.000009750    0.000099962
      4        9          -0.000001215    0.000064368   -0.000124042
 -------------------------------------------------------------------
 Cartesian Forces:  Max     0.000203864 RMS     0.000098542
 FormGI is forming the generalized inverse of G from B-inverse, IUseBI=4.

 GradGradGradGradGradGradGradGradGradGradGradGradGradGradGradGradGradGrad
 Berny optimization.
 Internal  Forces:  Max     0.000235060 RMS     0.000116973
 Search for a local minimum.
 Step number   1 out of a maximum of    2
 All quantities printed in internal units (Hartrees-Bohrs-Radians)
 Second derivative matrix not updated -- analytic derivatives used.
 The second derivative matrix:
                          R1        R2        R3        A1        A2
           R1           0.42016
           R2           0.06385   0.42077
           R3           0.06379   0.06382   0.42066
           A1           0.01722   0.01725  -0.03039   0.13088
           A2           0.03217  -0.02671   0.03855  -0.09376   0.27155
           A3          -0.02668   0.03216   0.03859  -0.09371  -0.02712
           D1          -0.02668  -0.02667  -0.01806  -0.03081  -0.06057
                          A3        D1
           A3           0.27159
           D1          -0.06063   0.13128
 ITU=  0
     Eigenvalues ---    0.15298   0.26205   0.29764   0.39325   0.40149
     Eigenvalues ---    0.55948
 Angle between quadratic step and forces=  18.20 degrees.
 Linear search not attempted -- first point.
 Iteration  1 RMS(Cart)=  0.00024905 RMS(Int)=  0.00000002
 Iteration  2 RMS(Cart)=  0.00000002 RMS(Int)=  0.00000001
 Variable       Old X    -DE/DX   Delta X   Delta X   Delta X     New X
                                 (Linear)    (Quad)   (Total)
    R1        2.48492  -0.00024   0.00000  -0.00054  -0.00054   2.48438
    R2        2.48450  -0.00009   0.00000  -0.00010  -0.00010   2.48440
    R3        2.48455  -0.00013   0.00000  -0.00018  -0.00018   2.48438
    A1        1.94328   0.00006   0.00000   0.00021   0.00021   1.94349
    A2        1.94352  -0.00006   0.00000  -0.00010  -0.00010   1.94343
    A3        1.94369  -0.00008   0.00000  -0.00026  -0.00026   1.94344
    D1       -2.18042   0.00003   0.00000  -0.00001  -0.00001  -2.18043
         Item               Value     Threshold  Converged?
 Maximum Force            0.000235     0.000450     YES
 RMS     Force            0.000117     0.000300     YES
 Maximum Displacement     0.000348     0.001800     YES
 RMS     Displacement     0.000249     0.001200     YES
 Predicted change in Energy=-9.822363D-08
 Optimization completed.
    -- Stationary point found.
                           ----------------------------
                           !   Optimized Parameters   !
                           ! (Angstroms and Degrees)  !
 --------------------------                            --------------------------
 ! Name  Definition              Value          Derivative Info.                !
 --------------------------------------------------------------------------------
 ! R1    R(1,2)                  1.315          -DE/DX =   -0.0002              !
 ! R2    R(1,3)                  1.3147         -DE/DX =   -0.0001              !
 ! R3    R(1,4)                  1.3148         -DE/DX =   -0.0001              !
 ! A1    A(2,1,3)              111.3419         -DE/DX =    0.0001              !
 ! A2    A(2,1,4)              111.3557         -DE/DX =   -0.0001              !
 ! A3    A(3,1,4)              111.3655         -DE/DX =   -0.0001              !
 ! D1    D(2,1,4,3)           -124.9289         -DE/DX =    0.0                 !
 --------------------------------------------------------------------------------
 GradGradGradGradGradGradGradGradGradGradGradGradGradGradGradGradGradGrad


 ----------------------------------------------------------------------

 Electric dipole moment (input orientation):
 (Debye = 10**-18 statcoulomb cm , SI units = C m)
                  (au)            (Debye)         (10**-30 SI)
   Tot        0.116061D+00      0.294997D+00      0.984004D+00
   x         -0.111153D+00     -0.282524D+00     -0.942397D+00
   y          0.333922D-01      0.848744D-01      0.283111D+00
   z          0.340726D-04      0.866040D-04      0.288880D-03

 Dipole polarizability, Alpha (input orientation).
 (esu units = cm**3 , SI units = C**2 m**2 J**-1)
 Alpha(0;0):
               (au)            (10**-24 esu)      (10**-40 SI)
   iso        0.159942D+02      0.237009D+01      0.263708D+01
   aniso      0.381547D+01      0.565394D+00      0.629086D+00
   xx         0.137761D+02      0.204140D+01      0.227137D+01
   yx         0.106586D+01      0.157944D+00      0.175737D+00
   yy         0.169400D+02      0.251024D+01      0.279302D+01
   zx        -0.481976D-03     -0.714215D-04     -0.794672D-04
   zy         0.102287D-02      0.151574D-03      0.168649D-03
   zz         0.172664D+02      0.255862D+01      0.284685D+01

 ----------------------------------------------------------------------

 Dipole orientation:
     6          0.34767040          1.15335503         -3.63964262
     9          1.02846866          3.41946471         -4.39863688
     9         -1.95917127          0.60611347         -4.38243113
     9          1.97130446         -0.57491973         -4.38118503

 Electric dipole moment (dipole orientation):
 (Debye = 10**-18 statcoulomb cm , SI units = C m)
                  (au)            (Debye)         (10**-30 SI)
   Tot        0.116061D+00      0.294997D+00      0.984004D+00
   x          0.000000D+00      0.000000D+00      0.000000D+00
   y          0.000000D+00      0.000000D+00      0.000000D+00
   z          0.116061D+00      0.294997D+00      0.984004D+00

 Dipole polarizability, Alpha (dipole orientation).
 (esu units = cm**3 , SI units = C**2 m**2 J**-1)
 Alpha(0;0):
               (au)            (10**-24 esu)      (10**-40 SI)
   iso        0.159942D+02      0.237009D+01      0.263708D+01
   aniso      0.381547D+01      0.565394D+00      0.629086D+00
   xx         0.172668D+02      0.255868D+01      0.284691D+01
   yx         0.435511D-03      0.645361D-04      0.718060D-04
   yy         0.172651D+02      0.255842D+01      0.284662D+01
   zx        -0.326757D-02     -0.484204D-03     -0.538749D-03
   zy        -0.173977D-01     -0.257807D-02     -0.286849D-02
   zz         0.134506D+02      0.199317D+01      0.221770D+01

 ----------------------------------------------------------------------
 1\1\GINC-CCLEARCO\Freq\UwB97XD\6-311+G(2d)\C1F3(2)\RAPPE\18-Nov-2025\0
 \\#N Geom=AllCheck Guess=TCheck SCRF=Check GenChk UwB97XD/6-311+G(2d) 
 Freq\\Title Card Required\\0,2\C,2.0279819305,0.0563626494,0.000035100
 2\F,2.7728927564,1.1399821466,-0.0000704841\F,2.2232779397,-0.65862035
 05,-1.0858738608\F,2.2232193734,-0.6587394455,1.0859122446\\Version=EM
 64M-G16RevA.03\State=2-A\HF=-337.5800148\S2=0.751967\S2-1=0.\S2A=0.750
 003\RMSD=1.075e-09\RMSF=9.854e-05\ZeroPoint=0.0121444\Thermal=0.015574
 1\Dipole=-0.1111533,0.0333922,0.0000341\DipoleDeriv=0.83658,0.3221599,
 0.0001582,0.3221111,1.7934389,0.0002184,0.0000838,0.0002666,1.8927404,
 -0.4320168,-0.5378421,-0.000033,-0.2430454,-0.8108056,-0.0000946,0.000
 0515,0.0001969,-0.2647688,-0.2022976,0.1078685,0.2097764,-0.039562,-0.
 4912487,-0.3959483,-0.034282,-0.3215109,-0.8140161,-0.2022656,0.107813
 7,-0.2099016,-0.0395037,-0.4913846,0.3958245,0.0341466,0.3210475,-0.81
 39555\Polar=13.7760807,1.0658611,16.9399574,-0.000482,0.0010229,17.266
 4289\Quadrupole=0.5423596,-0.2318012,-0.3105584,-0.2608877,0.0000741,0
 .0000402\PG=C01 [X(C1F3)]\NImag=0\\0.37058450,0.04953391,0.51825068,-0
 .00010594,-0.00002271,0.53399066,-0.19182981,-0.14096321,0.00007540,0.
 14376771,-0.12801070,-0.21290726,0.00005359,0.17057178,0.31624346,0.00
 005227,-0.00000113,-0.06919267,-0.00003812,-0.00002836,0.07622112,-0.0
 8940426,0.04566974,0.06552772,0.02403938,-0.02129912,-0.02547248,0.045
 06878,0.03919983,-0.15269128,-0.11848715,-0.01481769,-0.05170055,-0.04
 029308,-0.01261784,0.17457696,0.05479939,-0.11521472,-0.23244222,-0.02
 127991,-0.03929710,-0.00350125,-0.03678163,0.15666423,0.31712378,-0.08
 935043,0.04575957,-0.06549718,0.02402273,-0.02126196,0.02545834,0.0202
 9610,-0.01176430,0.00326215,0.04503161,0.03927697,-0.15265214,0.118456
 27,-0.01479088,-0.05163565,0.04032257,-0.01175278,0.02981487,-0.002152
 41,-0.01273331,0.17447292,-0.05474572,0.11523857,-0.23235578,0.0212426
 4,0.03927186,-0.00352720,-0.00327360,0.00211600,-0.08118031,0.03677669
 ,-0.15662643,0.31706330\\-0.00011673,-0.00012975,0.00001217,0.00011587
 ,0.00020386,-0.00003625,-0.00000035,-0.00000975,-0.00009996,0.00000122
 ,-0.00006437,0.00012404\\\@


 The hours that make us happy make us wise.
                         -- John Masefield
 Job cpu time:       0 days  0 hours  9 minutes  1.2 seconds.
 Elapsed time:       0 days  0 hours  0 minutes 23.1 seconds.
 File lengths (MBytes):  RWF=     16 Int=      0 D2E=      0 Chk=      2 Scr=      1
 Normal termination of Gaussian 16 at Tue Nov 18 05:53:03 2025.
