 Entering Gaussian System, Link 0=g16
 Initial command:
 /usr/local/src/g16/l1.exe "/home/rappe/Gau-25361.inp" -scrdir="/home/rappe/"
 Entering Link 1 = /usr/local/src/g16/l1.exe PID=     25362.
  
 Copyright (c) 1988,1990,1992,1993,1995,1998,2003,2009,2016,
            Gaussian, Inc.  All Rights Reserved.
  
 This is part of the Gaussian(R) 16 program.  It is based on
 the Gaussian(R) 09 system (copyright 2009, Gaussian, Inc.),
 the Gaussian(R) 03 system (copyright 2003, Gaussian, Inc.),
 the Gaussian(R) 98 system (copyright 1998, Gaussian, Inc.),
 the Gaussian(R) 94 system (copyright 1995, Gaussian, Inc.),
 the Gaussian 92(TM) system (copyright 1992, Gaussian, Inc.),
 the Gaussian 90(TM) system (copyright 1990, Gaussian, Inc.),
 the Gaussian 88(TM) system (copyright 1988, Gaussian, Inc.),
 the Gaussian 86(TM) system (copyright 1986, Carnegie Mellon
 University), and the Gaussian 82(TM) system (copyright 1983,
 Carnegie Mellon University). Gaussian is a federally registered
 trademark of Gaussian, Inc.
  
 This software contains proprietary and confidential information,
 including trade secrets, belonging to Gaussian, Inc.
  
 This software is provided under written license and may be
 used, copied, transmitted, or stored only in accord with that
 written license.
  
 The following legend is applicable only to US Government
 contracts under FAR:
  
                    RESTRICTED RIGHTS LEGEND
  
 Use, reproduction and disclosure by the US Government is
 subject to restrictions as set forth in subparagraphs (a)
 and (c) of the Commercial Computer Software - Restricted
 Rights clause in FAR 52.227-19.
  
 Gaussian, Inc.
 340 Quinnipiac St., Bldg. 40, Wallingford CT 06492
  
  
 ---------------------------------------------------------------
 Warning -- This program may not be used in any manner that
 competes with the business of Gaussian, Inc. or will provide
 assistance to any competitor of Gaussian, Inc.  The licensee
 of this program is prohibited from giving any competitor of
 Gaussian, Inc. access to this program.  By using this program,
 the user acknowledges that Gaussian, Inc. is engaged in the
 business of creating and licensing software in the field of
 computational chemistry and represents and warrants to the
 licensee that it is not a competitor of Gaussian, Inc. and that
 it will not use this program in any manner prohibited above.
 ---------------------------------------------------------------
  

 Cite this work as:
 Gaussian 16, Revision A.03,
 M. J. Frisch, G. W. Trucks, H. B. Schlegel, G. E. Scuseria, 
 M. A. Robb, J. R. Cheeseman, G. Scalmani, V. Barone, 
 G. A. Petersson, H. Nakatsuji, X. Li, M. Caricato, A. V. Marenich, 
 J. Bloino, B. G. Janesko, R. Gomperts, B. Mennucci, H. P. Hratchian, 
 J. V. Ortiz, A. F. Izmaylov, J. L. Sonnenberg, D. Williams-Young, 
 F. Ding, F. Lipparini, F. Egidi, J. Goings, B. Peng, A. Petrone, 
 T. Henderson, D. Ranasinghe, V. G. Zakrzewski, J. Gao, N. Rega, 
 G. Zheng, W. Liang, M. Hada, M. Ehara, K. Toyota, R. Fukuda, 
 J. Hasegawa, M. Ishida, T. Nakajima, Y. Honda, O. Kitao, H. Nakai, 
 T. Vreven, K. Throssell, J. A. Montgomery, Jr., J. E. Peralta, 
 F. Ogliaro, M. J. Bearpark, J. J. Heyd, E. N. Brothers, K. N. Kudin, 
 V. N. Staroverov, T. A. Keith, R. Kobayashi, J. Normand, 
 K. Raghavachari, A. P. Rendell, J. C. Burant, S. S. Iyengar, 
 J. Tomasi, M. Cossi, J. M. Millam, M. Klene, C. Adamo, R. Cammi, 
 J. W. Ochterski, R. L. Martin, K. Morokuma, O. Farkas, 
 J. B. Foresman, and D. J. Fox, Gaussian, Inc., Wallingford CT, 2016.
 
 ******************************************
 Gaussian 16:  ES64L-G16RevA.03 25-Dec-2016
                24-Sep-2024 
 ******************************************
 %mem=220GB
 %nprocshared=56
 Will use up to   56 processors via shared memory.
 %chk=cf3co.chk
 ----------------------------------------------------------------------
 # opt=(calcall,maxstep=5) uwb97xd/6-311+g(2d,2p) geom=connectivity scf
 =xqc integral=grid=superfinegrid scf=(xqc,tight)
 ----------------------------------------------------------------------
 1/8=5,10=4,18=20,19=15,26=5,38=1,57=2/1,3;
 2/9=110,12=2,17=6,18=5,40=1/2;
 3/5=4,6=6,7=212,11=2,25=1,30=1,71=2,74=-58,75=-7,116=2,140=1/1,2,3;
 4//1;
 5/5=2,32=2,38=5/2;
 8/6=4,10=90,11=11/1;
 11/6=1,8=1,9=11,15=111,16=1/1,2,10;
 10/6=1/2;
 6/7=2,8=2,9=2,10=2,18=1,28=1/1;
 7/10=1,25=1/1,2,3,16;
 1/8=5,10=4,18=20,19=15,26=5/3(3);
 2/9=110/2;
 7/8=1,9=1,25=1,44=-1/16;
 99//99;
 2/9=110/2;
 3/5=4,6=6,7=212,11=2,25=1,30=1,71=2,74=-58,75=-7,116=2,140=1/1,2,3;
 4/5=5,16=3,69=1/1;
 5/5=2,32=2,38=5/2;
 8/6=4,10=90,11=11/1;
 11/6=1,8=1,9=11,15=111,16=1/1,2,10;
 10/6=1/2;
 7/10=1,25=1/1,2,3,16;
 1/8=5,10=4,18=20,19=15,26=5/3(-8);
 2/9=110/2;
 6/7=2,8=2,9=2,10=2,18=1,19=2,28=1/1;
 7/8=1,9=1,25=1,44=-1/16;
 99//99;
 -------------------
 Title Card Required
 -------------------
 Symbolic Z-matrix:
 Charge =  0 Multiplicity = 2
 C                     0.35464  -0.018     0.00075 
 F                     0.98724  -0.4725   -1.07406 
 F                     0.98987  -0.42825   1.09072 
 F                     0.36201   1.30831  -0.02642 
 C                    -1.09457  -0.61159   0.01425 
 O                    -2.07656   0.01369  -0.00026 
 

 GradGradGradGradGradGradGradGradGradGradGradGradGradGradGradGradGradGrad
 Berny optimization.
 Initialization pass.
                           ----------------------------
                           !    Initial Parameters    !
                           ! (Angstroms and Degrees)  !
 --------------------------                            --------------------------
 ! Name  Definition              Value          Derivative Info.                !
 --------------------------------------------------------------------------------
 ! R1    R(1,2)                  1.3274         calculate D2E/DX2 analytically  !
 ! R2    R(1,3)                  1.3266         calculate D2E/DX2 analytically  !
 ! R3    R(1,4)                  1.3266         calculate D2E/DX2 analytically  !
 ! R4    R(1,5)                  1.5661         calculate D2E/DX2 analytically  !
 ! R5    R(5,6)                  1.1643         calculate D2E/DX2 analytically  !
 ! A1    A(2,1,3)              109.3412         calculate D2E/DX2 analytically  !
 ! A2    A(2,1,4)              108.8497         calculate D2E/DX2 analytically  !
 ! A3    A(2,1,5)              108.5545         calculate D2E/DX2 analytically  !
 ! A4    A(3,1,4)              108.8652         calculate D2E/DX2 analytically  !
 ! A5    A(3,1,5)              108.5907         calculate D2E/DX2 analytically  !
 ! A6    A(4,1,5)              112.5974         calculate D2E/DX2 analytically  !
 ! A7    A(1,5,6)              125.2273         calculate D2E/DX2 analytically  !
 ! D1    D(2,1,5,6)           -120.4294         calculate D2E/DX2 analytically  !
 ! D2    D(3,1,5,6)            120.7882         calculate D2E/DX2 analytically  !
 ! D3    D(4,1,5,6)              0.1573         calculate D2E/DX2 analytically  !
 --------------------------------------------------------------------------------
 Trust Radius=5.00D-02 FncErr=1.00D-07 GrdErr=1.00D-07 EigMax=2.50D+02 EigMin=1.00D-04
 Number of steps in this run=     25 maximum allowed number of steps=    100.
 GradGradGradGradGradGradGradGradGradGradGradGradGradGradGradGradGradGrad

                          Input orientation:                          
 ---------------------------------------------------------------------
 Center     Atomic      Atomic             Coordinates (Angstroms)
 Number     Number       Type             X           Y           Z
 ---------------------------------------------------------------------
      1          6           0        0.354636   -0.018003    0.000746
      2          9           0        0.987242   -0.472495   -1.074064
      3          9           0        0.989873   -0.428251    1.090718
      4          9           0        0.362009    1.308308   -0.026422
      5          6           0       -1.094568   -0.611592    0.014248
      6          8           0       -2.076565    0.013689   -0.000257
 ---------------------------------------------------------------------
                    Distance matrix (angstroms):
                    1          2          3          4          5
     1  C    0.000000
     2  F    1.327392   0.000000
     3  F    1.326600   2.165236   0.000000
     4  F    1.326610   2.158641   2.158206   0.000000
     5  C    1.566117   2.353233   2.353146   2.410246   0.000000
     6  O    2.431408   3.282735   3.284597   2.761044   1.164261
                    6
     6  O    0.000000
 Stoichiometry    C2F3O(2)
 Framework group  C1[X(C2F3O)]
 Deg. of freedom    12
 Full point group                 C1      NOp   1
 Largest Abelian subgroup         C1      NOp   1
 Largest concise Abelian subgroup C1      NOp   1
                         Standard orientation:                         
 ---------------------------------------------------------------------
 Center     Atomic      Atomic             Coordinates (Angstroms)
 Number     Number       Type             X           Y           Z
 ---------------------------------------------------------------------
      1          6           0        0.354636   -0.018003    0.000746
      2          9           0        0.987242   -0.472495   -1.074064
      3          9           0        0.989873   -0.428251    1.090718
      4          9           0        0.362009    1.308308   -0.026422
      5          6           0       -1.094568   -0.611592    0.014248
      6          8           0       -2.076565    0.013689   -0.000257
 ---------------------------------------------------------------------
 Rotational constants (GHZ):           5.6612151           2.9911190           2.9875434
 Standard basis: 6-311+G(2d,2p) (5D, 7F)
 There are   174 symmetry adapted cartesian basis functions of A   symmetry.
 There are   162 symmetry adapted basis functions of A   symmetry.
   162 basis functions,   252 primitive gaussians,   174 cartesian basis functions
    24 alpha electrons       23 beta electrons
       nuclear repulsion energy       241.6977317944 Hartrees.
 NAtoms=    6 NActive=    6 NUniq=    6 SFac= 1.00D+00 NAtFMM=   60 NAOKFM=F Big=F
 Integral buffers will be    131072 words long.
 Raffenetti 2 integral format.
 Two-electron integral symmetry is turned on.
 Nuclear repulsion after empirical dispersion term =      241.6968224405 Hartrees.
 One-electron integrals computed using PRISM.
 NBasis=   162 RedAO= T EigKep=  1.82D-04  NBF=   162
 NBsUse=   162 1.00D-06 EigRej= -1.00D+00 NBFU=   162
 ExpMin= 4.38D-02 ExpMax= 1.14D+04 ExpMxC= 1.72D+03 IAcc=3 IRadAn=         7 AccDes= 0.00D+00
 Harris functional with IExCor= 4639 and IRadAn=       7 diagonalized for initial guess.
 HarFok:  IExCor= 4639 AccDes= 0.00D+00 IRadAn=         7 IDoV= 1 UseB2=F ITyADJ=14
 ICtDFT=  3500011 ScaDFX=  1.000000  1.000000  1.000000  1.000000
 FoFCou: FMM=F IPFlag=           0 FMFlag=      100000 FMFlg1=           0
         NFxFlg=           0 DoJE=T BraDBF=F KetDBF=T FulRan=T
         wScrn=  0.000000 ICntrl=       500 IOpCl=  0 I1Cent=   200000004 NGrid=           0
         NMat0=    1 NMatS0=      1 NMatT0=    0 NMatD0=    1 NMtDS0=    0 NMtDT0=    0
 Petite list used in FoFCou.
 Initial guess <Sx>= 0.0000 <Sy>= 0.0000 <Sz>= 0.5000 <S**2>= 0.7500 S= 0.5000
 Keep R1 and R2 ints in memory in canonical form, NReq=404874082.
 Requested convergence on RMS density matrix=1.00D-08 within 128 cycles.
 Requested convergence on MAX density matrix=1.00D-06.
 Requested convergence on             energy=1.00D-06.
 No special actions if energy rises.
 SCF Done:  E(UwB97XD) =  -450.906879595     A.U. after   16 cycles
            NFock= 16  Conv=0.63D-08     -V/T= 2.0025
 <Sx>= 0.0000 <Sy>= 0.0000 <Sz>= 0.5000 <S**2>= 0.7537 S= 0.5019
 <L.S>= 0.000000000000E+00
 Annihilation of the first spin contaminant:
 S**2 before annihilation     0.7537,   after     0.7500
 DoSCS=F DFT=T ScalE2(SS,OS)=  1.000000  1.000000
 Range of M.O.s used for correlation:     1   162
 NBasis=   162 NAE=    24 NBE=    23 NFC=     0 NFV=     0
 NROrb=    162 NOA=    24 NOB=    23 NVA=   138 NVB=   139

 **** Warning!!: The largest alpha MO coefficient is  0.28935861D+02


 **** Warning!!: The largest beta MO coefficient is  0.27394810D+02

 Symmetrizing basis deriv contribution to polar:
 IMax=3 JMax=2 DiffMx= 0.00D+00
 G2DrvN: will do     7 centers at a time, making    1 passes.
 Calling FoFCou, ICntrl=  3107 FMM=F I1Cent=   0 AccDes= 0.00D+00.
 End of G2Drv F.D. properties file   721 does not exist.
 End of G2Drv F.D. properties file   722 does not exist.
 End of G2Drv F.D. properties file   788 does not exist.
          IDoAtm=111111
          Differentiating once with respect to electric field.
                with respect to dipole field.
          Differentiating once with respect to nuclear coordinates.
 Keep R1 and R2 ints in memory in canonical form, NReq=404521208.
          There are    21 degrees of freedom in the 1st order CPHF.  IDoFFX=6 NUNeed=     3.
     18 vectors produced by pass  0 Test12= 3.10D-14 4.76D-09 XBig12= 2.35D+01 1.73D+00.
 AX will form    18 AO Fock derivatives at one time.
     18 vectors produced by pass  1 Test12= 3.10D-14 4.76D-09 XBig12= 5.91D+00 4.53D-01.
     18 vectors produced by pass  2 Test12= 3.10D-14 4.76D-09 XBig12= 5.84D-01 2.28D-01.
     18 vectors produced by pass  3 Test12= 3.10D-14 4.76D-09 XBig12= 2.03D-02 3.13D-02.
     18 vectors produced by pass  4 Test12= 3.10D-14 4.76D-09 XBig12= 5.23D-04 4.85D-03.
     18 vectors produced by pass  5 Test12= 3.10D-14 4.76D-09 XBig12= 7.53D-06 5.76D-04.
     18 vectors produced by pass  6 Test12= 3.10D-14 4.76D-09 XBig12= 8.05D-08 5.39D-05.
     18 vectors produced by pass  7 Test12= 3.10D-14 4.76D-09 XBig12= 7.95D-10 4.96D-06.
      7 vectors produced by pass  8 Test12= 3.10D-14 4.76D-09 XBig12= 8.11D-12 4.71D-07.
      3 vectors produced by pass  9 Test12= 3.10D-14 4.76D-09 XBig12= 6.34D-14 4.12D-08.
      1 vectors produced by pass 10 Test12= 3.10D-14 4.76D-09 XBig12= 3.95D-16 4.97D-09.
 InvSVY:  IOpt=1 It=  1 EMax= 3.55D-15
 Solved reduced A of dimension   155 with    21 vectors.
 Isotropic polarizability for W=    0.000000       28.83 Bohr**3.
 End of Minotr F.D. properties file   721 does not exist.
 End of Minotr F.D. properties file   722 does not exist.
 End of Minotr F.D. properties file   788 does not exist.

 **********************************************************************

            Population analysis using the SCF density.

 **********************************************************************

 Orbital symmetries:
 Alpha Orbitals:
       Occupied  (A) (A) (A) (A) (A) (A) (A) (A) (A) (A) (A) (A)
                 (A) (A) (A) (A) (A) (A) (A) (A) (A) (A) (A) (A)
       Virtual   (A) (A) (A) (A) (A) (A) (A) (A) (A) (A) (A) (A)
                 (A) (A) (A) (A) (A) (A) (A) (A) (A) (A) (A) (A)
                 (A) (A) (A) (A) (A) (A) (A) (A) (A) (A) (A) (A)
                 (A) (A) (A) (A) (A) (A) (A) (A) (A) (A) (A) (A)
                 (A) (A) (A) (A) (A) (A) (A) (A) (A) (A) (A) (A)
                 (A) (A) (A) (A) (A) (A) (A) (A) (A) (A) (A) (A)
                 (A) (A) (A) (A) (A) (A) (A) (A) (A) (A) (A) (A)
                 (A) (A) (A) (A) (A) (A) (A) (A) (A) (A) (A) (A)
                 (A) (A) (A) (A) (A) (A) (A) (A) (A) (A) (A) (A)
                 (A) (A) (A) (A) (A) (A) (A) (A) (A) (A) (A) (A)
                 (A) (A) (A) (A) (A) (A) (A) (A) (A) (A) (A) (A)
                 (A) (A) (A) (A) (A) (A)
 Beta  Orbitals:
       Occupied  (A) (A) (A) (A) (A) (A) (A) (A) (A) (A) (A) (A)
                 (A) (A) (A) (A) (A) (A) (A) (A) (A) (A) (A)
       Virtual   (A) (A) (A) (A) (A) (A) (A) (A) (A) (A) (A) (A)
                 (A) (A) (A) (A) (A) (A) (A) (A) (A) (A) (A) (A)
                 (A) (A) (A) (A) (A) (A) (A) (A) (A) (A) (A) (A)
                 (A) (A) (A) (A) (A) (A) (A) (A) (A) (A) (A) (A)
                 (A) (A) (A) (A) (A) (A) (A) (A) (A) (A) (A) (A)
                 (A) (A) (A) (A) (A) (A) (A) (A) (A) (A) (A) (A)
                 (A) (A) (A) (A) (A) (A) (A) (A) (A) (A) (A) (A)
                 (A) (A) (A) (A) (A) (A) (A) (A) (A) (A) (A) (A)
                 (A) (A) (A) (A) (A) (A) (A) (A) (A) (A) (A) (A)
                 (A) (A) (A) (A) (A) (A) (A) (A) (A) (A) (A) (A)
                 (A) (A) (A) (A) (A) (A) (A) (A) (A) (A) (A) (A)
                 (A) (A) (A) (A) (A) (A) (A)
 The electronic state is 2-A.
 Alpha  occ. eigenvalues --  -24.88072 -24.88051 -24.87904 -19.35010 -10.58848
 Alpha  occ. eigenvalues --  -10.43063  -1.46994  -1.37781  -1.37638  -1.26032
 Alpha  occ. eigenvalues --   -0.88350  -0.77561  -0.73388  -0.73323  -0.65779
 Alpha  occ. eigenvalues --   -0.60541  -0.60238  -0.58358  -0.57630  -0.55918
 Alpha  occ. eigenvalues --   -0.55029  -0.53987  -0.53912  -0.34108
 Alpha virt. eigenvalues --   -0.00963   0.07352   0.09278   0.09901   0.10650
 Alpha virt. eigenvalues --    0.13287   0.13303   0.14249   0.19155   0.20870
 Alpha virt. eigenvalues --    0.24180   0.24463   0.26609   0.26840   0.27866
 Alpha virt. eigenvalues --    0.31326   0.32273   0.33185   0.34085   0.34985
 Alpha virt. eigenvalues --    0.37473   0.39451   0.39563   0.39722   0.41210
 Alpha virt. eigenvalues --    0.41884   0.44829   0.47909   0.49139   0.53325
 Alpha virt. eigenvalues --    0.58503   0.62001   0.66540   0.68281   0.70003
 Alpha virt. eigenvalues --    0.75724   0.79064   0.81593   0.87662   0.90580
 Alpha virt. eigenvalues --    0.99580   1.05739   1.09392   1.11954   1.13069
 Alpha virt. eigenvalues --    1.16727   1.19875   1.24277   1.26569   1.36177
 Alpha virt. eigenvalues --    1.36231   1.37672   1.40762   1.43049   1.43513
 Alpha virt. eigenvalues --    1.44852   1.50054   1.52241   1.54090   1.56765
 Alpha virt. eigenvalues --    1.61087   1.68084   1.73235   1.94075   1.96815
 Alpha virt. eigenvalues --    2.00945   2.04213   2.04736   2.04873   2.06605
 Alpha virt. eigenvalues --    2.12604   2.17204   2.17729   2.20979   2.27006
 Alpha virt. eigenvalues --    2.38756   2.50477   2.56667   2.62322   2.65332
 Alpha virt. eigenvalues --    2.71136   2.77452   2.80971   2.87625   3.11964
 Alpha virt. eigenvalues --    3.14659   3.24601   3.35502   3.39129   3.43758
 Alpha virt. eigenvalues --    3.44304   3.48982   3.52266   3.53462   3.57285
 Alpha virt. eigenvalues --    3.60589   3.80951   4.25289   4.25729   4.28183
 Alpha virt. eigenvalues --    5.07216   5.14122   6.02502   6.37278   6.40156
 Alpha virt. eigenvalues --    6.41730   6.42924   6.44338   6.44653   6.50571
 Alpha virt. eigenvalues --    6.77045   6.79952   6.84228   6.85271   7.04959
 Alpha virt. eigenvalues --    7.11379   7.22345   9.06806   9.08742   9.09339
 Alpha virt. eigenvalues --    9.19579   9.21037   9.21097   9.22272   9.30584
 Alpha virt. eigenvalues --    9.34221   9.47581   9.65688   9.69322   9.69471
 Alpha virt. eigenvalues --    9.84585   9.85649  23.95053  24.05505  49.98233
 Alpha virt. eigenvalues --   66.91263  66.92396  66.96423
  Beta  occ. eigenvalues --  -24.88074 -24.88052 -24.87801 -19.34283 -10.58424
  Beta  occ. eigenvalues --  -10.42238  -1.46807  -1.37752  -1.37435  -1.24388
  Beta  occ. eigenvalues --   -0.86848  -0.76451  -0.73175  -0.72918  -0.63922
  Beta  occ. eigenvalues --   -0.60174  -0.60014  -0.57266  -0.56696  -0.54502
  Beta  occ. eigenvalues --   -0.54174  -0.53934  -0.50374
  Beta virt. eigenvalues --   -0.05135   0.00653   0.07841   0.09495   0.10739
  Beta virt. eigenvalues --    0.11160   0.13674   0.13969   0.14738   0.19584
  Beta virt. eigenvalues --    0.21888   0.25001   0.25122   0.26852   0.27156
  Beta virt. eigenvalues --    0.29556   0.31933   0.32682   0.33948   0.34444
  Beta virt. eigenvalues --    0.35331   0.37530   0.39492   0.39668   0.39806
  Beta virt. eigenvalues --    0.41459   0.42074   0.44972   0.47913   0.49807
  Beta virt. eigenvalues --    0.54019   0.60010   0.62394   0.67221   0.69342
  Beta virt. eigenvalues --    0.70382   0.76284   0.80868   0.81926   0.88592
  Beta virt. eigenvalues --    0.91666   0.99930   1.06207   1.09798   1.12986
  Beta virt. eigenvalues --    1.14173   1.17103   1.20326   1.24516   1.27183
  Beta virt. eigenvalues --    1.36369   1.36972   1.37836   1.40874   1.43557
  Beta virt. eigenvalues --    1.44053   1.44885   1.50611   1.52483   1.54136
  Beta virt. eigenvalues --    1.57258   1.61829   1.69288   1.74619   1.94217
  Beta virt. eigenvalues --    1.97132   2.01016   2.04249   2.04927   2.05222
  Beta virt. eigenvalues --    2.06802   2.12846   2.17506   2.17949   2.21004
  Beta virt. eigenvalues --    2.28105   2.39180   2.51041   2.57581   2.62783
  Beta virt. eigenvalues --    2.65825   2.71540   2.79153   2.81587   2.88309
  Beta virt. eigenvalues --    3.12870   3.15501   3.26772   3.39438   3.42529
  Beta virt. eigenvalues --    3.45218   3.45500   3.50028   3.52819   3.54167
  Beta virt. eigenvalues --    3.59387   3.62291   3.83036   4.25838   4.26698
  Beta virt. eigenvalues --    4.29121   5.07825   5.17330   6.03602   6.37299
  Beta virt. eigenvalues --    6.40341   6.41766   6.43005   6.44389   6.44727
  Beta virt. eigenvalues --    6.50707   6.79363   6.82695   6.84560   6.85726
  Beta virt. eigenvalues --    7.05754   7.13974   7.23773   9.06920   9.08766
  Beta virt. eigenvalues --    9.09446   9.19694   9.21069   9.21258   9.22327
  Beta virt. eigenvalues --    9.30694   9.34331   9.47665   9.65750   9.69525
  Beta virt. eigenvalues --    9.69540   9.84606   9.85805  23.95919  24.06667
  Beta virt. eigenvalues --   49.98884  66.91262  66.92448  66.96448
          Condensed to atoms (all electrons):
               1          2          3          4          5          6
     1  C    4.546467   0.213170   0.213172   0.233594   0.079760  -0.035099
     2  F    0.213170   9.095351   0.000127   0.002026  -0.057932  -0.000509
     3  F    0.213172   0.000127   9.095255   0.002027  -0.058046  -0.000496
     4  F    0.233594   0.002026   0.002027   9.092060  -0.049467   0.008875
     5  C    0.079760  -0.057932  -0.058046  -0.049467   5.560715   0.335293
     6  O   -0.035099  -0.000509  -0.000496   0.008875   0.335293   7.837163
          Atomic-Atomic Spin Densities.
               1          2          3          4          5          6
     1  C    0.505370  -0.017075  -0.016985  -0.083082  -0.273442   0.000510
     2  F   -0.017075   0.000011   0.000248   0.003105   0.017242  -0.000479
     3  F   -0.016985   0.000248  -0.000067   0.003091   0.017215  -0.000485
     4  F   -0.083082   0.003105   0.003091   0.063780   0.023776   0.010369
     5  C   -0.273442   0.017242   0.017215   0.023776   1.018370  -0.179884
     6  O    0.000510  -0.000479  -0.000485   0.010369  -0.179884   0.404283
 Mulliken charges and spin densities:
               1          2
     1  C    0.748936   0.115297
     2  F   -0.252233   0.003053
     3  F   -0.252039   0.003018
     4  F   -0.289116   0.021040
     5  C    0.189677   0.623277
     6  O   -0.145226   0.234314
 Sum of Mulliken charges =  -0.00000   1.00000
 Mulliken charges and spin densities with hydrogens summed into heavy atoms:
               1          2
     1  C    0.748936   0.115297
     2  F   -0.252233   0.003053
     3  F   -0.252039   0.003018
     4  F   -0.289116   0.021040
     5  C    0.189677   0.623277
     6  O   -0.145226   0.234314
 APT charges:
               1
     1  C    1.713197
     2  F   -0.523885
     3  F   -0.523713
     4  F   -0.555704
     5  C    0.265627
     6  O   -0.375523
 Sum of APT charges =  -0.00000
 APT charges with hydrogens summed into heavy atoms:
               1
     1  C    1.713197
     2  F   -0.523885
     3  F   -0.523713
     4  F   -0.555704
     5  C    0.265627
     6  O   -0.375523
 Electronic spatial extent (au):  <R**2>=            442.1299
 Charge=              0.0000 electrons
 Dipole moment (field-independent basis, Debye):
    X=              0.2545    Y=             -0.3013    Z=              0.0108  Tot=              0.3946
 Quadrupole moment (field-independent basis, Debye-Ang):
   XX=            -34.0337   YY=            -32.0598   ZZ=            -30.8804
   XY=              0.4584   XZ=             -0.0082   YZ=              0.0254
 Traceless Quadrupole moment (field-independent basis, Debye-Ang):
   XX=             -1.7090   YY=              0.2648   ZZ=              1.4443
   XY=              0.4584   XZ=             -0.0082   YZ=              0.0254
 Octapole moment (field-independent basis, Debye-Ang**2):
  XXX=             17.8472  YYY=              4.8776  ZZZ=             -0.1196  XYY=              3.6888
  XXY=              1.6170  XXZ=             -0.0358  XZZ=              1.4254  YZZ=              1.9184
  YYZ=             -0.0293  XYZ=             -0.0509
 Hexadecapole moment (field-independent basis, Debye-Ang**3):
 XXXX=           -280.5234 YYYY=           -101.8675 ZZZZ=            -90.9184 XXXY=             -3.8705
 XXXZ=              0.0953 YYYX=             -6.4475 YYYZ=              0.1377 ZZZX=              0.0954
 ZZZY=              0.0955 XXYY=            -61.0970 XXZZ=            -58.3958 YYZZ=            -31.8392
 XXYZ=              0.0586 YYXZ=              0.0904 ZZXY=             -1.2734
 N-N= 2.416968224405D+02 E-N=-1.552646947835D+03  KE= 4.497701667478D+02
  Exact polarizability:  33.543  -1.597  28.200   0.035  -0.078  24.750
 Approx polarizability:  34.800  -4.460  30.522   0.100  -0.075  27.218
                          Isotropic Fermi Contact Couplings
        Atom                 a.u.       MegaHertz       Gauss      10(-4) cm-1
     1  C(13)              0.21082     236.99966      84.56737      79.05458
     2  F(19)             -0.00165      -6.93875      -2.47592      -2.31452
     3  F(19)             -0.00170      -7.15546      -2.55325      -2.38680
     4  F(19)              0.02147      90.33421      32.23349      30.13225
     5  C(13)              0.37428     420.76672     150.14003     140.35267
     6  O(17)              0.06240     -37.82741     -13.49776     -12.61787
 --------------------------------------------------------
       Center         ----  Spin Dipole Couplings  ----
                      3XX-RR        3YY-RR        3ZZ-RR
 --------------------------------------------------------
     1   Atom        0.257729     -0.124087     -0.133642
     2   Atom        0.037867     -0.011354     -0.026513
     3   Atom        0.037504     -0.011074     -0.026431
     4   Atom        0.059910      0.063112     -0.123022
     5   Atom       -0.335570      0.621411     -0.285841
     6   Atom       -0.409457      1.180328     -0.770872
 --------------------------------------------------------
                        XY            XZ            YZ
 --------------------------------------------------------
     1   Atom        0.084992     -0.002033     -0.000265
     2   Atom       -0.017768      0.007245     -0.002123
     3   Atom       -0.017907     -0.006844      0.001582
     4   Atom        0.194145     -0.004174     -0.004037
     5   Atom        0.007064     -0.000169     -0.020720
     6   Atom        0.660679     -0.015064     -0.044565
 --------------------------------------------------------


 ---------------------------------------------------------------------------------
              Anisotropic Spin Dipole Couplings in Principal Axis System
 ---------------------------------------------------------------------------------

       Atom             a.u.   MegaHertz   Gauss  10(-4) cm-1        Axes

              Baa    -0.1422   -19.076    -6.807    -6.363 -0.2080  0.9779 -0.0193
     1 C(13)  Bbb    -0.1336   -17.934    -6.399    -5.982  0.0009  0.0199  0.9998
              Bcc     0.2758    37.010    13.206    12.345  0.9781  0.2079 -0.0050
 
              Baa    -0.0273   -13.721    -4.896    -4.577 -0.1069  0.0133  0.9942
     2 F(19)  Bbb    -0.0171    -8.585    -3.063    -2.864  0.3051  0.9521  0.0201
              Bcc     0.0444    22.306     7.959     7.440  0.9463 -0.3055  0.1058
 
              Baa    -0.0272   -13.642    -4.868    -4.551  0.1129  0.0280  0.9932
     3 F(19)  Bbb    -0.0169    -8.499    -3.033    -2.835  0.3050  0.9504 -0.0614
              Bcc     0.0441    22.141     7.901     7.385  0.9457 -0.3098 -0.0987
 
              Baa    -0.1326   -66.616   -23.770   -22.221  0.7101 -0.7040  0.0126
     4 F(19)  Bbb    -0.1231   -61.829   -22.062   -20.624  0.0018  0.0198  0.9998
              Bcc     0.2558   128.445    45.832    42.845  0.7041  0.7099 -0.0153
 
              Baa    -0.3356   -45.037   -16.070   -15.023  1.0000 -0.0074  0.0003
     5 C(13)  Bbb    -0.2863   -38.421   -13.709   -12.816 -0.0002  0.0228  0.9997
              Bcc     0.6219    83.458    29.780    27.839  0.0074  0.9997 -0.0228
 
              Baa    -0.7719    55.853    19.930    18.631 -0.0001  0.0229  0.9997
     6 O(17)  Bbb    -0.6482    46.901    16.735    15.644  0.9405 -0.3396  0.0079
              Bcc     1.4201  -102.754   -36.665   -34.275  0.3397  0.9403 -0.0215
 

 ---------------------------------------------------------------------------------

 Calling FoFJK, ICntrl=    100127 FMM=F ISym2X=0 I1Cent= 0 IOpClX= 1 NMat=1 NMatS=1 NMatT=0.
 ***** Axes restored to original set *****
 -------------------------------------------------------------------
 Center     Atomic                   Forces (Hartrees/Bohr)
 Number     Number              X              Y              Z
 -------------------------------------------------------------------
      1        6           0.000074851   -0.000049143   -0.000370061
      2        9          -0.000145605    0.000061527    0.000247853
      3        9           0.000083608   -0.000084220    0.000131070
      4        9          -0.000042592    0.000074775   -0.000000325
      5        6           0.000031496   -0.000038153   -0.000011724
      6        8          -0.000001758    0.000035214    0.000003188
 -------------------------------------------------------------------
 Cartesian Forces:  Max     0.000370061 RMS     0.000123353
 FormGI is forming the generalized inverse of G from B-inverse, IUseBI=4.

 GradGradGradGradGradGradGradGradGradGradGradGradGradGradGradGradGradGrad
 Berny optimization.
 Internal  Forces:  Max     0.000291160 RMS     0.000095380
 Search for a local minimum.
 Step number   1 out of a maximum of   25
 All quantities printed in internal units (Hartrees-Bohrs-Radians)
 Mixed Optimization -- En-DIIS/RFO-DIIS
 Second derivative matrix not updated -- analytic derivatives used.
 The second derivative matrix:
                          R1        R2        R3        R4        R5
           R1           0.41537
           R2           0.05686   0.41730
           R3           0.05552   0.05560   0.40685
           R4           0.02394   0.02400   0.01799   0.18020
           R5           0.00589   0.00588   0.01146   0.04903   1.05790
           A1           0.02711   0.02709  -0.01116  -0.01371  -0.00408
           A2           0.02780  -0.01308   0.03327  -0.01972  -0.00396
           A3           0.02187  -0.02720  -0.03275   0.01672   0.00813
           A4          -0.01306   0.02785   0.03333  -0.01978  -0.00395
           A5          -0.02719   0.02189  -0.03281   0.01686   0.00816
           A6          -0.03480  -0.03487   0.00916   0.01891  -0.00436
           A7           0.01100   0.01109  -0.02281   0.04037   0.03330
           D1           0.00010   0.02935  -0.02529   0.00133   0.00219
           D2          -0.02937  -0.00008   0.02531  -0.00131  -0.00218
           D3           0.02779  -0.02780  -0.00002  -0.00002  -0.00002
                          A1        A2        A3        A4        A5
           A1           0.16432
           A2           0.01087   0.16969
           A3          -0.07275  -0.08506   0.17468
           A4           0.01088   0.01189  -0.03326   0.16982
           A5          -0.07276  -0.03330   0.01616  -0.08519   0.17497
           A6          -0.03321  -0.07314  -0.00217  -0.07326  -0.00233
           A7          -0.00460  -0.00299   0.01789  -0.00299   0.01808
           D1           0.05711  -0.05520   0.00600   0.00096   0.01532
           D2          -0.05713  -0.00100  -0.01525   0.05518  -0.00603
           D3           0.00004   0.05341   0.01690  -0.05337  -0.01696
                          A6        A7        D1        D2        D3
           A6           0.18012
           A7          -0.02509   0.20694
           D1          -0.02117   0.00749   0.05339
           D2           0.02117  -0.00744  -0.02714   0.05340
           D3           0.00003  -0.00003  -0.02532  -0.02533   0.05331
 ITU=  0
     Eigenvalues ---    0.00123   0.13285   0.13570   0.16846   0.20769
     Eigenvalues ---    0.22865   0.23704   0.35818   0.38997   0.40504
     Eigenvalues ---    0.55052   1.06292
 RFO step:  Lambda=-4.51625906D-07 EMin= 1.22663977D-03
 Linear search not attempted -- first point.
 Iteration  1 RMS(Cart)=  0.00107428 RMS(Int)=  0.00000150
 Iteration  2 RMS(Cart)=  0.00000138 RMS(Int)=  0.00000003
 Iteration  3 RMS(Cart)=  0.00000000 RMS(Int)=  0.00000003
 Variable       Old X    -DE/DX   Delta X   Delta X   Delta X     New X
                                 (Linear)    (Quad)   (Total)
    R1        2.50841  -0.00029   0.00000  -0.00091  -0.00091   2.50750
    R2        2.50691   0.00017   0.00000   0.00059   0.00059   2.50750
    R3        2.50693   0.00007   0.00000   0.00019   0.00019   2.50712
    R4        2.95953  -0.00003   0.00000  -0.00001  -0.00001   2.95953
    R5        2.20014   0.00002   0.00000   0.00003   0.00003   2.20016
    A1        1.90836  -0.00002   0.00000  -0.00007  -0.00007   1.90829
    A2        1.89979   0.00006   0.00000   0.00030   0.00030   1.90008
    A3        1.89463  -0.00003   0.00000   0.00034   0.00034   1.89498
    A4        1.90006   0.00005   0.00000   0.00003   0.00003   1.90008
    A5        1.89526  -0.00001   0.00000  -0.00030  -0.00030   1.89497
    A6        1.96520  -0.00005   0.00000  -0.00030  -0.00030   1.96490
    A7        2.18563  -0.00006   0.00000  -0.00030  -0.00030   2.18532
    D1       -2.10189  -0.00002   0.00000  -0.00326  -0.00326  -2.10515
    D2        2.10815   0.00002   0.00000  -0.00319  -0.00319   2.10496
    D3        0.00275  -0.00000   0.00000  -0.00283  -0.00284  -0.00009
         Item               Value     Threshold  Converged?
 Maximum Force            0.000291     0.000450     YES
 RMS     Force            0.000095     0.000300     YES
 Maximum Displacement     0.002605     0.001800     NO 
 RMS     Displacement     0.001074     0.001200     YES
 Predicted change in Energy=-2.258130D-07
 GradGradGradGradGradGradGradGradGradGradGradGradGradGradGradGradGradGrad

                          Input orientation:                          
 ---------------------------------------------------------------------
 Center     Atomic      Atomic             Coordinates (Angstroms)
 Number     Number       Type             X           Y           Z
 ---------------------------------------------------------------------
      1          6           0        0.354671   -0.018085    0.000209
      2          9           0        0.987941   -0.472482   -1.073656
      3          9           0        0.989245   -0.428366    1.090934
      4          9           0        0.361648    1.308330   -0.026829
      5          6           0       -1.094529   -0.611689    0.013189
      6          8           0       -2.076349    0.013948    0.001122
 ---------------------------------------------------------------------
                    Distance matrix (angstroms):
                    1          2          3          4          5
     1  C    0.000000
     2  F    1.326910   0.000000
     3  F    1.326912   2.165039   0.000000
     4  F    1.326709   2.158560   2.158560   0.000000
     5  C    1.566114   2.353144   2.353137   2.410087   0.000000
     6  O    2.431232   3.283540   3.283474   2.760441   1.164276
                    6
     6  O    0.000000
 Stoichiometry    C2F3O(2)
 Framework group  C1[X(C2F3O)]
 Deg. of freedom    12
 Full point group                 C1      NOp   1
 Largest Abelian subgroup         C1      NOp   1
 Largest concise Abelian subgroup C1      NOp   1
                         Standard orientation:                         
 ---------------------------------------------------------------------
 Center     Atomic      Atomic             Coordinates (Angstroms)
 Number     Number       Type             X           Y           Z
 ---------------------------------------------------------------------
      1          6           0        0.354685   -0.018009   -0.000006
      2          9           0        0.988751   -0.450158   -1.082548
      3          9           0        0.988658   -0.450414    1.082491
      4          9           0        0.361359    1.308683    0.000152
      5          6           0       -1.094380   -0.612084   -0.000129
      6          8           0       -2.076344    0.013445   -0.000005
 ---------------------------------------------------------------------
 Rotational constants (GHZ):           5.6614433           2.9915564           2.9877753
 Standard basis: 6-311+G(2d,2p) (5D, 7F)
 There are   174 symmetry adapted cartesian basis functions of A   symmetry.
 There are   162 symmetry adapted basis functions of A   symmetry.
   162 basis functions,   252 primitive gaussians,   174 cartesian basis functions
    24 alpha electrons       23 beta electrons
       nuclear repulsion energy       241.7040796571 Hartrees.
 NAtoms=    6 NActive=    6 NUniq=    6 SFac= 1.00D+00 NAtFMM=   60 NAOKFM=F Big=F
 Integral buffers will be    131072 words long.
 Raffenetti 2 integral format.
 Two-electron integral symmetry is turned on.
 Nuclear repulsion after empirical dispersion term =      241.7031704263 Hartrees.
 One-electron integrals computed using PRISM.
 NBasis=   162 RedAO= T EigKep=  1.82D-04  NBF=   162
 NBsUse=   162 1.00D-06 EigRej= -1.00D+00 NBFU=   162
 Initial guess from the checkpoint file:  "cf3co.chk"
 B after Tr=    -0.000000   -0.000000   -0.000000
         Rot=    0.999948   -0.010224    0.000321   -0.000119 Ang=  -1.17 deg.
 Initial guess <Sx>= 0.0000 <Sy>= 0.0000 <Sz>= 0.5000 <S**2>= 0.7537 S= 0.5019
 Keep R1 and R2 ints in memory in canonical form, NReq=404874082.
 Requested convergence on RMS density matrix=1.00D-08 within 128 cycles.
 Requested convergence on MAX density matrix=1.00D-06.
 Requested convergence on             energy=1.00D-06.
 No special actions if energy rises.
 SCF Done:  E(UwB97XD) =  -450.906879835     A.U. after   10 cycles
            NFock= 10  Conv=0.55D-08     -V/T= 2.0025
 <Sx>= 0.0000 <Sy>= 0.0000 <Sz>= 0.5000 <S**2>= 0.7537 S= 0.5019
 <L.S>= 0.000000000000E+00
 Annihilation of the first spin contaminant:
 S**2 before annihilation     0.7537,   after     0.7500
 DoSCS=F DFT=T ScalE2(SS,OS)=  1.000000  1.000000
 Range of M.O.s used for correlation:     1   162
 NBasis=   162 NAE=    24 NBE=    23 NFC=     0 NFV=     0
 NROrb=    162 NOA=    24 NOB=    23 NVA=   138 NVB=   139

 **** Warning!!: The largest alpha MO coefficient is  0.28964334D+02


 **** Warning!!: The largest beta MO coefficient is  0.27417922D+02

 Symmetrizing basis deriv contribution to polar:
 IMax=3 JMax=2 DiffMx= 0.00D+00
 G2DrvN: will do     7 centers at a time, making    1 passes.
 Calling FoFCou, ICntrl=  3107 FMM=F I1Cent=   0 AccDes= 0.00D+00.
 End of G2Drv F.D. properties file   721 does not exist.
 End of G2Drv F.D. properties file   722 does not exist.
 End of G2Drv F.D. properties file   788 does not exist.
          IDoAtm=111111
          Differentiating once with respect to electric field.
                with respect to dipole field.
          Differentiating once with respect to nuclear coordinates.
 Keep R1 and R2 ints in memory in canonical form, NReq=404521208.
          There are    21 degrees of freedom in the 1st order CPHF.  IDoFFX=6 NUNeed=     3.
     18 vectors produced by pass  0 Test12= 3.10D-14 4.76D-09 XBig12= 2.35D+01 1.73D+00.
 AX will form    18 AO Fock derivatives at one time.
     18 vectors produced by pass  1 Test12= 3.10D-14 4.76D-09 XBig12= 5.91D+00 4.53D-01.
     18 vectors produced by pass  2 Test12= 3.10D-14 4.76D-09 XBig12= 5.84D-01 2.28D-01.
     18 vectors produced by pass  3 Test12= 3.10D-14 4.76D-09 XBig12= 2.03D-02 3.12D-02.
     18 vectors produced by pass  4 Test12= 3.10D-14 4.76D-09 XBig12= 5.23D-04 4.85D-03.
     18 vectors produced by pass  5 Test12= 3.10D-14 4.76D-09 XBig12= 7.53D-06 5.76D-04.
     18 vectors produced by pass  6 Test12= 3.10D-14 4.76D-09 XBig12= 8.04D-08 5.39D-05.
     18 vectors produced by pass  7 Test12= 3.10D-14 4.76D-09 XBig12= 7.94D-10 4.96D-06.
      7 vectors produced by pass  8 Test12= 3.10D-14 4.76D-09 XBig12= 8.10D-12 4.71D-07.
      3 vectors produced by pass  9 Test12= 3.10D-14 4.76D-09 XBig12= 6.33D-14 4.13D-08.
      1 vectors produced by pass 10 Test12= 3.10D-14 4.76D-09 XBig12= 3.96D-16 5.00D-09.
 InvSVY:  IOpt=1 It=  1 EMax= 1.59D-15
 Solved reduced A of dimension   155 with    21 vectors.
 Isotropic polarizability for W=    0.000000       28.83 Bohr**3.
 End of Minotr F.D. properties file   721 does not exist.
 End of Minotr F.D. properties file   722 does not exist.
 End of Minotr F.D. properties file   788 does not exist.
 Calling FoFJK, ICntrl=    100127 FMM=F ISym2X=0 I1Cent= 0 IOpClX= 1 NMat=1 NMatS=1 NMatT=0.
 ***** Axes restored to original set *****
 -------------------------------------------------------------------
 Center     Atomic                   Forces (Hartrees/Bohr)
 Number     Number              X              Y              Z
 -------------------------------------------------------------------
      1        6          -0.000000468    0.000000477    0.000000449
      2        9           0.000000115   -0.000000156   -0.000000189
      3        9           0.000000265   -0.000000445    0.000000043
      4        9           0.000000193   -0.000000113   -0.000000235
      5        6          -0.000000116    0.000000027    0.000000127
      6        8           0.000000010    0.000000210   -0.000000196
 -------------------------------------------------------------------
 Cartesian Forces:  Max     0.000000477 RMS     0.000000259
 FormGI is forming the generalized inverse of G from B-inverse, IUseBI=4.

 GradGradGradGradGradGradGradGradGradGradGradGradGradGradGradGradGradGrad
 Berny optimization.
 Using GEDIIS/GDIIS optimizer.
 Internal  Forces:  Max     0.000000392 RMS     0.000000201
 Search for a local minimum.
 Step number   2 out of a maximum of   25
 All quantities printed in internal units (Hartrees-Bohrs-Radians)
 Mixed Optimization -- En-DIIS/RFO-DIIS
 Swapping is turned off.
 Second derivative matrix not updated -- analytic derivatives used.
 DE= -2.39D-07 DEPred=-2.26D-07 R= 1.06D+00
 Trust test= 1.06D+00 RLast= 5.53D-03 DXMaxT set to 5.00D-02
 The second derivative matrix:
                          R1        R2        R3        R4        R5
           R1           0.41655
           R2           0.05689   0.41655
           R3           0.05554   0.05554   0.40660
           R4           0.02398   0.02398   0.01799   0.18025
           R5           0.00588   0.00588   0.01145   0.04903   1.05783
           A1           0.02713   0.02713  -0.01116  -0.01373  -0.00407
           A2           0.02778  -0.01308   0.03327  -0.01977  -0.00395
           A3           0.02190  -0.02721  -0.03277   0.01679   0.00816
           A4          -0.01308   0.02778   0.03327  -0.01976  -0.00395
           A5          -0.02721   0.02190  -0.03277   0.01679   0.00815
           A6          -0.03483  -0.03483   0.00920   0.01896  -0.00438
           A7           0.01105   0.01105  -0.02281   0.04041   0.03334
           D1           0.00011   0.02937  -0.02530   0.00131   0.00219
           D2          -0.02937  -0.00011   0.02530  -0.00131  -0.00219
           D3           0.02778  -0.02778  -0.00000   0.00000   0.00000
                          A1        A2        A3        A4        A5
           A1           0.16439
           A2           0.01088   0.16971
           A3          -0.07280  -0.08510   0.17488
           A4           0.01088   0.01190  -0.03329   0.16971
           A5          -0.07280  -0.03329   0.01618  -0.08509   0.17487
           A6          -0.03324  -0.07322  -0.00226  -0.07322  -0.00226
           A7          -0.00460  -0.00301   0.01798  -0.00301   0.01797
           D1           0.05714  -0.05518   0.00601   0.00098   0.01528
           D2          -0.05714  -0.00098  -0.01528   0.05518  -0.00601
           D3          -0.00000   0.05337   0.01694  -0.05337  -0.01694
                          A6        A7        D1        D2        D3
           A6           0.18024
           A7          -0.02503   0.20707
           D1          -0.02120   0.00745   0.05339
           D2           0.02120  -0.00745  -0.02715   0.05339
           D3          -0.00000   0.00000  -0.02531  -0.02531   0.05329
 ITU=  0  0
     Eigenvalues ---    0.00122   0.13291   0.13573   0.16852   0.20781
     Eigenvalues ---    0.22859   0.23709   0.35826   0.39013   0.40504
     Eigenvalues ---    0.55055   1.06285
 En-DIIS/RFO-DIIS/Sim-DIIS IScMMF=       -3 using points:     2    1
 RFO step:  Lambda=-3.06001235D-12.
 DidBck=F Rises=F RFO-DIIS coefs:    0.97129    0.02871
 Iteration  1 RMS(Cart)=  0.00003069 RMS(Int)=  0.00000000
 Iteration  2 RMS(Cart)=  0.00000000 RMS(Int)=  0.00000000
 Variable       Old X    -DE/DX   Delta X   Delta X   Delta X     New X
                                 (Linear)    (Quad)   (Total)
    R1        2.50750   0.00000   0.00003  -0.00002   0.00000   2.50750
    R2        2.50750   0.00000  -0.00002   0.00002  -0.00000   2.50750
    R3        2.50712  -0.00000  -0.00001   0.00000  -0.00000   2.50712
    R4        2.95953   0.00000   0.00000   0.00000   0.00000   2.95953
    R5        2.20016  -0.00000  -0.00000   0.00000  -0.00000   2.20016
    A1        1.90829  -0.00000   0.00000  -0.00000  -0.00000   1.90829
    A2        1.90008  -0.00000  -0.00001   0.00001  -0.00000   1.90008
    A3        1.89498  -0.00000  -0.00001   0.00000  -0.00001   1.89497
    A4        1.90008   0.00000  -0.00000   0.00000   0.00000   1.90008
    A5        1.89497   0.00000   0.00001  -0.00000   0.00001   1.89497
    A6        1.96490   0.00000   0.00001  -0.00001   0.00000   1.96490
    A7        2.18532  -0.00000   0.00001  -0.00001  -0.00000   2.18532
    D1       -2.10515   0.00000   0.00009   0.00000   0.00009  -2.10505
    D2        2.10496   0.00000   0.00009   0.00000   0.00010   2.10506
    D3       -0.00009  -0.00000   0.00008   0.00001   0.00009   0.00000
         Item               Value     Threshold  Converged?
 Maximum Force            0.000000     0.000450     YES
 RMS     Force            0.000000     0.000300     YES
 Maximum Displacement     0.000078     0.001800     YES
 RMS     Displacement     0.000031     0.001200     YES
 Predicted change in Energy=-1.857017D-11
 Optimization completed.
    -- Stationary point found.
                           ----------------------------
                           !   Optimized Parameters   !
                           ! (Angstroms and Degrees)  !
 --------------------------                            --------------------------
 ! Name  Definition              Value          Derivative Info.                !
 --------------------------------------------------------------------------------
 ! R1    R(1,2)                  1.3269         -DE/DX =    0.0                 !
 ! R2    R(1,3)                  1.3269         -DE/DX =    0.0                 !
 ! R3    R(1,4)                  1.3267         -DE/DX =    0.0                 !
 ! R4    R(1,5)                  1.5661         -DE/DX =    0.0                 !
 ! R5    R(5,6)                  1.1643         -DE/DX =    0.0                 !
 ! A1    A(2,1,3)              109.3369         -DE/DX =    0.0                 !
 ! A2    A(2,1,4)              108.8668         -DE/DX =    0.0                 !
 ! A3    A(2,1,5)              108.5743         -DE/DX =    0.0                 !
 ! A4    A(3,1,4)              108.8667         -DE/DX =    0.0                 !
 ! A5    A(3,1,5)              108.5736         -DE/DX =    0.0                 !
 ! A6    A(4,1,5)              112.5804         -DE/DX =    0.0                 !
 ! A7    A(1,5,6)              125.2099         -DE/DX =    0.0                 !
 ! D1    D(2,1,5,6)           -120.616          -DE/DX =    0.0                 !
 ! D2    D(3,1,5,6)            120.6053         -DE/DX =    0.0                 !
 ! D3    D(4,1,5,6)             -0.0051         -DE/DX =    0.0                 !
 --------------------------------------------------------------------------------
 GradGradGradGradGradGradGradGradGradGradGradGradGradGradGradGradGradGrad

                          Input orientation:                          
 ---------------------------------------------------------------------
 Center     Atomic      Atomic             Coordinates (Angstroms)
 Number     Number       Type             X           Y           Z
 ---------------------------------------------------------------------
      1          6           0        0.354671   -0.018085    0.000209
      2          9           0        0.987941   -0.472482   -1.073656
      3          9           0        0.989245   -0.428366    1.090934
      4          9           0        0.361648    1.308330   -0.026829
      5          6           0       -1.094529   -0.611689    0.013189
      6          8           0       -2.076349    0.013948    0.001122
 ---------------------------------------------------------------------
                    Distance matrix (angstroms):
                    1          2          3          4          5
     1  C    0.000000
     2  F    1.326910   0.000000
     3  F    1.326912   2.165039   0.000000
     4  F    1.326709   2.158560   2.158560   0.000000
     5  C    1.566114   2.353144   2.353137   2.410087   0.000000
     6  O    2.431232   3.283540   3.283474   2.760441   1.164276
                    6
     6  O    0.000000
 Stoichiometry    C2F3O(2)
 Framework group  C1[X(C2F3O)]
 Deg. of freedom    12
 Full point group                 C1      NOp   1
 Largest Abelian subgroup         C1      NOp   1
 Largest concise Abelian subgroup C1      NOp   1
                         Standard orientation:                         
 ---------------------------------------------------------------------
 Center     Atomic      Atomic             Coordinates (Angstroms)
 Number     Number       Type             X           Y           Z
 ---------------------------------------------------------------------
      1          6           0        0.354685   -0.018009   -0.000006
      2          9           0        0.988751   -0.450158   -1.082548
      3          9           0        0.988658   -0.450414    1.082491
      4          9           0        0.361359    1.308683    0.000152
      5          6           0       -1.094380   -0.612084   -0.000129
      6          8           0       -2.076344    0.013445   -0.000005
 ---------------------------------------------------------------------
 Rotational constants (GHZ):           5.6614433           2.9915564           2.9877753

 **********************************************************************

            Population analysis using the SCF density.

 **********************************************************************

 Orbital symmetries:
 Alpha Orbitals:
       Occupied  (A) (A) (A) (A) (A) (A) (A) (A) (A) (A) (A) (A)
                 (A) (A) (A) (A) (A) (A) (A) (A) (A) (A) (A) (A)
       Virtual   (A) (A) (A) (A) (A) (A) (A) (A) (A) (A) (A) (A)
                 (A) (A) (A) (A) (A) (A) (A) (A) (A) (A) (A) (A)
                 (A) (A) (A) (A) (A) (A) (A) (A) (A) (A) (A) (A)
                 (A) (A) (A) (A) (A) (A) (A) (A) (A) (A) (A) (A)
                 (A) (A) (A) (A) (A) (A) (A) (A) (A) (A) (A) (A)
                 (A) (A) (A) (A) (A) (A) (A) (A) (A) (A) (A) (A)
                 (A) (A) (A) (A) (A) (A) (A) (A) (A) (A) (A) (A)
                 (A) (A) (A) (A) (A) (A) (A) (A) (A) (A) (A) (A)
                 (A) (A) (A) (A) (A) (A) (A) (A) (A) (A) (A) (A)
                 (A) (A) (A) (A) (A) (A) (A) (A) (A) (A) (A) (A)
                 (A) (A) (A) (A) (A) (A) (A) (A) (A) (A) (A) (A)
                 (A) (A) (A) (A) (A) (A)
 Beta  Orbitals:
       Occupied  (A) (A) (A) (A) (A) (A) (A) (A) (A) (A) (A) (A)
                 (A) (A) (A) (A) (A) (A) (A) (A) (A) (A) (A)
       Virtual   (A) (A) (A) (A) (A) (A) (A) (A) (A) (A) (A) (A)
                 (A) (A) (A) (A) (A) (A) (A) (A) (A) (A) (A) (A)
                 (A) (A) (A) (A) (A) (A) (A) (A) (A) (A) (A) (A)
                 (A) (A) (A) (A) (A) (A) (A) (A) (A) (A) (A) (A)
                 (A) (A) (A) (A) (A) (A) (A) (A) (A) (A) (A) (A)
                 (A) (A) (A) (A) (A) (A) (A) (A) (A) (A) (A) (A)
                 (A) (A) (A) (A) (A) (A) (A) (A) (A) (A) (A) (A)
                 (A) (A) (A) (A) (A) (A) (A) (A) (A) (A) (A) (A)
                 (A) (A) (A) (A) (A) (A) (A) (A) (A) (A) (A) (A)
                 (A) (A) (A) (A) (A) (A) (A) (A) (A) (A) (A) (A)
                 (A) (A) (A) (A) (A) (A) (A) (A) (A) (A) (A) (A)
                 (A) (A) (A) (A) (A) (A) (A)
 The electronic state is 2-A.
 Alpha  occ. eigenvalues --  -24.88064 -24.88064 -24.87902 -19.35009 -10.58848
 Alpha  occ. eigenvalues --  -10.43062  -1.46995  -1.37784  -1.37639  -1.26030
 Alpha  occ. eigenvalues --   -0.88349  -0.77561  -0.73390  -0.73325  -0.65779
 Alpha  occ. eigenvalues --   -0.60543  -0.60237  -0.58357  -0.57631  -0.55916
 Alpha  occ. eigenvalues --   -0.55029  -0.53988  -0.53911  -0.34109
 Alpha virt. eigenvalues --   -0.00962   0.07353   0.09278   0.09901   0.10650
 Alpha virt. eigenvalues --    0.13287   0.13303   0.14249   0.19158   0.20870
 Alpha virt. eigenvalues --    0.24184   0.24463   0.26609   0.26837   0.27868
 Alpha virt. eigenvalues --    0.31327   0.32275   0.33185   0.34086   0.34986
 Alpha virt. eigenvalues --    0.37472   0.39451   0.39563   0.39722   0.41209
 Alpha virt. eigenvalues --    0.41884   0.44829   0.47908   0.49140   0.53325
 Alpha virt. eigenvalues --    0.58503   0.62003   0.66542   0.68279   0.70002
 Alpha virt. eigenvalues --    0.75726   0.79068   0.81591   0.87664   0.90584
 Alpha virt. eigenvalues --    0.99579   1.05740   1.09393   1.11950   1.13070
 Alpha virt. eigenvalues --    1.16728   1.19873   1.24278   1.26574   1.36181
 Alpha virt. eigenvalues --    1.36231   1.37674   1.40760   1.43055   1.43513
 Alpha virt. eigenvalues --    1.44852   1.50053   1.52240   1.54089   1.56762
 Alpha virt. eigenvalues --    1.61085   1.68086   1.73235   1.94074   1.96819
 Alpha virt. eigenvalues --    2.00944   2.04213   2.04736   2.04868   2.06603
 Alpha virt. eigenvalues --    2.12596   2.17200   2.17731   2.20970   2.26994
 Alpha virt. eigenvalues --    2.38761   2.50484   2.56663   2.62315   2.65349
 Alpha virt. eigenvalues --    2.71136   2.77455   2.80978   2.87624   3.11969
 Alpha virt. eigenvalues --    3.14663   3.24615   3.35507   3.39147   3.43763
 Alpha virt. eigenvalues --    3.44302   3.48976   3.52271   3.53441   3.57294
 Alpha virt. eigenvalues --    3.60593   3.80943   4.25296   4.25731   4.28183
 Alpha virt. eigenvalues --    5.07215   5.14120   6.02500   6.37276   6.40164
 Alpha virt. eigenvalues --    6.41730   6.42924   6.44338   6.44650   6.50570
 Alpha virt. eigenvalues --    6.77045   6.79954   6.84229   6.85284   7.04956
 Alpha virt. eigenvalues --    7.11376   7.22346   9.06805   9.08741   9.09338
 Alpha virt. eigenvalues --    9.19583   9.21033   9.21092   9.22274   9.30589
 Alpha virt. eigenvalues --    9.34222   9.47575   9.65695   9.69328   9.69472
 Alpha virt. eigenvalues --    9.84583   9.85655  23.95057  24.05504  49.98233
 Alpha virt. eigenvalues --   66.91262  66.92396  66.96423
  Beta  occ. eigenvalues --  -24.88065 -24.88065 -24.87799 -19.34282 -10.58423
  Beta  occ. eigenvalues --  -10.42236  -1.46809  -1.37755  -1.37435  -1.24386
  Beta  occ. eigenvalues --   -0.86848  -0.76451  -0.73176  -0.72919  -0.63921
  Beta  occ. eigenvalues --   -0.60174  -0.60015  -0.57267  -0.56698  -0.54501
  Beta  occ. eigenvalues --   -0.54171  -0.53935  -0.50371
  Beta virt. eigenvalues --   -0.05136   0.00655   0.07841   0.09495   0.10739
  Beta virt. eigenvalues --    0.11160   0.13674   0.13969   0.14738   0.19587
  Beta virt. eigenvalues --    0.21888   0.25001   0.25125   0.26852   0.27153
  Beta virt. eigenvalues --    0.29558   0.31933   0.32684   0.33949   0.34445
  Beta virt. eigenvalues --    0.35333   0.37529   0.39493   0.39668   0.39806
  Beta virt. eigenvalues --    0.41458   0.42074   0.44972   0.47912   0.49809
  Beta virt. eigenvalues --    0.54017   0.60009   0.62395   0.67224   0.69340
  Beta virt. eigenvalues --    0.70381   0.76286   0.80873   0.81923   0.88594
  Beta virt. eigenvalues --    0.91670   0.99929   1.06207   1.09798   1.12983
  Beta virt. eigenvalues --    1.14173   1.17103   1.20324   1.24517   1.27188
  Beta virt. eigenvalues --    1.36373   1.36973   1.37838   1.40872   1.43560
  Beta virt. eigenvalues --    1.44057   1.44885   1.50611   1.52481   1.54135
  Beta virt. eigenvalues --    1.57254   1.61826   1.69290   1.74620   1.94217
  Beta virt. eigenvalues --    1.97136   2.01015   2.04250   2.04927   2.05217
  Beta virt. eigenvalues --    2.06800   2.12838   2.17503   2.17950   2.20996
  Beta virt. eigenvalues --    2.28093   2.39184   2.51049   2.57577   2.62776
  Beta virt. eigenvalues --    2.65842   2.71540   2.79157   2.81593   2.88308
  Beta virt. eigenvalues --    3.12875   3.15505   3.26787   3.39442   3.42547
  Beta virt. eigenvalues --    3.45223   3.45498   3.50022   3.52824   3.54146
  Beta virt. eigenvalues --    3.59394   3.62295   3.83027   4.25844   4.26700
  Beta virt. eigenvalues --    4.29122   5.07824   5.17329   6.03600   6.37297
  Beta virt. eigenvalues --    6.40348   6.41765   6.43004   6.44388   6.44725
  Beta virt. eigenvalues --    6.50707   6.79365   6.82697   6.84560   6.85739
  Beta virt. eigenvalues --    7.05751   7.13972   7.23773   9.06919   9.08766
  Beta virt. eigenvalues --    9.09445   9.19698   9.21065   9.21252   9.22329
  Beta virt. eigenvalues --    9.30699   9.34332   9.47659   9.65758   9.69527
  Beta virt. eigenvalues --    9.69545   9.84604   9.85810  23.95924  24.06666
  Beta virt. eigenvalues --   49.98884  66.91261  66.92448  66.96448
          Condensed to atoms (all electrons):
               1          2          3          4          5          6
     1  C    4.546535   0.213158   0.213158   0.233614   0.079669  -0.035120
     2  F    0.213158   9.095289   0.000114   0.002055  -0.057993  -0.000503
     3  F    0.213158   0.000114   9.095282   0.002056  -0.057991  -0.000504
     4  F    0.233614   0.002055   0.002056   9.092048  -0.049502   0.008872
     5  C    0.079669  -0.057993  -0.057991  -0.049502   5.560905   0.335309
     6  O   -0.035120  -0.000503  -0.000504   0.008872   0.335309   7.837155
          Atomic-Atomic Spin Densities.
               1          2          3          4          5          6
     1  C    0.505526  -0.017044  -0.017048  -0.083108  -0.273532   0.000501
     2  F   -0.017044  -0.000022   0.000249   0.003099   0.017240  -0.000482
     3  F   -0.017048   0.000249  -0.000019   0.003100   0.017241  -0.000482
     4  F   -0.083108   0.003099   0.003100   0.063775   0.023793   0.010379
     5  C   -0.273532   0.017240   0.017241   0.023793   1.018369  -0.179877
     6  O    0.000501  -0.000482  -0.000482   0.010379  -0.179877   0.404311
 Mulliken charges and spin densities:
               1          2
     1  C    0.748985   0.115295
     2  F   -0.252119   0.003040
     3  F   -0.252115   0.003042
     4  F   -0.289143   0.021039
     5  C    0.189603   0.623234
     6  O   -0.145210   0.234350
 Sum of Mulliken charges =  -0.00000   1.00000
 Mulliken charges and spin densities with hydrogens summed into heavy atoms:
               1          2
     1  C    0.748985   0.115295
     2  F   -0.252119   0.003040
     3  F   -0.252115   0.003042
     4  F   -0.289143   0.021039
     5  C    0.189603   0.623234
     6  O   -0.145210   0.234350
 APT charges:
               1
     1  C    1.713252
     2  F   -0.523793
     3  F   -0.523794
     4  F   -0.555676
     5  C    0.265494
     6  O   -0.375483
 Sum of APT charges =  -0.00000
 APT charges with hydrogens summed into heavy atoms:
               1
     1  C    1.713252
     2  F   -0.523793
     3  F   -0.523794
     4  F   -0.555676
     5  C    0.265494
     6  O   -0.375483
 Electronic spatial extent (au):  <R**2>=            442.0926
 Charge=              0.0000 electrons
 Dipole moment (field-independent basis, Debye):
    X=              0.2554    Y=             -0.3022    Z=             -0.0001  Tot=              0.3956
 Quadrupole moment (field-independent basis, Debye-Ang):
   XX=            -34.0331   YY=            -32.0606   ZZ=            -30.8790
   XY=              0.4583   XZ=              0.0001   YZ=             -0.0002
 Traceless Quadrupole moment (field-independent basis, Debye-Ang):
   XX=             -1.7089   YY=              0.2637   ZZ=              1.4452
   XY=              0.4583   XZ=              0.0001   YZ=             -0.0002
 Octapole moment (field-independent basis, Debye-Ang**2):
  XXX=             17.8448  YYY=              4.8805  ZZZ=              0.0009  XYY=              3.6898
  XXY=              1.6191  XXZ=              0.0004  XZZ=              1.4245  YZZ=              1.9187
  YYZ=              0.0004  XYZ=              0.0004
 Hexadecapole moment (field-independent basis, Debye-Ang**3):
 XXXX=           -280.4811 YYYY=           -101.8899 ZZZZ=            -90.9000 XXXY=             -3.8777
 XXXZ=             -0.0009 YYYX=             -6.4558 YYYZ=             -0.0013 ZZZX=             -0.0009
 ZZZY=             -0.0009 XXYY=            -61.0933 XXZZ=            -58.3861 YYZZ=            -31.8379
 XXYZ=             -0.0005 YYXZ=             -0.0008 ZZXY=             -1.2738
 N-N= 2.417031704263D+02 E-N=-1.552659724957D+03  KE= 4.497703101132D+02
  Exact polarizability:  33.541  -1.598  28.204  -0.000   0.001  24.747
 Approx polarizability:  34.799  -4.463  30.527  -0.001   0.001  27.215
                          Isotropic Fermi Contact Couplings
        Atom                 a.u.       MegaHertz       Gauss      10(-4) cm-1
     1  C(13)              0.21082     236.99838      84.56692      79.05415
     2  F(19)             -0.00167      -7.04535      -2.51396      -2.35008
     3  F(19)             -0.00167      -7.03923      -2.51177      -2.34803
     4  F(19)              0.02145      90.25532      32.20534      30.10594
     5  C(13)              0.37426     420.74501     150.13228     140.34543
     6  O(17)              0.06239     -37.82045     -13.49528     -12.61555
 --------------------------------------------------------
       Center         ----  Spin Dipole Couplings  ----
                      3XX-RR        3YY-RR        3ZZ-RR
 --------------------------------------------------------
     1   Atom        0.257713     -0.124033     -0.133680
     2   Atom        0.037744     -0.011263     -0.026482
     3   Atom        0.037759     -0.011271     -0.026488
     4   Atom        0.059588      0.063480     -0.123069
     5   Atom       -0.335538      0.621832     -0.286294
     6   Atom       -0.409350      1.181277     -0.771926
 --------------------------------------------------------
                        XY            XZ            YZ
 --------------------------------------------------------
     1   Atom        0.085189      0.000022      0.000004
     2   Atom       -0.017801      0.007030     -0.001851
     3   Atom       -0.017804     -0.007024      0.001852
     4   Atom        0.194126      0.000030      0.000030
     5   Atom        0.007094      0.000001      0.000174
     6   Atom        0.661101      0.000131      0.000385
 --------------------------------------------------------


 ---------------------------------------------------------------------------------
              Anisotropic Spin Dipole Couplings in Principal Axis System
 ---------------------------------------------------------------------------------

       Atom             a.u.   MegaHertz   Gauss  10(-4) cm-1        Axes

              Baa    -0.1422   -19.079    -6.808    -6.364 -0.2084  0.9781  0.0001
     1 C(13)  Bbb    -0.1337   -17.939    -6.401    -5.984 -0.0000 -0.0001  1.0000
              Bcc     0.2759    37.018    13.209    12.348  0.9781  0.2084  0.0001
 
              Baa    -0.0272   -13.682    -4.882    -4.564 -0.1093 -0.0067  0.9940
     2 F(19)  Bbb    -0.0170    -8.553    -3.052    -2.853  0.3042  0.9518  0.0399
              Bcc     0.0443    22.235     7.934     7.417  0.9463 -0.3067  0.1020
 
              Baa    -0.0272   -13.684    -4.883    -4.565  0.1091  0.0064  0.9940
     3 F(19)  Bbb    -0.0170    -8.557    -3.053    -2.854  0.3042  0.9518 -0.0395
              Bcc     0.0443    22.241     7.936     7.419  0.9463 -0.3067 -0.1019
 
              Baa    -0.1326   -66.596   -23.763   -22.214  0.7106 -0.7036 -0.0000
     4 F(19)  Bbb    -0.1231   -61.808   -22.055   -20.617 -0.0001 -0.0001  1.0000
              Bcc     0.2557   128.404    45.818    42.831  0.7036  0.7106  0.0001
 
              Baa    -0.3356   -45.033   -16.069   -15.021  1.0000 -0.0074 -0.0000
     5 C(13)  Bbb    -0.2863   -38.418   -13.708   -12.815  0.0000 -0.0002  1.0000
              Bcc     0.6219    83.451    29.777    27.836  0.0074  1.0000  0.0002
 
              Baa    -0.7719    55.856    19.931    18.632 -0.0000 -0.0002  1.0000
     6 O(17)  Bbb    -0.6482    46.906    16.737    15.646  0.9405 -0.3398 -0.0001
              Bcc     1.4202  -102.762   -36.668   -34.278  0.3398  0.9405  0.0002
 

 ---------------------------------------------------------------------------------

 Rotating derivatives to standard orientation.
 Full mass-weighted force constant matrix:
 Low frequencies ---   -3.8616   -0.0012   -0.0012    0.0008    0.8328    1.8733
 Low frequencies ---   62.1965  238.2160  398.4355
 Diagonal vibrational polarizability:
        6.3883366       7.0508236      16.9998032
 Harmonic frequencies (cm**-1), IR intensities (KM/Mole), Raman scattering
 activities (A**4/AMU), depolarization ratios for plane and unpolarized
 incident light, reduced masses (AMU), force constants (mDyne/A),
 and normal coordinates:
                      1                      2                      3
                      A                      A                      A
 Frequencies --     62.1949               238.2160               398.4355
 Red. masses --     15.7014                17.3746                14.7724
 Frc consts  --      0.0358                 0.5809                 1.3817
 IR Inten    --      1.4787                 1.7439                 0.2732
  Atom  AN      X      Y      Z        X      Y      Z        X      Y      Z
     1   6     0.00   0.00  -0.18    -0.00   0.22   0.00    -0.00   0.00  -0.13
     2   9     0.36   0.02   0.04    -0.19   0.01  -0.03     0.29   0.27  -0.05
     3   9    -0.36  -0.02   0.04    -0.19   0.01   0.03    -0.29  -0.27  -0.05
     4   9     0.00   0.00  -0.17     0.65   0.23   0.00     0.00   0.00  -0.26
     5   6    -0.00   0.00  -0.51     0.04   0.10   0.00     0.00  -0.00   0.77
     6   8     0.00  -0.00   0.64    -0.35  -0.53  -0.00     0.00   0.00  -0.06
                      4                      5                      6
                      A                      A                      A
 Frequencies --    415.1500               536.0105               546.6666
 Red. masses --     16.3954                16.5040                17.4317
 Frc consts  --      1.6649                 2.7937                 3.0693
 IR Inten    --      0.9589                 5.9266                 4.7364
  Atom  AN      X      Y      Z        X      Y      Z        X      Y      Z
     1   6    -0.05  -0.01   0.00    -0.04   0.28   0.00     0.00   0.00  -0.38
     2   9    -0.39   0.07  -0.24    -0.06  -0.33   0.28     0.25  -0.37  -0.23
     3   9    -0.39   0.07   0.24    -0.06  -0.33  -0.28    -0.25   0.37  -0.23
     4   9     0.04  -0.02   0.00    -0.26   0.41  -0.00    -0.00  -0.00   0.53
     5   6     0.43  -0.20  -0.00     0.42   0.30   0.00     0.00  -0.00   0.29
     6   8     0.59   0.01   0.00     0.17  -0.12  -0.00     0.00   0.00  -0.01
                      7                      8                      9
                      A                      A                      A
 Frequencies --    676.2580               794.6698              1167.6405
 Red. masses --     14.5473                15.9682                13.2269
 Frc consts  --      3.9197                 5.9413                10.6250
 IR Inten    --     24.0142                 0.6948               213.8781
  Atom  AN      X      Y      Z        X      Y      Z        X      Y      Z
     1   6     0.26  -0.06  -0.00     0.33   0.13   0.00     0.82   0.36   0.00
     2   9     0.03  -0.06  -0.35     0.07  -0.20  -0.33    -0.17   0.03   0.16
     3   9     0.03  -0.06   0.35     0.07  -0.20   0.33    -0.17   0.03  -0.16
     4   9    -0.22  -0.16  -0.00    -0.09   0.50   0.00    -0.07  -0.24  -0.00
     5   6     0.30   0.67   0.00    -0.36  -0.42  -0.00    -0.10  -0.10  -0.00
     6   8    -0.24  -0.12  -0.00    -0.03   0.09   0.00    -0.04   0.02   0.00
                     10                     11                     12
                      A                      A                      A
 Frequencies --   1205.3546              1225.6211              2012.4023
 Red. masses --     13.3035                13.0765                13.3875
 Frc consts  --     11.3879                11.5732                31.9432
 IR Inten    --    336.8680               316.0071                87.5248
  Atom  AN      X      Y      Z        X      Y      Z        X      Y      Z
     1   6     0.00  -0.00   0.90    -0.36   0.84   0.00    -0.01   0.00   0.00
     2   9     0.15  -0.07  -0.25     0.10  -0.09  -0.12    -0.00  -0.00   0.00
     3   9    -0.15   0.07  -0.26     0.10  -0.09   0.12    -0.00  -0.00  -0.00
     4   9     0.00   0.00  -0.05     0.01  -0.30  -0.00     0.00   0.01   0.00
     5   6     0.00   0.00  -0.02    -0.02  -0.09  -0.00     0.68  -0.44  -0.00
     6   8    -0.00  -0.00   0.01     0.04   0.01   0.00    -0.49   0.32   0.00

 -------------------
 - Thermochemistry -
 -------------------
 Temperature   298.150 Kelvin.  Pressure   1.00000 Atm.
 Atom     1 has atomic number  6 and mass  12.00000
 Atom     2 has atomic number  9 and mass  18.99840
 Atom     3 has atomic number  9 and mass  18.99840
 Atom     4 has atomic number  9 and mass  18.99840
 Atom     5 has atomic number  6 and mass  12.00000
 Atom     6 has atomic number  8 and mass  15.99491
 Molecular mass:    96.99012 amu.
 Principal axes and moments of inertia in atomic units:
                           1         2         3
     Eigenvalues --   318.77758 603.27835 604.04181
           X            0.99999   0.00535   0.00000
           Y           -0.00535   0.99999   0.00025
           Z           -0.00000  -0.00025   1.00000
 This molecule is an asymmetric top.
 Rotational symmetry number  1.
 Rotational temperatures (Kelvin)      0.27171     0.14357     0.14339
 Rotational constants (GHZ):           5.66144     2.99156     2.98778
 Zero-point vibrational energy      55498.5 (Joules/Mol)
                                   13.26445 (Kcal/Mol)
 Warning -- explicit consideration of   6 degrees of freedom as
           vibrations may cause significant error
 Vibrational temperatures:     89.48   342.74   573.26   597.31   771.20
          (Kelvin)            786.53   972.98  1143.35  1679.97  1734.24
                             1763.40  2895.40
 
 Zero-point correction=                           0.021138 (Hartree/Particle)
 Thermal correction to Energy=                    0.026534
 Thermal correction to Enthalpy=                  0.027478
 Thermal correction to Gibbs Free Energy=        -0.009172
 Sum of electronic and zero-point Energies=           -450.885742
 Sum of electronic and thermal Energies=              -450.880346
 Sum of electronic and thermal Enthalpies=            -450.879402
 Sum of electronic and thermal Free Energies=         -450.916052
 
                     E (Thermal)             CV                S
                      KCal/Mol        Cal/Mol-Kelvin    Cal/Mol-Kelvin
 Total                   16.650             17.108             77.137
 Electronic               0.000              0.000              1.377
 Translational            0.889              2.981             39.627
 Rotational               0.889              2.981             26.255
 Vibrational             14.873             11.146              9.878
 Vibration     1          0.597              1.972              4.386
 Vibration     2          0.656              1.782              1.816
 Vibration     3          0.765              1.473              0.968
 Vibration     4          0.779              1.437              0.909
 Vibration     5          0.891              1.170              0.574
 Vibration     6          0.902              1.147              0.551
                       Q            Log10(Q)             Ln(Q)
 Total Bot       0.165564D+05          4.218967          9.714531
 Total V=0       0.874740D+14         13.941879         32.102363
 Vib (Bot)       0.180722D-08         -8.742990        -20.131478
 Vib (Bot)    1  0.331938D+01          0.521058          1.199779
 Vib (Bot)    2  0.823788D+00         -0.084185         -0.193842
 Vib (Bot)    3  0.447852D+00         -0.348866         -0.803293
 Vib (Bot)    4  0.424516D+00         -0.372106         -0.856806
 Vib (Bot)    5  0.296695D+00         -0.527689         -1.215050
 Vib (Bot)    6  0.287989D+00         -0.540624         -1.244833
 Vib (V=0)       0.954821D+01          0.979922          2.256354
 Vib (V=0)    1  0.385683D+01          0.586231          1.349846
 Vib (V=0)    2  0.146365D+01          0.165438          0.380935
 Vib (V=0)    3  0.117125D+01          0.068648          0.158068
 Vib (V=0)    4  0.115591D+01          0.062923          0.144885
 Vib (V=0)    5  0.108140D+01          0.033987          0.078258
 Vib (V=0)    6  0.107701D+01          0.032219          0.074186
 Electronic      0.200000D+01          0.301030          0.693147
 Translational   0.375444D+08          7.574545         17.441035
 Rotational      0.122006D+06          5.086382         11.711827
 ***** Axes restored to original set *****
 -------------------------------------------------------------------
 Center     Atomic                   Forces (Hartrees/Bohr)
 Number     Number              X              Y              Z
 -------------------------------------------------------------------
      1        6          -0.000000468    0.000000477    0.000000449
      2        9           0.000000115   -0.000000156   -0.000000189
      3        9           0.000000265   -0.000000445    0.000000043
      4        9           0.000000193   -0.000000113   -0.000000235
      5        6          -0.000000116    0.000000027    0.000000127
      6        8           0.000000010    0.000000210   -0.000000196
 -------------------------------------------------------------------
 Cartesian Forces:  Max     0.000000477 RMS     0.000000259

 ----------------------------------------------------------------------

 Electric dipole moment (input orientation):
 (Debye = 10**-18 statcoulomb cm , SI units = C m)
                  (au)            (Debye)         (10**-30 SI)
   Tot        0.155648D+00      0.395617D+00      0.131964D+01
   x          0.100440D+00      0.255294D+00      0.851569D+00
   y         -0.118880D+00     -0.302163D+00     -0.100791D+01
   z          0.234084D-02      0.594983D-02      0.198465D-01

 Dipole polarizability, Alpha (input orientation).
 (esu units = cm**3 , SI units = C**2 m**2 J**-1)
 Alpha(0;0):
               (au)            (10**-24 esu)      (10**-40 SI)
   iso        0.288304D+02      0.427222D+01      0.475349D+01
   aniso      0.815815D+01      0.120891D+01      0.134510D+01
   xx         0.335403D+02      0.497017D+01      0.553006D+01
   yx        -0.159922D+01     -0.236980D+00     -0.263675D+00
   yy         0.282029D+02      0.417924D+01      0.465003D+01
   zx         0.268037D-01      0.397189D-02      0.441933D-02
   zy        -0.691413D-01     -0.102457D-01     -0.113999D-01
   zz         0.247479D+02      0.366726D+01      0.408038D+01

 ----------------------------------------------------------------------

 Dipole orientation:
     6          0.37842091          0.31120845          0.45861310
     9          1.97675395         -1.02283985          1.85617800
     9         -0.62092055          2.13802689          1.85561249
     9          1.63626850          1.34459726         -1.44810127
     6         -1.79717892         -1.47689003         -0.45148011
     8         -2.30259423         -1.89240399         -2.55210455

 Electric dipole moment (dipole orientation):
 (Debye = 10**-18 statcoulomb cm , SI units = C m)
                  (au)            (Debye)         (10**-30 SI)
   Tot        0.155648D+00      0.395617D+00      0.131964D+01
   x          0.000000D+00      0.000000D+00      0.000000D+00
   y          0.000000D+00      0.000000D+00      0.000000D+00
   z          0.155648D+00      0.395617D+00      0.131964D+01

 Dipole polarizability, Alpha (dipole orientation).
 (esu units = cm**3 , SI units = C**2 m**2 J**-1)
 Alpha(0;0):
               (au)            (10**-24 esu)      (10**-40 SI)
   iso        0.288304D+02      0.427222D+01      0.475349D+01
   aniso      0.815815D+01      0.120891D+01      0.134510D+01
   xx         0.277276D+02      0.410880D+01      0.457166D+01
   yx         0.245016D+01      0.363076D+00      0.403977D+00
   yy         0.267603D+02      0.396547D+01      0.441218D+01
   zx         0.223855D+01      0.331719D+00      0.369087D+00
   zy         0.184024D+01      0.272696D+00      0.303415D+00
   zz         0.320032D+02      0.474239D+01      0.527662D+01

 ----------------------------------------------------------------------
 1\1\GINC-PURPLE\Freq\UwB97XD\6-311+G(2d,2p)\C2F3O1(2)\RAPPE\24-Sep-202
 4\0\\# opt=(calcall,maxstep=5) uwb97xd/6-311+g(2d,2p) geom=connectivit
 y scf=xqc integral=grid=superfinegrid scf=(xqc,tight)\\Title Card Requ
 ired\\0,2\C,0.3546714802,-0.0180852979,0.0002085413\F,0.9879406764,-0.
 4724821941,-1.0736556922\F,0.9892449444,-0.4283660319,1.0909336766\F,0
 .3616478714,1.3083297018,-0.0268286082\C,-1.0945285111,-0.6116885352,0
 .0131894429\O,-2.0763494613,0.0139483573,0.0011216396\\Version=ES64L-G
 16RevA.03\State=2-A\HF=-450.9068798\S2=0.753746\S2-1=0.\S2A=0.750009\R
 MSD=5.530e-09\RMSF=2.592e-07\ZeroPoint=0.0211383\Thermal=0.0265337\Dip
 ole=0.1004404,-0.1188803,0.0023408\DipoleDeriv=1.5547341,-0.0565456,0.
 0013228,-0.13303,1.73644,0.0023591,0.0028716,0.0023122,1.8485834,-0.53
 45584,0.1000868,0.2807123,0.0736831,-0.3446395,-0.1585917,0.2524243,-0
 .1682335,-0.6921822,-0.5352116,0.0887534,-0.2847495,0.0635125,-0.33191
 35,0.1438323,-0.2554133,0.1534434,-0.7042571,-0.4033673,-0.0984046,0.0
 020773,-0.1432976,-0.9765542,0.0141485,0.0029923,0.0141177,-0.2871079,
 0.7051212,-0.1433941,0.0024136,-0.2047681,0.1654385,-0.0047339,0.00365
 7,-0.0047767,-0.0740772,-0.786718,0.1095042,-0.0017765,0.3439002,-0.24
 87712,0.0029857,-0.0065318,0.0031369,-0.090959\Polar=33.5403495,-1.599
 2173,28.2028948,0.0268037,-0.0691413,24.7478938\PG=C01 [X(C2F3O1)]\NIm
 ag=0\\0.49821886,-0.01981328,0.52604077,0.00039997,-0.00055066,0.49823
 912,-0.15135823,0.03035088,0.10607653,0.14460796,0.03295430,-0.0930136
 9,-0.04788059,-0.05754102,0.11936194,0.09364880,-0.04542188,-0.2015245
 6,-0.13348013,0.09309126,0.29940875,-0.15160103,0.02605565,-0.10728956
 ,0.02615847,-0.00378643,0.00723507,0.14493102,0.02916396,-0.08939606,0
 .04327374,-0.00408403,0.01470099,-0.00487785,-0.05215838,0.11208264,-0
 .09497651,0.04081937,-0.20489749,-0.00720613,0.00089696,-0.08303761,0.
 13590514,-0.08539170,0.30635982,-0.08028896,-0.02399343,0.00049625,0.0
 0838911,0.03258444,0.01161704,0.00836523,0.03214381,-0.01295499,0.0670
 2369,-0.02574500,-0.27894992,0.00427634,0.02019796,-0.04975109,-0.0364
 1034,0.01991796,-0.04619885,0.03804323,-0.00798896,0.40655345,0.000530
 85,0.00427410,-0.07000801,0.00755941,-0.04907009,-0.00557930,-0.008395
 47,0.05068787,-0.00910681,0.00016958,-0.00667156,0.07911007,-0.0688924
 1,-0.03263934,0.00069052,-0.01947819,-0.00259755,0.01573645,-0.0195305
 8,-0.00324194,-0.01560360,-0.00573362,-0.00228394,0.00005363,0.8315115
 1,-0.01583760,-0.07736037,0.00104628,0.01201521,0.00915731,-0.00732493
 ,0.01086851,0.00922917,0.00659117,-0.03610769,-0.04652496,0.00107608,-
 0.41201236,0.45432356,0.00034992,0.00105758,-0.02631786,0.02805554,0.0
 0485509,-0.00842648,-0.02850703,-0.00556976,-0.00844461,0.00074122,0.0
 0105289,0.00515160,0.00785466,-0.00809174,0.04279335,-0.04607823,0.020
 03952,-0.00037372,-0.00831912,-0.00161375,0.00524277,-0.00832310,-0.00
 182342,-0.00516392,0.00224454,-0.00409802,0.00008200,-0.71787670,0.441
 07392,-0.00849431,0.77835261,-0.00072238,0.01267927,-0.00016510,-0.000
 93901,-0.00045546,0.00094373,-0.00089731,-0.00041788,-0.00095904,0.003
 36183,0.01487137,-0.00029639,0.45277513,-0.34882472,0.00669594,-0.4535
 7826,0.32214741,0.00004697,-0.00017851,0.00450879,-0.00100521,-0.00189
 263,-0.00084080,0.00105184,0.00187770,-0.00087330,-0.00006911,-0.00029
 057,0.00043243,-0.00873166,0.00670314,-0.00475600,0.00870717,-0.006219
 14,0.00152887\\0.00000047,-0.00000048,-0.00000045,-0.00000011,0.000000
 16,0.00000019,-0.00000027,0.00000044,-0.00000004,-0.00000019,0.0000001
 1,0.00000023,0.00000012,-0.00000003,-0.00000013,-0.00000001,-0.0000002
 1,0.00000020\\\@


 FIREWORKS ENDED
 AND SPECTATORS GONE AWAY....
 AH, HOW VAST AND DARK
                     SHIKI
 Job cpu time:       0 days  2 hours 18 minutes 31.4 seconds.
 Elapsed time:       0 days  0 hours  2 minutes 37.1 seconds.
 File lengths (MBytes):  RWF=     43 Int=      0 D2E=      0 Chk=      4 Scr=      1
 Normal termination of Gaussian 16 at Tue Sep 24 09:37:53 2024.
