 Entering Gaussian System, Link 0=/applications/g16/g16/g16
 Initial command:
 /applications/g16/g16/l1.exe "/scratch/g98/Gau-94537.inp" -scrdir="/scratch/g98/"
 Entering Link 1 = /applications/g16/g16/l1.exe PID=     94538.
  
 Copyright (c) 1988,1990,1992,1993,1995,1998,2003,2009,2016,
            Gaussian, Inc.  All Rights Reserved.
  
 This is part of the Gaussian(R) 16 program.  It is based on
 the Gaussian(R) 09 system (copyright 2009, Gaussian, Inc.),
 the Gaussian(R) 03 system (copyright 2003, Gaussian, Inc.),
 the Gaussian(R) 98 system (copyright 1998, Gaussian, Inc.),
 the Gaussian(R) 94 system (copyright 1995, Gaussian, Inc.),
 the Gaussian 92(TM) system (copyright 1992, Gaussian, Inc.),
 the Gaussian 90(TM) system (copyright 1990, Gaussian, Inc.),
 the Gaussian 88(TM) system (copyright 1988, Gaussian, Inc.),
 the Gaussian 86(TM) system (copyright 1986, Carnegie Mellon
 University), and the Gaussian 82(TM) system (copyright 1983,
 Carnegie Mellon University). Gaussian is a federally registered
 trademark of Gaussian, Inc.
  
 This software contains proprietary and confidential information,
 including trade secrets, belonging to Gaussian, Inc.
  
 This software is provided under written license and may be
 used, copied, transmitted, or stored only in accord with that
 written license.
  
 The following legend is applicable only to US Government
 contracts under FAR:
  
                    RESTRICTED RIGHTS LEGEND
  
 Use, reproduction and disclosure by the US Government is
 subject to restrictions as set forth in subparagraphs (a)
 and (c) of the Commercial Computer Software - Restricted
 Rights clause in FAR 52.227-19.
  
 Gaussian, Inc.
 340 Quinnipiac St., Bldg. 40, Wallingford CT 06492
  
  
 ---------------------------------------------------------------
 Warning -- This program may not be used in any manner that
 competes with the business of Gaussian, Inc. or will provide
 assistance to any competitor of Gaussian, Inc.  The licensee
 of this program is prohibited from giving any competitor of
 Gaussian, Inc. access to this program.  By using this program,
 the user acknowledges that Gaussian, Inc. is engaged in the
 business of creating and licensing software in the field of
 computational chemistry and represents and warrants to the
 licensee that it is not a competitor of Gaussian, Inc. and that
 it will not use this program in any manner prohibited above.
 ---------------------------------------------------------------
  

 Cite this work as:
 Gaussian 16, Revision A.03,
 M. J. Frisch, G. W. Trucks, H. B. Schlegel, G. E. Scuseria, 
 M. A. Robb, J. R. Cheeseman, G. Scalmani, V. Barone, 
 G. A. Petersson, H. Nakatsuji, X. Li, M. Caricato, A. V. Marenich, 
 J. Bloino, B. G. Janesko, R. Gomperts, B. Mennucci, H. P. Hratchian, 
 J. V. Ortiz, A. F. Izmaylov, J. L. Sonnenberg, D. Williams-Young, 
 F. Ding, F. Lipparini, F. Egidi, J. Goings, B. Peng, A. Petrone, 
 T. Henderson, D. Ranasinghe, V. G. Zakrzewski, J. Gao, N. Rega, 
 G. Zheng, W. Liang, M. Hada, M. Ehara, K. Toyota, R. Fukuda, 
 J. Hasegawa, M. Ishida, T. Nakajima, Y. Honda, O. Kitao, H. Nakai, 
 T. Vreven, K. Throssell, J. A. Montgomery, Jr., J. E. Peralta, 
 F. Ogliaro, M. J. Bearpark, J. J. Heyd, E. N. Brothers, K. N. Kudin, 
 V. N. Staroverov, T. A. Keith, R. Kobayashi, J. Normand, 
 K. Raghavachari, A. P. Rendell, J. C. Burant, S. S. Iyengar, 
 J. Tomasi, M. Cossi, J. M. Millam, M. Klene, C. Adamo, R. Cammi, 
 J. W. Ochterski, R. L. Martin, K. Morokuma, O. Farkas, 
 J. B. Foresman, and D. J. Fox, Gaussian, Inc., Wallingford CT, 2016.
 
 ******************************************
 Gaussian 16:  EM64M-G16RevA.03 25-Dec-2016
                17-Jun-2020 
 ******************************************
 %mem=24GB
 %nprocshared=8
 Will use up to    8 processors via shared memory.
 %chk=cf3h.chk
 ------------------------------------------------------
 # freq wb97xd/6-311+g(2d,2p) geom=connectivity scf=xqc
 ------------------------------------------------------
 1/10=4,30=1,38=1,57=2/1,3;
 2/12=2,17=6,18=5,40=1/2;
 3/5=4,6=6,7=212,11=2,25=1,30=1,71=2,74=-58,140=1/1,2,3;
 4//1;
 5/5=2,8=3,13=1,38=5,98=1/2,8;
 8/6=4,10=90,11=11/1;
 11/6=1,8=1,9=11,15=111,16=1/1,2,10;
 10/6=1/2;
 6/7=2,8=2,9=2,10=2,28=1/1;
 7/8=1,10=1,25=1/1,2,3,16;
 1/10=4,30=1/3;
 99//99;
 -------------------
 Title Card Required
 -------------------
 Symbolic Z-matrix:
 Charge =  0 Multiplicity = 1
 C                     0.        0.        0.33879 
 H                     0.        0.        1.42735 
 F                     0.        1.24919  -0.12815 
 F                     1.08183  -0.62459  -0.12815 
 F                    -1.08183  -0.62459  -0.12815 
 

 GradGradGradGradGradGradGradGradGradGradGradGradGradGradGradGradGradGrad
 Berny optimization.
 Initialization pass.
 Trust Radius=3.00D-01 FncErr=1.00D-07 GrdErr=1.00D-07 EigMax=2.50D+02 EigMin=1.00D-04
 Number of steps in this run=      2 maximum allowed number of steps=      2.
 GradGradGradGradGradGradGradGradGradGradGradGradGradGradGradGradGradGrad

                          Input orientation:                          
 ---------------------------------------------------------------------
 Center     Atomic      Atomic             Coordinates (Angstroms)
 Number     Number       Type             X           Y           Z
 ---------------------------------------------------------------------
      1          6           0        0.000000    0.000000    0.338787
      2          1           0        0.000000    0.000000    1.427345
      3          9           0        0.000000    1.249189   -0.128151
      4          9           0        1.081829   -0.624594   -0.128151
      5          9           0       -1.081829   -0.624594   -0.128151
 ---------------------------------------------------------------------
                    Distance matrix (angstroms):
                    1          2          3          4          5
     1  C    0.000000
     2  H    1.088558   0.000000
     3  F    1.333606   1.995004   0.000000
     4  F    1.333605   1.995004   2.163658   0.000000
     5  F    1.333605   1.995004   2.163658   2.163658   0.000000
 Stoichiometry    CHF3
 Framework group  C3V[C3(CH),3SGV(F)]
 Deg. of freedom     3
 Full point group                 C3V     NOp   6
 Largest Abelian subgroup         CS      NOp   2
 Largest concise Abelian subgroup CS      NOp   2
                         Standard orientation:                         
 ---------------------------------------------------------------------
 Center     Atomic      Atomic             Coordinates (Angstroms)
 Number     Number       Type             X           Y           Z
 ---------------------------------------------------------------------
      1          6           0        0.000000   -0.000000    0.338787
      2          1           0        0.000000   -0.000000    1.427345
      3          9           0        0.000000    1.249189   -0.128151
      4          9           0        1.081829   -0.624594   -0.128151
      5          9           0       -1.081829   -0.624594   -0.128151
 ---------------------------------------------------------------------
 Rotational constants (GHZ):          10.3582429          10.3582429           5.6822812
 Standard basis: 6-311+G(2d,2p) (5D, 7F)
 There are    78 symmetry adapted cartesian basis functions of A'  symmetry.
 There are    47 symmetry adapted cartesian basis functions of A"  symmetry.
 There are    72 symmetry adapted basis functions of A'  symmetry.
 There are    45 symmetry adapted basis functions of A"  symmetry.
   117 basis functions,   179 primitive gaussians,   125 cartesian basis functions
    17 alpha electrons       17 beta electrons
       nuclear repulsion energy       133.7922316638 Hartrees.
 NAtoms=    5 NActive=    5 NUniq=    3 SFac= 2.78D+00 NAtFMM=   60 NAOKFM=F Big=F
 Integral buffers will be    131072 words long.
 Raffenetti 2 integral format.
 Two-electron integral symmetry is turned on.
 Nuclear repulsion after empirical dispersion term =      133.7918708177 Hartrees.
 One-electron integrals computed using PRISM.
 NBasis=   117 RedAO= T EigKep=  1.59D-03  NBF=    72    45
 NBsUse=   117 1.00D-06 EigRej= -1.00D+00 NBFU=    72    45
 ExpMin= 4.38D-02 ExpMax= 1.14D+04 ExpMxC= 1.72D+03 IAcc=3 IRadAn=         5 AccDes= 0.00D+00
 Harris functional with IExCor= 4639 and IRadAn=       5 diagonalized for initial guess.
 HarFok:  IExCor= 4639 AccDes= 0.00D+00 IRadAn=         5 IDoV= 1 UseB2=F ITyADJ=14
 ICtDFT=  3500011 ScaDFX=  1.000000  1.000000  1.000000  1.000000
 FoFCou: FMM=F IPFlag=           0 FMFlag=      100000 FMFlg1=           0
         NFxFlg=           0 DoJE=T BraDBF=F KetDBF=T FulRan=T
         wScrn=  0.000000 ICntrl=       500 IOpCl=  0 I1Cent=   200000004 NGrid=           0
         NMat0=    1 NMatS0=      1 NMatT0=    0 NMatD0=    1 NMtDS0=    0 NMtDT0=    0
 Petite list used in FoFCou.
 Initial guess orbital symmetries:
       Occupied  (A1) (E) (E) (A1) (A1) (E) (E) (A1) (A1) (E) (E)
                 (E) (E) (E) (E) (A1) (A2)
       Virtual   (A1) (A1) (E) (E) (A1) (E) (E) (E) (E) (A1) (E)
                 (E) (A1) (A1) (E) (E) (A2) (A1) (E) (E) (A1) (E)
                 (E) (A1) (E) (E) (A1) (A1) (E) (E) (E) (E) (E)
                 (E) (E) (E) (A1) (A1) (A2) (A1) (E) (E) (E) (E)
                 (A2) (E) (E) (A1) (A1) (E) (E) (A2) (E) (E) (E)
                 (E) (A1) (A1) (E) (E) (A1) (E) (E) (A1) (E) (E)
                 (A1) (E) (E) (E) (E) (A1) (E) (E) (A1) (E) (E)
                 (A2) (A1) (E) (E) (A2) (E) (E) (E) (E) (A2) (A1)
                 (E) (E) (A1) (E) (E) (A1) (E) (E) (A1) (E) (E)
                 (A1)
 The electronic state of the initial guess is 1-A1.
 Keep R1 ints in memory in symmetry-blocked form, NReq=71596555.
 Requested convergence on RMS density matrix=1.00D-08 within  32 cycles.
 Requested convergence on MAX density matrix=1.00D-06.
 Requested convergence on             energy=1.00D-06.
 No special actions if energy rises.
 SCF Done:  E(RwB97XD) =  -338.259956890     A.U. after   10 cycles
            NFock= 10  Conv=0.38D-08     -V/T= 2.0025
 QCSCF skips out because SCF is already converged.
 DoSCS=F DFT=T ScalE2(SS,OS)=  1.000000  1.000000
 Range of M.O.s used for correlation:     1   117
 NBasis=   117 NAE=    17 NBE=    17 NFC=     0 NFV=     0
 NROrb=    117 NOA=    17 NOB=    17 NVA=   100 NVB=   100

 **** Warning!!: The largest alpha MO coefficient is  0.12514568D+02

 Symmetrizing basis deriv contribution to polar:
 IMax=3 JMax=2 DiffMx= 0.00D+00
 G2DrvN: will do     6 centers at a time, making    1 passes.
 Calling FoFCou, ICntrl=  3107 FMM=F I1Cent=   0 AccDes= 0.00D+00.
 End of G2Drv F.D. properties file   721 does not exist.
 End of G2Drv F.D. properties file   722 does not exist.
 End of G2Drv F.D. properties file   788 does not exist.
          IDoAtm=11111
          Differentiating once with respect to electric field.
                with respect to dipole field.
          Differentiating once with respect to nuclear coordinates.
 Keep R1 ints in memory in symmetry-blocked form, NReq=71599055.
          There are    12 degrees of freedom in the 1st order CPHF.  IDoFFX=4 NUNeed=    12.
     12 vectors produced by pass  0 Test12= 1.42D-14 8.33D-09 XBig12= 4.64D+00 7.18D-01.
 AX will form    12 AO Fock derivatives at one time.
     12 vectors produced by pass  1 Test12= 1.42D-14 8.33D-09 XBig12= 7.51D-01 1.98D-01.
     12 vectors produced by pass  2 Test12= 1.42D-14 8.33D-09 XBig12= 1.78D-02 3.50D-02.
     12 vectors produced by pass  3 Test12= 1.42D-14 8.33D-09 XBig12= 2.66D-04 4.58D-03.
     12 vectors produced by pass  4 Test12= 1.42D-14 8.33D-09 XBig12= 5.54D-06 5.11D-04.
     12 vectors produced by pass  5 Test12= 1.42D-14 8.33D-09 XBig12= 4.31D-08 4.61D-05.
     11 vectors produced by pass  6 Test12= 1.42D-14 8.33D-09 XBig12= 4.56D-10 3.97D-06.
      6 vectors produced by pass  7 Test12= 1.42D-14 8.33D-09 XBig12= 2.48D-12 3.12D-07.
      3 vectors produced by pass  8 Test12= 1.42D-14 8.33D-09 XBig12= 1.74D-14 3.48D-08.
 InvSVY:  IOpt=1 It=  1 EMax= 1.78D-15
 Solved reduced A of dimension    92 with    12 vectors.
 Isotropic polarizability for W=    0.000000       16.75 Bohr**3.
 End of Minotr F.D. properties file   721 does not exist.
 End of Minotr F.D. properties file   722 does not exist.
 End of Minotr F.D. properties file   788 does not exist.

 **********************************************************************

            Population analysis using the SCF density.

 **********************************************************************

 Orbital symmetries:
       Occupied  (E) (E) (A1) (A1) (A1) (E) (E) (A1) (A1) (E) (E)
                 (E) (E) (E) (E) (A2) (A1)
       Virtual   (A1) (E) (E) (A1) (A1) (E) (E) (A1) (E) (E) (E)
                 (E) (A1) (A1) (E) (E) (A2) (A1) (E) (E) (A1) (E)
                 (E) (A1) (E) (E) (A1) (A1) (E) (E) (E) (E) (E)
                 (E) (E) (E) (A1) (A1) (A2) (A1) (E) (E) (E) (E)
                 (A2) (E) (E) (A1) (A1) (E) (E) (A2) (E) (E) (E)
                 (E) (A1) (A1) (E) (E) (A1) (E) (E) (A1) (E) (E)
                 (A1) (E) (E) (E) (E) (A1) (E) (E) (A1) (E) (E)
                 (A2) (A1) (E) (E) (A2) (E) (E) (E) (E) (A2) (A1)
                 (E) (E) (A1) (E) (E) (A1) (E) (E) (A1) (E) (E)
                 (A1)
 The electronic state is 1-A1.
 Alpha  occ. eigenvalues --  -24.85394 -24.85394 -24.85394 -10.54567  -1.43905
 Alpha  occ. eigenvalues --   -1.34842  -1.34842  -0.83227  -0.71507  -0.70173
 Alpha  occ. eigenvalues --   -0.70173  -0.57562  -0.57562  -0.53829  -0.53829
 Alpha  occ. eigenvalues --   -0.51580  -0.49524
 Alpha virt. eigenvalues --    0.06859   0.09961   0.09961   0.10042   0.21942
 Alpha virt. eigenvalues --    0.23252   0.23252   0.28027   0.29510   0.29510
 Alpha virt. eigenvalues --    0.32395   0.32395   0.34037   0.35202   0.39328
 Alpha virt. eigenvalues --    0.39328   0.40405   0.41642   0.48070   0.48070
 Alpha virt. eigenvalues --    0.54838   0.62980   0.62980   0.71533   0.83989
 Alpha virt. eigenvalues --    0.83989   0.95070   1.05691   1.13654   1.13654
 Alpha virt. eigenvalues --    1.22384   1.22384   1.31410   1.31410   1.38025
 Alpha virt. eigenvalues --    1.38025   1.39060   1.46329   1.46698   1.47948
 Alpha virt. eigenvalues --    1.53615   1.53615   1.92364   1.92364   2.04104
 Alpha virt. eigenvalues --    2.05265   2.05265   2.06999   2.10373   2.15017
 Alpha virt. eigenvalues --    2.15017   2.23006   2.39207   2.39207   2.63788
 Alpha virt. eigenvalues --    2.63788   2.69342   2.80979   2.90730   2.90730
 Alpha virt. eigenvalues --    2.92932   3.35347   3.35347   3.41276   3.50684
 Alpha virt. eigenvalues --    3.50684   3.73761   4.04831   4.04831   4.24180
 Alpha virt. eigenvalues --    4.24180   4.90004   6.35079   6.35079   6.39268
 Alpha virt. eigenvalues --    6.43745   6.43745   6.44113   6.56244   6.81723
 Alpha virt. eigenvalues --    6.81723   9.09301   9.10909   9.10909   9.20961
 Alpha virt. eigenvalues --    9.20961   9.23347   9.24233   9.31876   9.31876
 Alpha virt. eigenvalues --    9.50383   9.67814   9.67814   9.68615   9.82925
 Alpha virt. eigenvalues --    9.82925  24.03541  66.90987  66.90987  66.97214
          Condensed to atoms (all electrons):
               1          2          3          4          5
     1  C    4.225156   0.489044   0.193213   0.193213   0.193213
     2  H    0.489044   0.516181  -0.051568  -0.051568  -0.051568
     3  F    0.193213  -0.051568   9.128682   0.007444   0.007444
     4  F    0.193213  -0.051568   0.007444   9.128682   0.007444
     5  F    0.193213  -0.051568   0.007444   0.007444   9.128682
 Mulliken charges:
               1
     1  C    0.706163
     2  H    0.149479
     3  F   -0.285214
     4  F   -0.285214
     5  F   -0.285214
 Sum of Mulliken charges =  -0.00000
 Mulliken charges with hydrogens summed into heavy atoms:
               1
     1  C    0.855642
     3  F   -0.285214
     4  F   -0.285214
     5  F   -0.285214
 APT charges:
               1
     1  C    1.636680
     2  H   -0.011649
     3  F   -0.541780
     4  F   -0.541703
     5  F   -0.541703
 Sum of APT charges =  -0.00016
 APT charges with hydrogens summed into heavy atoms:
               1
     1  C    1.625031
     3  F   -0.541780
     4  F   -0.541703
     5  F   -0.541703
 Electronic spatial extent (au):  <R**2>=            208.7437
 Charge=             -0.0000 electrons
 Dipole moment (field-independent basis, Debye):
    X=             -0.0000    Y=              0.0000    Z=              1.6781  Tot=              1.6781
 Quadrupole moment (field-independent basis, Debye-Ang):
   XX=            -22.2804   YY=            -22.2804   ZZ=            -18.6111
   XY=              0.0000   XZ=             -0.0000   YZ=              0.0000
 Traceless Quadrupole moment (field-independent basis, Debye-Ang):
   XX=             -1.2231   YY=             -1.2231   ZZ=              2.4462
   XY=              0.0000   XZ=             -0.0000   YZ=              0.0000
 Octapole moment (field-independent basis, Debye-Ang**2):
  XXX=             -0.0000  YYY=             -1.1144  ZZZ=              0.3682  XYY=             -0.0000
  XXY=              1.1144  XXZ=             -0.6452  XZZ=              0.0000  YZZ=              0.0000
  YYZ=             -0.6452  XYZ=              0.0000
 Hexadecapole moment (field-independent basis, Debye-Ang**3):
 XXXX=            -84.2041 YYYY=            -84.2041 ZZZZ=            -23.3435 XXXY=              0.0000
 XXXZ=              0.0000 YYYX=              0.0000 YYYZ=             -0.4122 ZZZX=             -0.0000
 ZZZY=             -0.0000 XXYY=            -28.0680 XXZZ=            -18.3602 YYZZ=            -18.3602
 XXYZ=              0.4122 YYXZ=             -0.0000 ZZXY=              0.0000
 N-N= 1.337918708177D+02 E-N=-1.072687749396D+03  KE= 3.374173994058D+02
 Symmetry A'   KE= 2.292383216431D+02
 Symmetry A"   KE= 1.081790777627D+02
  Exact polarizability:  17.274   0.000  17.279  -0.000  -0.000  15.707
 Approx polarizability:  17.900  -0.000  17.900   0.000   0.000  15.811
 Calling FoFJK, ICntrl=    100127 FMM=F ISym2X=1 I1Cent= 0 IOpClX= 0 NMat=1 NMatS=1 NMatT=0.
 Full mass-weighted force constant matrix:
 Low frequencies ---   -2.9849   -1.3748   -0.0176    2.2093    4.1299    6.1294
 Low frequencies ---  507.0684  507.0702  700.3951
 Diagonal vibrational polarizability:
        7.2131764       7.2230904       2.9032721
 Harmonic frequencies (cm**-1), IR intensities (KM/Mole), Raman scattering
 activities (A**4/AMU), depolarization ratios for plane and unpolarized
 incident light, reduced masses (AMU), force constants (mDyne/A),
 and normal coordinates:
                      1                      2                      3
                      E                      E                     A1
 Frequencies --    507.0683               507.0702               700.3951
 Red. masses --     13.8086                13.8079                13.5520
 Frc consts  --      2.0919                 2.0918                 3.9169
 IR Inten    --      2.2755                 2.2832                13.5837
  Atom  AN      X      Y      Z        X      Y      Z        X      Y      Z
     1   6    -0.25  -0.00  -0.00     0.00  -0.25  -0.00     0.00  -0.00  -0.45
     2   1    -0.51  -0.00  -0.00     0.00  -0.51  -0.00     0.00  -0.00  -0.47
     3   9     0.53  -0.00  -0.00    -0.00  -0.40  -0.06    -0.00   0.43   0.10
     4   9    -0.17   0.40  -0.05     0.40   0.30   0.03     0.37  -0.21   0.10
     5   9    -0.17  -0.40   0.05    -0.40   0.30   0.03    -0.37  -0.21   0.10
                      4                      5                      6
                     A1                      E                      E
 Frequencies --   1147.4054              1156.3633              1156.5254
 Red. masses --      8.4504                 5.5992                 5.5972
 Frc consts  --      6.5549                 4.4113                 4.4109
 IR Inten    --    102.0986               315.7068               315.3318
  Atom  AN      X      Y      Z        X      Y      Z        X      Y      Z
     1   6     0.00   0.00   0.63     0.00   0.51  -0.00     0.51  -0.00  -0.00
     2   1     0.00   0.00   0.66     0.00   0.80  -0.00     0.80  -0.00  -0.00
     3   9    -0.00   0.19  -0.14    -0.00  -0.22   0.12    -0.02   0.00  -0.00
     4   9     0.16  -0.09  -0.14     0.09  -0.07  -0.06    -0.17   0.09   0.10
     5   9    -0.16  -0.09  -0.14    -0.09  -0.07  -0.06    -0.17  -0.09  -0.10
                      7                      8                      9
                      E                      E                     A1
 Frequencies --   1391.1813              1391.1943              3151.5762
 Red. masses --      1.2250                 1.2249                 1.0902
 Frc consts  --      1.3968                 1.3967                 6.3797
 IR Inten    --     45.3519                45.3374                26.2436
  Atom  AN      X      Y      Z        X      Y      Z        X      Y      Z
     1   6    -0.13  -0.00  -0.00     0.00  -0.13  -0.00     0.00  -0.00  -0.09
     2   1     0.99   0.00   0.00    -0.00   0.99   0.00    -0.00  -0.00   1.00
     3   9     0.01   0.00   0.00    -0.00   0.01   0.02     0.00   0.00   0.00
     4   9     0.01   0.00   0.02     0.00   0.01  -0.01     0.00  -0.00   0.00
     5   9     0.01  -0.00  -0.02    -0.00   0.01  -0.01    -0.00  -0.00   0.00

 -------------------
 - Thermochemistry -
 -------------------
 Temperature   298.150 Kelvin.  Pressure   1.00000 Atm.
 Atom     1 has atomic number  6 and mass  12.00000
 Atom     2 has atomic number  1 and mass   1.00783
 Atom     3 has atomic number  9 and mass  18.99840
 Atom     4 has atomic number  9 and mass  18.99840
 Atom     5 has atomic number  9 and mass  18.99840
 Molecular mass:    70.00303 amu.
 Principal axes and moments of inertia in atomic units:
                           1         2         3
     Eigenvalues --   174.23237 174.23237 317.60857
           X           -0.42824   0.90367   0.00000
           Y            0.90367   0.42824   0.00000
           Z           -0.00000   0.00000   1.00000
 This molecule is an oblate symmetric top.
 Rotational symmetry number  3.
 Rotational temperatures (Kelvin)      0.49712     0.49712     0.27271
 Rotational constants (GHZ):          10.35824    10.35824     5.68228
 Zero-point vibrational energy      66445.3 (Joules/Mol)
                                   15.88080 (Kcal/Mol)
 Warning -- explicit consideration of   2 degrees of freedom as
           vibrations may cause significant error
 Vibrational temperatures:    729.56   729.56  1007.71  1650.86  1663.75
          (Kelvin)           1663.98  2001.60  2001.62  4534.42
 
 Zero-point correction=                           0.025308 (Hartree/Particle)
 Thermal correction to Energy=                    0.028767
 Thermal correction to Enthalpy=                  0.029711
 Thermal correction to Gibbs Free Energy=         0.000239
 Sum of electronic and zero-point Energies=           -338.234649
 Sum of electronic and thermal Energies=              -338.231190
 Sum of electronic and thermal Enthalpies=            -338.230246
 Sum of electronic and thermal Free Energies=         -338.259718
 
                     E (Thermal)             CV                S
                      KCal/Mol        Cal/Mol-Kelvin    Cal/Mol-Kelvin
 Total                   18.051             10.189             62.028
 Electronic               0.000              0.000              0.000
 Translational            0.889              2.981             38.655
 Rotational               0.889              2.981             21.598
 Vibrational             16.274              4.227              1.775
 Vibration     1          0.862              1.234              0.641
 Vibration     2          0.862              1.234              0.641
                       Q            Log10(Q)             Ln(Q)
 Total Bot       0.776168D+00         -0.110044         -0.253387
 Total V=0       0.339361D+12         11.530662         26.550330
 Vib (Bot)       0.287758D-11        -11.540973        -26.574072
 Vib (Bot)    1  0.322085D+00         -0.492030         -1.132941
 Vib (Bot)    2  0.322083D+00         -0.492032         -1.132946
 Vib (V=0)       0.125815D+01          0.099733          0.229644
 Vib (V=0)    1  0.109476D+01          0.039319          0.090534
 Vib (V=0)    2  0.109476D+01          0.039318          0.090534
 Electronic      0.100000D+01          0.000000          0.000000
 Translational   0.230213D+08          7.362129         16.951929
 Rotational      0.117165D+05          4.068799          9.368757
 ***** Axes restored to original set *****
 -------------------------------------------------------------------
 Center     Atomic                   Forces (Hartrees/Bohr)
 Number     Number              X              Y              Z
 -------------------------------------------------------------------
      1        6           0.000000000   -0.000000000   -0.000024817
      2        1           0.000000000   -0.000000000   -0.000037339
      3        9          -0.000000000    0.000149961    0.000020719
      4        9           0.000129870   -0.000074981    0.000020719
      5        9          -0.000129870   -0.000074981    0.000020719
 -------------------------------------------------------------------
 Cartesian Forces:  Max     0.000149961 RMS     0.000068684

 GradGradGradGradGradGradGradGradGradGradGradGradGradGradGradGradGradGrad
 Berny optimization.
 Search for a local minimum.
 Step number   1 out of a maximum of    2
 All quantities printed in internal units (Hartrees-Bohrs-Radians)
 Second derivative matrix not updated -- analytic derivatives used.
 The second derivative matrix:
                          X1        Y1        Z1        X2        Y2
           X1           0.50346
           Y1           0.00000   0.50329
           Z1          -0.00000   0.00000   0.75125
           X2          -0.04962   0.00000  -0.00000   0.06567
           Y2           0.00000  -0.04964   0.00000  -0.00000   0.06567
           Z2           0.00000  -0.00001  -0.32638   0.00000  -0.00001
           X3          -0.07342   0.00000  -0.00000   0.00965   0.00000
           Y3           0.00000  -0.22904   0.09851   0.00000  -0.02034
           Z3          -0.00000   0.08427  -0.14163  -0.00000   0.04210
           X4          -0.19017   0.06739   0.08531  -0.01285   0.01299
           Y4           0.06742  -0.11231  -0.04925   0.01299   0.00215
           Z4           0.07298  -0.04213  -0.14162   0.03646  -0.02105
           X5          -0.19017  -0.06739  -0.08531  -0.01285  -0.01299
           Y5          -0.06742  -0.11231  -0.04925  -0.01299   0.00215
           Z5          -0.07298  -0.04213  -0.14162  -0.03646  -0.02105
                          Z2        X3        Y3        Z3        X4
           Z2           0.35047
           X3          -0.00000   0.07782
           Y3           0.01057  -0.00000   0.36643
           Z3          -0.00803   0.00000  -0.11036   0.10581
           X4           0.00915  -0.00703   0.04019  -0.00388   0.29427
           Y4          -0.00528   0.04899  -0.05852  -0.00800  -0.12497
           Z4          -0.00803  -0.00887   0.00064   0.02192  -0.09557
           X5          -0.00915  -0.00703  -0.04019   0.00388  -0.08426
           Y5          -0.00528  -0.04899  -0.05852  -0.00800   0.00440
           Z5          -0.00803   0.00887   0.00064   0.02192   0.00499
                          Y4        Z4        X5        Y5        Z5
           Y4           0.14997
           Z4           0.05518   0.10581
           X5          -0.00440  -0.00499   0.29427
           Y5           0.01871   0.00737   0.12497   0.14997
           Z5           0.00737   0.02192   0.09557   0.05518   0.10581
 ITU=  0
     Eigenvalues ---    0.09136   0.09136   0.19580   0.21629   0.21629
     Eigenvalues ---    0.48704   0.73472   0.73490   1.03629
 Angle between quadratic step and forces=  26.76 degrees.
 ClnCor:  largest displacement from symmetrization is 2.36D-08 for atom     2.
 Linear search not attempted -- first point.
 ClnCor:  largest displacement from symmetrization is 1.40D-15 for atom     4.
 B after Tr=    -0.000000    0.000000    0.000066
         Rot=    1.000000    0.000000    0.000000    0.000000 Ang=   0.00 deg.
 Variable       Old X    -DE/DX   Delta X   Delta X   Delta X     New X
                                 (Linear)    (Quad)   (Total)
    X1        0.00000   0.00000   0.00000   0.00000  -0.00000  -0.00000
    Y1        0.00000  -0.00000   0.00000  -0.00000   0.00000   0.00000
    Z1        0.64021  -0.00002   0.00000  -0.00030  -0.00023   0.63998
    X2        0.00000   0.00000   0.00000   0.00000  -0.00000  -0.00000
    Y2        0.00000  -0.00000   0.00000  -0.00000   0.00000   0.00000
    Z2        2.69729  -0.00004   0.00000  -0.00041  -0.00034   2.69695
    X3       -0.00000  -0.00000   0.00000  -0.00000  -0.00000  -0.00000
    Y3        2.36063   0.00015   0.00000   0.00040   0.00040   2.36102
    Z3       -0.24217   0.00002   0.00000   0.00013   0.00019  -0.24198
    X4        2.04436   0.00013   0.00000   0.00035   0.00035   2.04471
    Y4       -1.18031  -0.00007   0.00000  -0.00020  -0.00020  -1.18051
    Z4       -0.24217   0.00002   0.00000   0.00013   0.00019  -0.24198
    X5       -2.04436  -0.00013   0.00000  -0.00035  -0.00035  -2.04471
    Y5       -1.18031  -0.00007   0.00000  -0.00020  -0.00020  -1.18051
    Z5       -0.24217   0.00002   0.00000   0.00013   0.00019  -0.24198
         Item               Value     Threshold  Converged?
 Maximum Force            0.000150     0.000450     YES
 RMS     Force            0.000069     0.000300     YES
 Maximum Displacement     0.000399     0.001800     YES
 RMS     Displacement     0.000225     0.001200     YES
 Predicted change in Energy=-1.050214D-07
 Optimization completed.
    -- Stationary point found.
 GradGradGradGradGradGradGradGradGradGradGradGradGradGradGradGradGradGrad


 ----------------------------------------------------------------------

 Electric dipole moment (input orientation):
 (Debye = 10**-18 statcoulomb cm , SI units = C m)
                  (au)            (Debye)         (10**-30 SI)
   Tot        0.660211D+00      0.167809D+01      0.559750D+01
   x          0.000000D+00      0.000000D+00      0.000000D+00
   y          0.000000D+00      0.000000D+00      0.000000D+00
   z          0.660211D+00      0.167809D+01      0.559750D+01

 Dipole polarizability, Alpha (input orientation).
 (esu units = cm**3 , SI units = C**2 m**2 J**-1)
 Alpha(0;0):
               (au)            (10**-24 esu)      (10**-40 SI)
   iso        0.167532D+02      0.248256D+01      0.276223D+01
   aniso      0.156966D+01      0.232600D+00      0.258802D+00
   xx         0.172741D+02      0.255976D+01      0.284812D+01
   yx         0.000000D+00      0.000000D+00      0.000000D+00
   yy         0.172787D+02      0.256043D+01      0.284887D+01
   zx         0.000000D+00      0.000000D+00      0.000000D+00
   zy         0.000000D+00      0.000000D+00      0.000000D+00
   zz         0.157067D+02      0.232750D+01      0.258969D+01

 ----------------------------------------------------------------------

 Dipole orientation:
     6          0.00000000          0.00000050          0.64021464
     1          0.00000000          0.00000050          2.69729114
     9         -0.00000034          2.36062509         -0.24217029
     9          2.04436103         -1.18031150         -0.24217029
     9         -2.04436069         -1.18031209         -0.24217029

 Electric dipole moment (dipole orientation):
 (Debye = 10**-18 statcoulomb cm , SI units = C m)
                  (au)            (Debye)         (10**-30 SI)
   Tot        0.660211D+00      0.167809D+01      0.559750D+01
   x          0.000000D+00      0.000000D+00      0.000000D+00
   y          0.000000D+00      0.000000D+00      0.000000D+00
   z          0.660211D+00      0.167809D+01      0.559750D+01

 Dipole polarizability, Alpha (dipole orientation).
 (esu units = cm**3 , SI units = C**2 m**2 J**-1)
 Alpha(0;0):
               (au)            (10**-24 esu)      (10**-40 SI)
   iso        0.167532D+02      0.248256D+01      0.276223D+01
   aniso      0.156966D+01      0.232600D+00      0.258802D+00
   xx         0.172741D+02      0.255976D+01      0.284812D+01
   yx         0.000000D+00      0.000000D+00      0.000000D+00
   yy         0.172787D+02      0.256043D+01      0.284887D+01
   zx         0.000000D+00      0.000000D+00      0.000000D+00
   zy         0.000000D+00      0.000000D+00      0.000000D+00
   zz         0.157067D+02      0.232750D+01      0.258969D+01

 ----------------------------------------------------------------------
 1\1\GINC-CCLEARMO\Freq\RwB97XD\6-311+G(2d,2p)\C1H1F3\RAPPE\17-Jun-2020
 \0\\# freq wb97xd/6-311+g(2d,2p) geom=connectivity scf=xqc\\Title Card
  Required\\0,1\C,0.,0.0000002647,0.338787\H,0.,0.0000002647,1.427345\F
 ,-0.0000001786,1.249189,-0.128151\F,1.0818292682,-0.6245939483,-0.1281
 51\F,-1.0818290896,-0.6245942576,-0.128151\\Version=EM64M-G16RevA.03\S
 tate=1-A1\HF=-338.2599569\RMSD=3.818e-09\RMSF=6.868e-05\ZeroPoint=0.02
 53077\Thermal=0.0287665\Dipole=0.,0.,0.6602105\DipoleDeriv=1.8641098,0
 .,0.,0.,1.8651669,-0.0000919,0.,0.0000125,1.1807638,0.0168862,0.,0.,0.
 ,0.017002,-0.0000527,0.,-0.000003,-0.0688358,-0.3075551,0.,0.,0.,-0.94
 71472,0.1379768,0.,0.2917789,-0.3706388,-0.7869849,0.2768949,0.1194676
 ,0.2767997,-0.4674819,-0.0689523,0.2526653,-0.1458918,-0.3706417,-0.78
 69847,-0.276895,-0.1194676,-0.2767998,-0.4674821,-0.0689523,-0.2526652
 ,-0.1458919,-0.3706417\Polar=17.2741221,0.,17.2786639,0.,-0.0000047,15
 .7067374\Quadrupole=-0.9093591,-0.9093591,1.8187181,0.,0.,0.\PG=C03V [
 C3(C1H1),3SGV(F1)]\NImag=0\\0.50345772,0.,0.50329053,0.,0.00000391,0.7
 5124648,-0.04962193,0.,0.,0.06567094,0.,-0.04963782,0.00000179,0.,0.06
 567160,0.,-0.00000823,-0.32637771,0.,-0.00000711,0.35047408,-0.0734182
 8,0.00000002,-0.00000001,0.00964714,0.,0.,0.07782181,0.00000002,-0.229
 04122,0.09850600,0.,-0.02034006,0.01057447,-0.00000004,0.36642590,-0.0
 0000001,0.08426946,-0.14162660,0.,0.04209619,-0.00802606,0.00000002,-0
 .11035733,0.10580734,-0.19017214,0.06739374,0.08530815,-0.01284567,0.0
 1298617,0.00915463,-0.00703140,0.04018626,-0.00388437,0.29427491,0.067
 41795,-0.11231486,-0.04925441,0.01298943,0.00215175,-0.00528340,0.0489
 8818,-0.05851625,-0.00800408,-0.12496922,0.14997280,0.07298359,-0.0421
 3364,-0.14162384,0.03645776,-0.02104676,-0.00803061,-0.00887392,0.0006
 3808,0.02192266,-0.09557226,0.05517865,0.10580734,-0.19017210,-0.06739
 376,-0.08530813,-0.01284566,-0.01298618,-0.00915462,-0.00703137,-0.040
 18625,0.00388437,-0.08425870,-0.00440098,-0.00498955,0.29427484,-0.067
 41797,-0.11231490,-0.04925443,-0.01298943,0.00215174,-0.00528340,-0.04
 898817,-0.05851628,-0.00800408,0.00440095,0.01871106,0.00736600,0.1249
 6926,0.14997287,-0.07298358,-0.04213366,-0.14162384,-0.03645775,-0.021
 04677,-0.00803061,0.00887392,0.00063808,0.02192266,0.00498955,0.007366
 00,0.02192266,0.09557224,0.05517868,0.10580734\\0.,0.,0.00002482,0.,0.
 ,0.00003734,0.,-0.00014996,-0.00002072,-0.00012987,0.00007498,-0.00002
 072,0.00012987,0.00007498,-0.00002072\\\@


 THE CAUTIOUS SELDOM ERR...CONFUCIUS                   
 Job cpu time:       0 days  0 hours  2 minutes  4.4 seconds.
 Elapsed time:       0 days  0 hours  0 minutes 15.7 seconds.
 File lengths (MBytes):  RWF=     11 Int=      0 D2E=      0 Chk=      2 Scr=      1
 Normal termination of Gaussian 16 at Wed Jun 17 11:50:42 2020.
