 Entering Gaussian System, Link 0=/applications/g16/g16/g16
 Initial command:
 /applications/g16/g16/l1.exe "/scratch/g98/Gau-18279.inp" -scrdir="/scratch/g98/"
 Entering Link 1 = /applications/g16/g16/l1.exe PID=     18280.
  
 Copyright (c) 1988,1990,1992,1993,1995,1998,2003,2009,2016,
            Gaussian, Inc.  All Rights Reserved.
  
 This is part of the Gaussian(R) 16 program.  It is based on
 the Gaussian(R) 09 system (copyright 2009, Gaussian, Inc.),
 the Gaussian(R) 03 system (copyright 2003, Gaussian, Inc.),
 the Gaussian(R) 98 system (copyright 1998, Gaussian, Inc.),
 the Gaussian(R) 94 system (copyright 1995, Gaussian, Inc.),
 the Gaussian 92(TM) system (copyright 1992, Gaussian, Inc.),
 the Gaussian 90(TM) system (copyright 1990, Gaussian, Inc.),
 the Gaussian 88(TM) system (copyright 1988, Gaussian, Inc.),
 the Gaussian 86(TM) system (copyright 1986, Carnegie Mellon
 University), and the Gaussian 82(TM) system (copyright 1983,
 Carnegie Mellon University). Gaussian is a federally registered
 trademark of Gaussian, Inc.
  
 This software contains proprietary and confidential information,
 including trade secrets, belonging to Gaussian, Inc.
  
 This software is provided under written license and may be
 used, copied, transmitted, or stored only in accord with that
 written license.
  
 The following legend is applicable only to US Government
 contracts under FAR:
  
                    RESTRICTED RIGHTS LEGEND
  
 Use, reproduction and disclosure by the US Government is
 subject to restrictions as set forth in subparagraphs (a)
 and (c) of the Commercial Computer Software - Restricted
 Rights clause in FAR 52.227-19.
  
 Gaussian, Inc.
 340 Quinnipiac St., Bldg. 40, Wallingford CT 06492
  
  
 ---------------------------------------------------------------
 Warning -- This program may not be used in any manner that
 competes with the business of Gaussian, Inc. or will provide
 assistance to any competitor of Gaussian, Inc.  The licensee
 of this program is prohibited from giving any competitor of
 Gaussian, Inc. access to this program.  By using this program,
 the user acknowledges that Gaussian, Inc. is engaged in the
 business of creating and licensing software in the field of
 computational chemistry and represents and warrants to the
 licensee that it is not a competitor of Gaussian, Inc. and that
 it will not use this program in any manner prohibited above.
 ---------------------------------------------------------------
  

 Cite this work as:
 Gaussian 16, Revision A.03,
 M. J. Frisch, G. W. Trucks, H. B. Schlegel, G. E. Scuseria, 
 M. A. Robb, J. R. Cheeseman, G. Scalmani, V. Barone, 
 G. A. Petersson, H. Nakatsuji, X. Li, M. Caricato, A. V. Marenich, 
 J. Bloino, B. G. Janesko, R. Gomperts, B. Mennucci, H. P. Hratchian, 
 J. V. Ortiz, A. F. Izmaylov, J. L. Sonnenberg, D. Williams-Young, 
 F. Ding, F. Lipparini, F. Egidi, J. Goings, B. Peng, A. Petrone, 
 T. Henderson, D. Ranasinghe, V. G. Zakrzewski, J. Gao, N. Rega, 
 G. Zheng, W. Liang, M. Hada, M. Ehara, K. Toyota, R. Fukuda, 
 J. Hasegawa, M. Ishida, T. Nakajima, Y. Honda, O. Kitao, H. Nakai, 
 T. Vreven, K. Throssell, J. A. Montgomery, Jr., J. E. Peralta, 
 F. Ogliaro, M. J. Bearpark, J. J. Heyd, E. N. Brothers, K. N. Kudin, 
 V. N. Staroverov, T. A. Keith, R. Kobayashi, J. Normand, 
 K. Raghavachari, A. P. Rendell, J. C. Burant, S. S. Iyengar, 
 J. Tomasi, M. Cossi, J. M. Millam, M. Klene, C. Adamo, R. Cammi, 
 J. W. Ochterski, R. L. Martin, K. Morokuma, O. Farkas, 
 J. B. Foresman, and D. J. Fox, Gaussian, Inc., Wallingford CT, 2016.
 
 ******************************************
 Gaussian 16:  EM64M-G16RevA.03 25-Dec-2016
                18-Jun-2021 
 ******************************************
 %mem=48GB
 %nprocshared=24
 Will use up to   24 processors via shared memory.
 %chk=cf4.chk
 -------------------------------------------------------------
 # opt=calcall wb97xd/6-311+g(2d,2p) geom=connectivity scf=xqc
 -------------------------------------------------------------
 1/10=4,18=20,19=15,26=3,38=1,57=2/1,3;
 2/9=110,12=2,17=6,18=5,40=1/2;
 3/5=4,6=6,7=212,11=2,25=1,30=1,71=2,74=-58,140=1/1,2,3;
 4//1;
 5/5=2,8=3,13=1,38=5/2,8;
 8/6=4,10=90,11=11/1;
 11/6=1,8=1,9=11,15=111,16=1/1,2,10;
 10/6=1/2;
 6/7=2,8=2,9=2,10=2,18=1,28=1/1;
 7/10=1,25=1/1,2,3,16;
 1/10=4,18=20,19=15,26=3/3(3);
 2/9=110/2;
 7/8=1,9=1,25=1,44=-1/16;
 99//99;
 2/9=110/2;
 3/5=4,6=6,7=212,11=2,25=1,30=1,71=2,74=-58,140=1/1,2,3;
 4/5=5,16=3,69=1/1;
 5/5=2,8=3,13=1,38=5/2,8;
 8/6=4,10=90,11=11/1;
 11/6=1,8=1,9=11,15=111,16=1/1,2,10;
 10/6=1/2;
 7/10=1,25=1/1,2,3,16;
 1/10=4,18=20,19=15,26=3/3(-8);
 2/9=110/2;
 6/7=2,8=2,9=2,10=2,18=1,19=2,28=1/1;
 7/8=1,9=1,25=1,44=-1/16;
 99//99;
 -------------------
 Title Card Required
 -------------------
 Symbolic Z-matrix:
 Charge =  0 Multiplicity = 1
 C                     0.        0.        0. 
 F                     0.76148   0.76148   0.76148 
 F                    -0.76148  -0.76148   0.76148 
 F                    -0.76148   0.76148  -0.76148 
 F                     0.76148  -0.76148  -0.76148 
 

 GradGradGradGradGradGradGradGradGradGradGradGradGradGradGradGradGradGrad
 Berny optimization.
 Initialization pass.
                           ----------------------------
                           !    Initial Parameters    !
                           ! (Angstroms and Degrees)  !
 --------------------------                            --------------------------
 ! Name  Definition              Value          Derivative Info.                !
 --------------------------------------------------------------------------------
 ! R1    R(1,2)                  1.3189         calculate D2E/DX2 analytically  !
 ! R2    R(1,3)                  1.3189         calculate D2E/DX2 analytically  !
 ! R3    R(1,4)                  1.3189         calculate D2E/DX2 analytically  !
 ! R4    R(1,5)                  1.3189         calculate D2E/DX2 analytically  !
 ! A1    A(2,1,3)              109.4712         calculate D2E/DX2 analytically  !
 ! A2    A(2,1,4)              109.4712         calculate D2E/DX2 analytically  !
 ! A3    A(2,1,5)              109.4712         calculate D2E/DX2 analytically  !
 ! A4    A(3,1,4)              109.4712         calculate D2E/DX2 analytically  !
 ! A5    A(3,1,5)              109.4712         calculate D2E/DX2 analytically  !
 ! A6    A(4,1,5)              109.4712         calculate D2E/DX2 analytically  !
 ! D1    D(2,1,4,3)           -120.0            calculate D2E/DX2 analytically  !
 ! D2    D(2,1,5,3)            120.0            calculate D2E/DX2 analytically  !
 ! D3    D(2,1,5,4)           -120.0            calculate D2E/DX2 analytically  !
 ! D4    D(3,1,5,4)            120.0            calculate D2E/DX2 analytically  !
 --------------------------------------------------------------------------------
 Trust Radius=3.00D-01 FncErr=1.00D-07 GrdErr=1.00D-06 EigMax=2.50D+02 EigMin=1.00D-04
 Number of steps in this run=     24 maximum allowed number of steps=    100.
 GradGradGradGradGradGradGradGradGradGradGradGradGradGradGradGradGradGrad

                          Input orientation:                          
 ---------------------------------------------------------------------
 Center     Atomic      Atomic             Coordinates (Angstroms)
 Number     Number       Type             X           Y           Z
 ---------------------------------------------------------------------
      1          6           0        0.000000    0.000000    0.000000
      2          9           0        0.761477    0.761477    0.761477
      3          9           0       -0.761477   -0.761477    0.761477
      4          9           0       -0.761477    0.761477   -0.761477
      5          9           0        0.761477   -0.761477   -0.761477
 ---------------------------------------------------------------------
                    Distance matrix (angstroms):
                    1          2          3          4          5
     1  C    0.000000
     2  F    1.318917   0.000000
     3  F    1.318917   2.153782   0.000000
     4  F    1.318917   2.153782   2.153782   0.000000
     5  F    1.318917   2.153782   2.153782   2.153782   0.000000
 Stoichiometry    CF4
 Framework group  TD[O(C),4C3(F)]
 Deg. of freedom     1
 Full point group                 TD      NOp  24
 Largest Abelian subgroup         D2      NOp   4
 Largest concise Abelian subgroup D2      NOp   4
                         Standard orientation:                         
 ---------------------------------------------------------------------
 Center     Atomic      Atomic             Coordinates (Angstroms)
 Number     Number       Type             X           Y           Z
 ---------------------------------------------------------------------
      1          6           0        0.000000    0.000000    0.000000
      2          9           0        0.761477    0.761477    0.761477
      3          9           0       -0.761477   -0.761477    0.761477
      4          9           0       -0.761477    0.761477   -0.761477
      5          9           0        0.761477   -0.761477   -0.761477
 ---------------------------------------------------------------------
 Rotational constants (GHZ):           5.7345129           5.7345129           5.7345129
 Standard basis: 6-311+G(2d,2p) (5D, 7F)
 There are    40 symmetry adapted cartesian basis functions of A   symmetry.
 There are    35 symmetry adapted cartesian basis functions of B1  symmetry.
 There are    35 symmetry adapted cartesian basis functions of B2  symmetry.
 There are    35 symmetry adapted cartesian basis functions of B3  symmetry.
 There are    36 symmetry adapted basis functions of A   symmetry.
 There are    33 symmetry adapted basis functions of B1  symmetry.
 There are    33 symmetry adapted basis functions of B2  symmetry.
 There are    33 symmetry adapted basis functions of B3  symmetry.
   135 basis functions,   210 primitive gaussians,   145 cartesian basis functions
    21 alpha electrons       21 beta electrons
       nuclear repulsion energy       206.0723511415 Hartrees.
 NAtoms=    5 NActive=    5 NUniq=    2 SFac= 4.00D+00 NAtFMM=   60 NAOKFM=F Big=F
 Integral buffers will be    131072 words long.
 Raffenetti 2 integral format.
 Two-electron integral symmetry is turned on.
 Nuclear repulsion after empirical dispersion term =      206.0720119442 Hartrees.
 One-electron integrals computed using PRISM.
 NBasis=   135 RedAO= T EigKep=  1.59D-03  NBF=    36    33    33    33
 NBsUse=   135 1.00D-06 EigRej= -1.00D+00 NBFU=    36    33    33    33
 ExpMin= 4.38D-02 ExpMax= 1.14D+04 ExpMxC= 1.72D+03 IAcc=3 IRadAn=         5 AccDes= 0.00D+00
 Harris functional with IExCor= 4639 and IRadAn=       5 diagonalized for initial guess.
 HarFok:  IExCor= 4639 AccDes= 0.00D+00 IRadAn=         5 IDoV= 1 UseB2=F ITyADJ=14
 ICtDFT=  3500011 ScaDFX=  1.000000  1.000000  1.000000  1.000000
 FoFCou: FMM=F IPFlag=           0 FMFlag=      100000 FMFlg1=           0
         NFxFlg=           0 DoJE=T BraDBF=F KetDBF=T FulRan=T
         wScrn=  0.000000 ICntrl=       500 IOpCl=  0 I1Cent=   200000004 NGrid=           0
         NMat0=    1 NMatS0=      1 NMatT0=    0 NMatD0=    1 NMtDS0=    0 NMtDT0=    0
 Petite list used in FoFCou.
 Initial guess orbital symmetries:
       Occupied  (A1) (T2) (T2) (T2) (A1) (A1) (T2) (T2) (T2) (A1)
                 (T2) (T2) (T2) (E) (E) (T2) (T2) (T2) (T1) (T1)
                 (T1)
       Virtual   (A1) (T2) (T2) (T2) (T2) (T2) (T2) (E) (E) (A1)
                 (A1) (T2) (T2) (T2) (T1) (T1) (T1) (T2) (T2) (T2)
                 (T2) (T2) (T2) (A1) (T2) (T2) (T2) (E) (E) (A1)
                 (T2) (T2) (T2) (T2) (T2) (T2) (E) (E) (A1) (T1)
                 (T1) (T1) (T2) (T2) (T2) (T2) (T2) (T2) (T1) (T1)
                 (T1) (E) (E) (T2) (T2) (T2) (A1) (T1) (T1) (T1)
                 (T2) (T2) (T2) (T2) (T2) (T2) (A1) (E) (E) (E)
                 (E) (T2) (T2) (T2) (T2) (T2) (T2) (E) (E) (T1)
                 (T1) (T1) (A1) (T2) (T2) (T2) (T2) (T2) (T2) (T1)
                 (T1) (T1) (E) (E) (T1) (T1) (T1) (T2) (T2) (T2)
                 (T2) (T2) (T2) (A1) (T2) (T2) (T2) (E) (E) (A1)
                 (T2) (T2) (T2) (A1)
 The electronic state of the initial guess is 1-A1.
 Keep R1 ints in memory in symmetry-blocked form, NReq=107601185.
 Requested convergence on RMS density matrix=1.00D-08 within  32 cycles.
 Requested convergence on MAX density matrix=1.00D-06.
 Requested convergence on             energy=1.00D-06.
 No special actions if energy rises.
 SCF Done:  E(RwB97XD) =  -437.515210684     A.U. after    9 cycles
            NFock=  9  Conv=0.53D-08     -V/T= 2.0024
 QCSCF skips out because SCF is already converged.
 DoSCS=F DFT=T ScalE2(SS,OS)=  1.000000  1.000000
 Range of M.O.s used for correlation:     1   135
 NBasis=   135 NAE=    21 NBE=    21 NFC=     0 NFV=     0
 NROrb=    135 NOA=    21 NOB=    21 NVA=   114 NVB=   114

 **** Warning!!: The largest alpha MO coefficient is  0.14677708D+02

 Symmetrizing basis deriv contribution to polar:
 IMax=3 JMax=2 DiffMx= 0.00D+00
 G2DrvN: will do     6 centers at a time, making    1 passes.
 Calling FoFCou, ICntrl=  3107 FMM=F I1Cent=   0 AccDes= 0.00D+00.
 End of G2Drv F.D. properties file   721 does not exist.
 End of G2Drv F.D. properties file   722 does not exist.
 End of G2Drv F.D. properties file   788 does not exist.
          IDoAtm=11111
          Differentiating once with respect to electric field.
                with respect to dipole field.
          Differentiating once with respect to nuclear coordinates.
 Keep R1 ints in memory in symmetry-blocked form, NReq=107521996.
          There are     9 degrees of freedom in the 1st order CPHF.  IDoFFX=4 NUNeed=     9.
      9 vectors produced by pass  0 Test12= 2.66D-14 1.11D-08 XBig12= 4.29D+00 6.13D-01.
 AX will form     9 AO Fock derivatives at one time.
      9 vectors produced by pass  1 Test12= 2.66D-14 1.11D-08 XBig12= 6.86D-01 2.27D-01.
      9 vectors produced by pass  2 Test12= 2.66D-14 1.11D-08 XBig12= 2.39D-02 3.89D-02.
      9 vectors produced by pass  3 Test12= 2.66D-14 1.11D-08 XBig12= 6.93D-04 6.39D-03.
      9 vectors produced by pass  4 Test12= 2.66D-14 1.11D-08 XBig12= 1.08D-05 6.50D-04.
      9 vectors produced by pass  5 Test12= 2.66D-14 1.11D-08 XBig12= 5.96D-08 5.03D-05.
      9 vectors produced by pass  6 Test12= 2.66D-14 1.11D-08 XBig12= 2.97D-10 3.48D-06.
      7 vectors produced by pass  7 Test12= 2.66D-14 1.11D-08 XBig12= 1.83D-12 4.27D-07.
      3 vectors produced by pass  8 Test12= 2.66D-14 1.11D-08 XBig12= 1.37D-14 2.36D-08.
 InvSVY:  IOpt=1 It=  1 EMax= 4.44D-16
 Solved reduced A of dimension    73 with     9 vectors.
 Isotropic polarizability for W=    0.000000       17.29 Bohr**3.
 End of Minotr F.D. properties file   721 does not exist.
 End of Minotr F.D. properties file   722 does not exist.
 End of Minotr F.D. properties file   788 does not exist.

 **********************************************************************

            Population analysis using the SCF density.

 **********************************************************************

 Orbital symmetries:
       Occupied  (T2) (T2) (T2) (A1) (A1) (A1) (T2) (T2) (T2) (A1)
                 (T2) (T2) (T2) (E) (E) (T2) (T2) (T2) (T1) (T1)
                 (T1)
       Virtual   (A1) (T2) (T2) (T2) (T2) (T2) (T2) (A1) (E) (E)
                 (T2) (T2) (T2) (A1) (T2) (T2) (T2) (T1) (T1) (T1)
                 (A1) (T2) (T2) (T2) (T2) (T2) (T2) (E) (E) (A1)
                 (T2) (T2) (T2) (T2) (T2) (T2) (E) (E) (A1) (T1)
                 (T1) (T1) (T2) (T2) (T2) (T2) (T2) (T2) (T1) (T1)
                 (T1) (E) (E) (T2) (T2) (T2) (A1) (T1) (T1) (T1)
                 (T2) (T2) (T2) (T2) (T2) (T2) (A1) (E) (E) (E)
                 (E) (T2) (T2) (T2) (T2) (T2) (T2) (E) (E) (A1)
                 (T1) (T1) (T1) (T2) (T2) (T2) (T2) (T2) (T2) (T1)
                 (T1) (T1) (E) (E) (T1) (T1) (T1) (T2) (T2) (T2)
                 (T2) (T2) (T2) (A1) (T2) (T2) (T2) (E) (E) (A1)
                 (T2) (T2) (T2) (A1)
 The electronic state is 1-A1.
 Alpha  occ. eigenvalues --  -24.88036 -24.88036 -24.88036 -24.88035 -10.63966
 Alpha  occ. eigenvalues --   -1.50164  -1.38278  -1.38278  -1.38278  -0.84755
 Alpha  occ. eigenvalues --   -0.75232  -0.75232  -0.75232  -0.61387  -0.61387
 Alpha  occ. eigenvalues --   -0.58513  -0.58513  -0.58513  -0.54056  -0.54056
 Alpha  occ. eigenvalues --   -0.54056
 Alpha virt. eigenvalues --    0.07656   0.10530   0.10530   0.10530   0.23717
 Alpha virt. eigenvalues --    0.23717   0.23717   0.26883   0.30994   0.30994
 Alpha virt. eigenvalues --    0.31352   0.31352   0.31352   0.32567   0.38014
 Alpha virt. eigenvalues --    0.38014   0.38014   0.39711   0.39711   0.39711
 Alpha virt. eigenvalues --    0.41679   0.49481   0.49481   0.49481   0.70697
 Alpha virt. eigenvalues --    0.70697   0.70697   0.91389   0.91389   0.96876
 Alpha virt. eigenvalues --    1.16662   1.16662   1.16662   1.31199   1.31199
 Alpha virt. eigenvalues --    1.31199   1.31487   1.31487   1.42677   1.44956
 Alpha virt. eigenvalues --    1.44956   1.44956   1.54401   1.54401   1.54401
 Alpha virt. eigenvalues --    1.95543   1.95543   1.95543   2.01750   2.01750
 Alpha virt. eigenvalues --    2.01750   2.03380   2.03380   2.08687   2.08687
 Alpha virt. eigenvalues --    2.08687   2.16898   2.20954   2.20954   2.20954
 Alpha virt. eigenvalues --    2.64734   2.64734   2.64734   2.69118   2.69118
 Alpha virt. eigenvalues --    2.69118   3.12694   3.30910   3.30910   3.35300
 Alpha virt. eigenvalues --    3.35300   3.51996   3.51996   3.51996   4.23340
 Alpha virt. eigenvalues --    4.23340   4.23340   6.30840   6.30840   6.40947
 Alpha virt. eigenvalues --    6.41640   6.41640   6.41640   6.42293   6.42293
 Alpha virt. eigenvalues --    6.42293   6.86253   6.86253   6.86253   9.06823
 Alpha virt. eigenvalues --    9.06823   9.06823   9.09606   9.09606   9.21288
 Alpha virt. eigenvalues --    9.21288   9.21288   9.24787   9.24787   9.24787
 Alpha virt. eigenvalues --    9.47629   9.47629   9.47629   9.62171   9.82600
 Alpha virt. eigenvalues --    9.82600   9.82600   9.90183   9.90183  24.04367
 Alpha virt. eigenvalues --   66.91182  66.91182  66.91182  66.96876
          Condensed to atoms (all electrons):
               1          2          3          4          5
     1  C    3.781435   0.255029   0.255029   0.255029   0.255029
     2  F    0.255029   9.053103  -0.002840  -0.002840  -0.002840
     3  F    0.255029  -0.002840   9.053103  -0.002840  -0.002840
     4  F    0.255029  -0.002840  -0.002840   9.053103  -0.002840
     5  F    0.255029  -0.002840  -0.002840  -0.002840   9.053103
 Mulliken charges:
               1
     1  C    1.198448
     2  F   -0.299612
     3  F   -0.299612
     4  F   -0.299612
     5  F   -0.299612
 Sum of Mulliken charges =  -0.00000
 Mulliken charges with hydrogens summed into heavy atoms:
               1
     1  C    1.198448
     2  F   -0.299612
     3  F   -0.299612
     4  F   -0.299612
     5  F   -0.299612
 APT charges:
               1
     1  C    2.112796
     2  F   -0.528199
     3  F   -0.528199
     4  F   -0.528199
     5  F   -0.528199
 Sum of APT charges =  -0.00000
 APT charges with hydrogens summed into heavy atoms:
               1
     1  C    2.112796
     2  F   -0.528199
     3  F   -0.528199
     4  F   -0.528199
     5  F   -0.528199
 Electronic spatial extent (au):  <R**2>=            280.5370
 Charge=              0.0000 electrons
 Dipole moment (field-independent basis, Debye):
    X=             -0.0000    Y=              0.0000    Z=              0.0000  Tot=              0.0000
 Quadrupole moment (field-independent basis, Debye-Ang):
   XX=            -25.5128   YY=            -25.5128   ZZ=            -25.5128
   XY=             -0.0000   XZ=              0.0000   YZ=              0.0000
 Traceless Quadrupole moment (field-independent basis, Debye-Ang):
   XX=             -0.0000   YY=              0.0000   ZZ=              0.0000
   XY=             -0.0000   XZ=              0.0000   YZ=              0.0000
 Octapole moment (field-independent basis, Debye-Ang**2):
  XXX=             -0.0000  YYY=              0.0000  ZZZ=             -0.0000  XYY=              0.0000
  XXY=             -0.0000  XXZ=              0.0000  XZZ=             -0.0000  YZZ=             -0.0000
  YYZ=              0.0000  XYZ=             -0.8929
 Hexadecapole moment (field-independent basis, Debye-Ang**3):
 XXXX=            -83.8408 YYYY=            -83.8408 ZZZZ=            -83.8408 XXXY=             -0.0000
 XXXZ=             -0.0000 YYYX=             -0.0000 YYYZ=              0.0000 ZZZX=             -0.0000
 ZZZY=             -0.0000 XXYY=            -27.6616 XXZZ=            -27.6616 YYZZ=            -27.6616
 XXYZ=             -0.0000 YYXZ=              0.0000 ZZXY=              0.0000
 N-N= 2.060720119442D+02 E-N=-1.453658714572D+03  KE= 4.364592884999D+02
 Symmetry A    KE= 1.317215997876D+02
 Symmetry B1   KE= 1.015792295708D+02
 Symmetry B2   KE= 1.015792295708D+02
 Symmetry B3   KE= 1.015792295708D+02
  Exact polarizability:  17.289  -0.000  17.289  -0.000  -0.000  17.289
 Approx polarizability:  18.131   0.000  18.131   0.000   0.000  18.131
 Calling FoFJK, ICntrl=    100127 FMM=F ISym2X=1 I1Cent= 0 IOpClX= 0 NMat=1 NMatS=1 NMatT=0.
 ***** Axes restored to original set *****
 -------------------------------------------------------------------
 Center     Atomic                   Forces (Hartrees/Bohr)
 Number     Number              X              Y              Z
 -------------------------------------------------------------------
      1        6           0.000000000    0.000000000    0.000000000
      2        9           0.000000285    0.000000285    0.000000285
      3        9          -0.000000285   -0.000000285    0.000000285
      4        9          -0.000000285    0.000000285   -0.000000285
      5        9           0.000000285   -0.000000285   -0.000000285
 -------------------------------------------------------------------
 Cartesian Forces:  Max     0.000000285 RMS     0.000000255
 FormGI is forming the generalized inverse of G from B-inverse, IUseBI=4.

 GradGradGradGradGradGradGradGradGradGradGradGradGradGradGradGradGradGrad
 Berny optimization.
 Internal  Forces:  Max     0.000000494 RMS     0.000000264
 Search for a local minimum.
 Step number   1 out of a maximum of   24
 All quantities printed in internal units (Hartrees-Bohrs-Radians)
 Mixed Optimization -- En-DIIS/RFO-DIIS
 Second derivative matrix not updated -- analytic derivatives used.
 The second derivative matrix:
                          R1        R2        R3        R4        A1
           R1           0.43488
           R2           0.05633   0.43488
           R3           0.05633   0.05633   0.43488
           R4           0.05633   0.05633   0.05633   0.43488
           A1           0.00964   0.00964  -0.00605  -0.01322   0.04543
           A2           0.01510  -0.00390   0.01681  -0.02802  -0.01465
           A3           0.02952  -0.02369  -0.02622   0.02040  -0.02803
           A4          -0.00390   0.01510   0.01681  -0.02802  -0.01465
           A5          -0.02369   0.02952  -0.02622   0.02040  -0.02803
           A6          -0.02667  -0.02667   0.02488   0.02847   0.03995
           D1          -0.01867  -0.01867  -0.01318   0.05051  -0.03769
           D2           0.01537   0.01537  -0.03953   0.00878   0.02131
           D3          -0.02024   0.03561  -0.01976   0.00439   0.01065
           D4          -0.03561   0.02024   0.01976  -0.00439  -0.01065
                          A2        A3        A4        A5        A6
           A2           0.09124
           A3          -0.05224   0.17801
           A4           0.00510   0.03739   0.09124
           A5           0.03739  -0.07701  -0.05224   0.17801
           A6          -0.06684  -0.05812  -0.06684  -0.05812   0.20997
           D1          -0.04105   0.04343  -0.04105   0.04343   0.03294
           D2          -0.02704   0.02751  -0.02704   0.02751  -0.02226
           D3          -0.03883  -0.00944   0.01179   0.03695  -0.01113
           D4          -0.01179  -0.03695   0.03883   0.00944   0.01113
                          D1        D2        D3        D4
           D1           0.09644
           D2           0.00702   0.05979
           D3           0.00351   0.02990   0.06015
           D4          -0.00351  -0.02990   0.03025   0.06015
 ITU=  0
     Eigenvalues ---    0.10515   0.11917   0.17856   0.27714   0.27784
     Eigenvalues ---    0.41298   0.41309   0.42212   0.60388
 RFO step:  Lambda= 0.00000000D+00 EMin= 1.05148094D-01
 Linear search not attempted -- first point.
 Iteration  1 RMS(Cart)=  0.00000044 RMS(Int)=  0.00000000
 ClnCor:  largest displacement from symmetrization is 1.04D-12 for atom     3.
 Variable       Old X    -DE/DX   Delta X   Delta X   Delta X     New X
                                 (Linear)    (Quad)   (Total)
    R1        2.49239   0.00000   0.00000   0.00000   0.00000   2.49239
    R2        2.49239   0.00000   0.00000   0.00000   0.00000   2.49239
    R3        2.49239   0.00000   0.00000   0.00000   0.00000   2.49239
    R4        2.49239   0.00000   0.00000   0.00000   0.00000   2.49239
    A1        1.91063   0.00000   0.00000   0.00000   0.00000   1.91063
    A2        1.91063  -0.00000   0.00000  -0.00000   0.00000   1.91063
    A3        1.91063  -0.00000   0.00000  -0.00000   0.00000   1.91063
    A4        1.91063  -0.00000   0.00000  -0.00000   0.00000   1.91063
    A5        1.91063  -0.00000   0.00000  -0.00000   0.00000   1.91063
    A6        1.91063   0.00000   0.00000   0.00000   0.00000   1.91063
    D1       -2.09440  -0.00000   0.00000  -0.00000   0.00000  -2.09440
    D2        2.09440   0.00000   0.00000   0.00000   0.00000   2.09440
    D3       -2.09440   0.00000   0.00000   0.00000   0.00000  -2.09440
    D4        2.09440  -0.00000   0.00000  -0.00000  -0.00000   2.09440
         Item               Value     Threshold  Converged?
 Maximum Force            0.000000     0.000450     YES
 RMS     Force            0.000000     0.000300     YES
 Maximum Displacement     0.000000     0.001800     YES
 RMS     Displacement     0.000000     0.001200     YES
 Predicted change in Energy=-8.069932D-13
 Optimization completed.
    -- Stationary point found.
                           ----------------------------
                           !   Optimized Parameters   !
                           ! (Angstroms and Degrees)  !
 --------------------------                            --------------------------
 ! Name  Definition              Value          Derivative Info.                !
 --------------------------------------------------------------------------------
 ! R1    R(1,2)                  1.3189         -DE/DX =    0.0                 !
 ! R2    R(1,3)                  1.3189         -DE/DX =    0.0                 !
 ! R3    R(1,4)                  1.3189         -DE/DX =    0.0                 !
 ! R4    R(1,5)                  1.3189         -DE/DX =    0.0                 !
 ! A1    A(2,1,3)              109.4712         -DE/DX =    0.0                 !
 ! A2    A(2,1,4)              109.4712         -DE/DX =    0.0                 !
 ! A3    A(2,1,5)              109.4712         -DE/DX =    0.0                 !
 ! A4    A(3,1,4)              109.4712         -DE/DX =    0.0                 !
 ! A5    A(3,1,5)              109.4712         -DE/DX =    0.0                 !
 ! A6    A(4,1,5)              109.4712         -DE/DX =    0.0                 !
 ! D1    D(2,1,4,3)           -120.0            -DE/DX =    0.0                 !
 ! D2    D(2,1,5,3)            120.0            -DE/DX =    0.0                 !
 ! D3    D(2,1,5,4)           -120.0            -DE/DX =    0.0                 !
 ! D4    D(3,1,5,4)            120.0            -DE/DX =    0.0                 !
 --------------------------------------------------------------------------------
 GradGradGradGradGradGradGradGradGradGradGradGradGradGradGradGradGradGrad

                          Input orientation:                          
 ---------------------------------------------------------------------
 Center     Atomic      Atomic             Coordinates (Angstroms)
 Number     Number       Type             X           Y           Z
 ---------------------------------------------------------------------
      1          6           0        0.000000    0.000000    0.000000
      2          9           0        0.761477    0.761477    0.761477
      3          9           0       -0.761477   -0.761477    0.761477
      4          9           0       -0.761477    0.761477   -0.761477
      5          9           0        0.761477   -0.761477   -0.761477
 ---------------------------------------------------------------------
                    Distance matrix (angstroms):
                    1          2          3          4          5
     1  C    0.000000
     2  F    1.318917   0.000000
     3  F    1.318917   2.153782   0.000000
     4  F    1.318917   2.153782   2.153782   0.000000
     5  F    1.318917   2.153782   2.153782   2.153782   0.000000
 Stoichiometry    CF4
 Framework group  TD[O(C),4C3(F)]
 Deg. of freedom     1
 Full point group                 TD      NOp  24
 Largest Abelian subgroup         D2      NOp   4
 Largest concise Abelian subgroup D2      NOp   4
                         Standard orientation:                         
 ---------------------------------------------------------------------
 Center     Atomic      Atomic             Coordinates (Angstroms)
 Number     Number       Type             X           Y           Z
 ---------------------------------------------------------------------
      1          6           0        0.000000    0.000000    0.000000
      2          9           0        0.761477    0.761477    0.761477
      3          9           0       -0.761477   -0.761477    0.761477
      4          9           0       -0.761477    0.761477   -0.761477
      5          9           0        0.761477   -0.761477   -0.761477
 ---------------------------------------------------------------------
 Rotational constants (GHZ):           5.7345129           5.7345129           5.7345129
 Rotating derivatives to standard orientation.
 Full mass-weighted force constant matrix:
 Low frequencies ---    0.0009    0.0009    0.0018   29.6212   29.6212   29.6212
 Low frequencies ---  433.4849  433.4849  629.0403
 Diagonal vibrational polarizability:
        7.4749399       7.4749399       7.4749399
 Harmonic frequencies (cm**-1), IR intensities (KM/Mole), Raman scattering
 activities (A**4/AMU), depolarization ratios for plane and unpolarized
 incident light, reduced masses (AMU), force constants (mDyne/A),
 and normal coordinates:
                      1                      2                      3
                      E                      E                     T2
 Frequencies --    433.4849               433.4849               629.0403
 Red. masses --     18.9984                18.9984                18.1864
 Frc consts  --      2.1034                 2.1034                 4.2399
 IR Inten    --      0.0000                 0.0000                 3.8647
  Atom  AN      X      Y      Z        X      Y      Z        X      Y      Z
     1   6     0.00   0.00  -0.00    -0.00   0.00   0.00    -0.34  -0.00  -0.00
     2   9    -0.00  -0.35   0.35     0.41  -0.20  -0.20     0.05  -0.33  -0.33
     3   9     0.00   0.35   0.35    -0.41   0.20  -0.20     0.05  -0.33   0.33
     4   9     0.00  -0.35  -0.35    -0.41  -0.20   0.20     0.05   0.33  -0.33
     5   9    -0.00   0.35  -0.35     0.41   0.20   0.20     0.06   0.33   0.33
                      4                      5                      6
                     T2                     T2                     A1
 Frequencies --    629.0403               629.0403               916.4769
 Red. masses --     18.1864                18.1864                18.9984
 Frc consts  --      4.2399                 4.2399                 9.4018
 IR Inten    --      3.8647                 3.8647                 0.0000
  Atom  AN      X      Y      Z        X      Y      Z        X      Y      Z
     1   6    -0.00   0.24   0.24    -0.00  -0.24   0.24     0.00   0.00   0.00
     2   9     0.47   0.19   0.19     0.00   0.27  -0.27     0.29   0.29   0.29
     3   9     0.00  -0.27  -0.27    -0.47  -0.20   0.20    -0.29  -0.29   0.29
     4   9    -0.00  -0.27  -0.27     0.47  -0.20   0.19    -0.29   0.29  -0.29
     5   9    -0.47   0.20   0.20    -0.00   0.27  -0.27     0.29  -0.29  -0.29
                      7                      8                      9
                     T2                     T2                     T2
 Frequencies --   1273.7581              1273.7581              1273.7581
 Red. masses --     13.0214                13.0214                13.0214
 Frc consts  --     12.4475                12.4475                12.4475
 IR Inten    --    434.8128               434.8128               434.8128
  Atom  AN      X      Y      Z        X      Y      Z        X      Y      Z
     1   6     0.92  -0.03  -0.03    -0.00   0.65  -0.65     0.04   0.65   0.65
     2   9    -0.14  -0.08  -0.08    -0.00  -0.04   0.04    -0.13  -0.17  -0.17
     3   9    -0.15  -0.09   0.09    -0.12  -0.16   0.16    -0.01  -0.05  -0.04
     4   9    -0.15   0.09  -0.09     0.12  -0.16   0.16    -0.01  -0.04  -0.05
     5   9    -0.15   0.09   0.09     0.00  -0.04   0.04     0.12  -0.16  -0.16

 -------------------
 - Thermochemistry -
 -------------------
 Temperature   298.150 Kelvin.  Pressure   1.00000 Atm.
 Atom     1 has atomic number  6 and mass  12.00000
 Atom     2 has atomic number  9 and mass  18.99840
 Atom     3 has atomic number  9 and mass  18.99840
 Atom     4 has atomic number  9 and mass  18.99840
 Atom     5 has atomic number  9 and mass  18.99840
 Molecular mass:    87.99361 amu.
 Principal axes and moments of inertia in atomic units:
                           1         2         3
     Eigenvalues --   314.71570 314.71570 314.71570
           X            0.00000   1.00000   0.00000
           Y            1.00000   0.00000   0.00000
           Z            0.00000   0.00000   1.00000
 This molecule is a spherical top.
 Rotational symmetry number 12.
 Rotational temperatures (Kelvin)      0.27521     0.27521     0.27521
 Rotational constants (GHZ):           5.73451     5.73451     5.73451
 Zero-point vibrational energy      44811.2 (Joules/Mol)
                                   10.71013 (Kcal/Mol)
 Warning -- explicit consideration of   2 degrees of freedom as
           vibrations may cause significant error
 Vibrational temperatures:    623.69   623.69   905.05   905.05   905.05
          (Kelvin)           1318.61  1832.65  1832.65  1832.65
 
 Zero-point correction=                           0.017068 (Hartree/Particle)
 Thermal correction to Energy=                    0.020979
 Thermal correction to Enthalpy=                  0.021923
 Thermal correction to Gibbs Free Energy=        -0.007759
 Sum of electronic and zero-point Energies=           -437.498143
 Sum of electronic and thermal Energies=              -437.494232
 Sum of electronic and thermal Enthalpies=            -437.493288
 Sum of electronic and thermal Free Energies=         -437.522969
 
                     E (Thermal)             CV                S
                      KCal/Mol        Cal/Mol-Kelvin    Cal/Mol-Kelvin
 Total                   13.164             12.631             62.470
 Electronic               0.000              0.000              0.000
 Translational            0.889              2.981             39.337
 Rotational               0.889              2.981             20.009
 Vibrational             11.387              6.669              3.124
 Vibration     1          0.794              1.397              0.847
 Vibration     2          0.794              1.397              0.847
                       Q            Log10(Q)             Ln(Q)
 Total Bot       0.370459D+04          3.568741          8.217329
 Total V=0       0.262614D+12         11.419318         26.293951
 Vib (Bot)       0.216804D-07         -7.663932        -17.646855
 Vib (Bot)    1  0.400853D+00         -0.397015         -0.914160
 Vib (Bot)    2  0.400853D+00         -0.397015         -0.914160
 Vib (V=0)       0.153690D+01          0.186645          0.429766
 Vib (V=0)    1  0.114085D+01          0.057227          0.131770
 Vib (V=0)    2  0.114085D+01          0.057227          0.131770
 Electronic      0.100000D+01          0.000000          0.000000
 Translational   0.324437D+08          7.511131         17.295017
 Rotational      0.526674D+04          3.721542          8.569167
 ***** Axes restored to original set *****
 -------------------------------------------------------------------
 Center     Atomic                   Forces (Hartrees/Bohr)
 Number     Number              X              Y              Z
 -------------------------------------------------------------------
      1        6           0.000000000    0.000000000    0.000000000
      2        9           0.000000285    0.000000285    0.000000285
      3        9          -0.000000285   -0.000000285    0.000000285
      4        9          -0.000000285    0.000000285   -0.000000285
      5        9           0.000000285   -0.000000285   -0.000000285
 -------------------------------------------------------------------
 Cartesian Forces:  Max     0.000000285 RMS     0.000000255
 Dipole is zero, so no output in dipole orientation.

 ----------------------------------------------------------------------

 Electric dipole moment (input orientation):
 (Debye = 10**-18 statcoulomb cm , SI units = C m)
                  (au)            (Debye)         (10**-30 SI)
   Tot        0.000000D+00      0.000000D+00      0.000000D+00
   x          0.000000D+00      0.000000D+00      0.000000D+00
   y          0.000000D+00      0.000000D+00      0.000000D+00
   z          0.000000D+00      0.000000D+00      0.000000D+00

 Dipole polarizability, Alpha (input orientation).
 (esu units = cm**3 , SI units = C**2 m**2 J**-1)
 Alpha(0;0):
               (au)            (10**-24 esu)      (10**-40 SI)
   iso        0.172888D+02      0.256193D+01      0.285053D+01
   aniso      0.000000D+00      0.000000D+00      0.000000D+00
   xx         0.172888D+02      0.256193D+01      0.285053D+01
   yx         0.000000D+00      0.000000D+00      0.000000D+00
   yy         0.172888D+02      0.256193D+01      0.285053D+01
   zx         0.000000D+00      0.000000D+00      0.000000D+00
   zy         0.000000D+00      0.000000D+00      0.000000D+00
   zz         0.172888D+02      0.256193D+01      0.285053D+01

 ----------------------------------------------------------------------
 1\1\GINC-CCLEARMO\Freq\RwB97XD\6-311+G(2d,2p)\C1F4\RAPPE\18-Jun-2021\0
 \\# opt=calcall wb97xd/6-311+g(2d,2p) geom=connectivity scf=xqc\\Title
  Card Required\\0,1\C,0.,0.,0.\F,0.761477,0.761477,0.761477\F,-0.76147
 7,-0.761477,0.761477\F,-0.761477,0.761477,-0.761477\F,0.761477,-0.7614
 77,-0.761477\\Version=EM64M-G16RevA.03\State=1-A1\HF=-437.5152107\RMSD
 =5.257e-09\RMSF=2.549e-07\ZeroPoint=0.0170677\Thermal=0.0209787\Dipole
 =0.,0.,0.\DipoleDeriv=2.112796,0.,0.,0.,2.112796,0.,0.,0.,2.112796,-0.
 528199,-0.2138005,-0.2138005,-0.2138005,-0.528199,-0.2138005,-0.213800
 5,-0.2138005,-0.528199,-0.528199,-0.2138005,0.2138005,-0.2138005,-0.52
 8199,0.2138005,0.2138005,0.2138005,-0.528199,-0.528199,0.2138005,-0.21
 38005,0.2138005,-0.528199,0.2138005,-0.2138005,0.2138005,-0.528199,-0.
 528199,0.2138005,0.2138005,0.2138005,-0.528199,-0.2138005,0.2138005,-0
 .2138005,-0.528199\Polar=17.2887783,0.,17.2887783,0.,0.,17.2887783\PG=
 TD [O(C1),4C3(F1)]\NImag=0\\0.59366350,0.,0.59366350,0.,0.,0.59366350,
 -0.14841588,-0.06546412,-0.06546412,0.20077155,-0.06546412,-0.14841588
 ,-0.06546412,0.11705314,0.20077155,-0.06546412,-0.06546412,-0.14841588
 ,0.11705314,0.11705314,0.20077155,-0.14841588,-0.06546412,0.06546412,-
 0.03573620,-0.05158902,0.00619092,0.20077155,-0.06546412,-0.14841588,0
 .06546412,-0.05158902,-0.03573619,0.00619092,0.11705314,0.20077155,0.0
 6546412,0.06546412,-0.14841588,-0.00619092,-0.00619092,0.01911672,-0.1
 1705314,-0.11705314,0.20077155,-0.14841588,0.06546412,-0.06546412,-0.0
 3573620,0.00619092,-0.05158902,0.01911672,-0.00619092,0.00619092,0.200
 77155,0.06546412,-0.14841588,0.06546412,-0.00619092,0.01911672,-0.0061
 9092,0.00619092,-0.03573619,0.05158901,-0.11705314,0.20077155,-0.06546
 412,0.06546412,-0.14841588,-0.05158902,0.00619092,-0.03573619,-0.00619
 092,0.05158901,-0.03573619,0.11705314,-0.11705314,0.20077155,-0.148415
 88,0.06546412,0.06546412,0.01911672,-0.00619092,-0.00619092,-0.0357362
 0,0.00619092,0.05158902,-0.03573620,0.05158902,0.00619092,0.20077155,0
 .06546412,-0.14841588,-0.06546412,0.00619092,-0.03573619,-0.05158901,-
 0.00619092,0.01911672,0.00619092,0.05158902,-0.03573619,-0.00619092,-0
 .11705314,0.20077155,0.06546412,-0.06546412,-0.14841588,0.00619092,-0.
 05158901,-0.03573619,0.05158902,-0.00619092,-0.03573619,-0.00619092,0.
 00619092,0.01911672,-0.11705314,0.11705314,0.20077155\\0.,0.,0.,-0.000
 00028,-0.00000028,-0.00000028,0.00000028,0.00000028,-0.00000028,0.0000
 0028,-0.00000028,0.00000028,-0.00000028,0.00000028,0.00000028\\\@


 THE SCIENTIFIC THEORIST IS NOT TO BE ENVIED. FOR NATURE, OR MORE
 PRECISELY EXPERIMENT, IS AN INEXORABLE AND NOT VERY FRIENDLY JUDGE OF HIS
 WORK.  IT NEVER SAYS "YES" TO A THEORY. IN THE MOST FAVORABLE CASES
 IT SAYS "MAYBE", AND IN THE GREAT MAJORITY OF CASES SIMPLY "NO"...
 PROBABLY EVERY THEORY WILL SOME DAY EXPERIENCE ITS "NO" - MOST
 THEORIES, SOON AFTER CONCEPTION.  -- A.EINSTEIN, NOV 11, 1922.
 Job cpu time:       0 days  0 hours  7 minutes  1.5 seconds.
 Elapsed time:       0 days  0 hours  0 minutes 18.5 seconds.
 File lengths (MBytes):  RWF=     12 Int=      0 D2E=      0 Chk=      3 Scr=      1
 Normal termination of Gaussian 16 at Fri Jun 18 08:51:03 2021.
