 Entering Gaussian System, Link 0=/applications/g16/g16/g16
 Initial command:
 /applications/g16/g16/l1.exe "/scratch/g98/Gau-49769.inp" -scrdir="/scratch/g98/"
 Entering Link 1 = /applications/g16/g16/l1.exe PID=     49770.
  
 Copyright (c) 1988,1990,1992,1993,1995,1998,2003,2009,2016,
            Gaussian, Inc.  All Rights Reserved.
  
 This is part of the Gaussian(R) 16 program.  It is based on
 the Gaussian(R) 09 system (copyright 2009, Gaussian, Inc.),
 the Gaussian(R) 03 system (copyright 2003, Gaussian, Inc.),
 the Gaussian(R) 98 system (copyright 1998, Gaussian, Inc.),
 the Gaussian(R) 94 system (copyright 1995, Gaussian, Inc.),
 the Gaussian 92(TM) system (copyright 1992, Gaussian, Inc.),
 the Gaussian 90(TM) system (copyright 1990, Gaussian, Inc.),
 the Gaussian 88(TM) system (copyright 1988, Gaussian, Inc.),
 the Gaussian 86(TM) system (copyright 1986, Carnegie Mellon
 University), and the Gaussian 82(TM) system (copyright 1983,
 Carnegie Mellon University). Gaussian is a federally registered
 trademark of Gaussian, Inc.
  
 This software contains proprietary and confidential information,
 including trade secrets, belonging to Gaussian, Inc.
  
 This software is provided under written license and may be
 used, copied, transmitted, or stored only in accord with that
 written license.
  
 The following legend is applicable only to US Government
 contracts under FAR:
  
                    RESTRICTED RIGHTS LEGEND
  
 Use, reproduction and disclosure by the US Government is
 subject to restrictions as set forth in subparagraphs (a)
 and (c) of the Commercial Computer Software - Restricted
 Rights clause in FAR 52.227-19.
  
 Gaussian, Inc.
 340 Quinnipiac St., Bldg. 40, Wallingford CT 06492
  
  
 ---------------------------------------------------------------
 Warning -- This program may not be used in any manner that
 competes with the business of Gaussian, Inc. or will provide
 assistance to any competitor of Gaussian, Inc.  The licensee
 of this program is prohibited from giving any competitor of
 Gaussian, Inc. access to this program.  By using this program,
 the user acknowledges that Gaussian, Inc. is engaged in the
 business of creating and licensing software in the field of
 computational chemistry and represents and warrants to the
 licensee that it is not a competitor of Gaussian, Inc. and that
 it will not use this program in any manner prohibited above.
 ---------------------------------------------------------------
  

 Cite this work as:
 Gaussian 16, Revision A.03,
 M. J. Frisch, G. W. Trucks, H. B. Schlegel, G. E. Scuseria, 
 M. A. Robb, J. R. Cheeseman, G. Scalmani, V. Barone, 
 G. A. Petersson, H. Nakatsuji, X. Li, M. Caricato, A. V. Marenich, 
 J. Bloino, B. G. Janesko, R. Gomperts, B. Mennucci, H. P. Hratchian, 
 J. V. Ortiz, A. F. Izmaylov, J. L. Sonnenberg, D. Williams-Young, 
 F. Ding, F. Lipparini, F. Egidi, J. Goings, B. Peng, A. Petrone, 
 T. Henderson, D. Ranasinghe, V. G. Zakrzewski, J. Gao, N. Rega, 
 G. Zheng, W. Liang, M. Hada, M. Ehara, K. Toyota, R. Fukuda, 
 J. Hasegawa, M. Ishida, T. Nakajima, Y. Honda, O. Kitao, H. Nakai, 
 T. Vreven, K. Throssell, J. A. Montgomery, Jr., J. E. Peralta, 
 F. Ogliaro, M. J. Bearpark, J. J. Heyd, E. N. Brothers, K. N. Kudin, 
 V. N. Staroverov, T. A. Keith, R. Kobayashi, J. Normand, 
 K. Raghavachari, A. P. Rendell, J. C. Burant, S. S. Iyengar, 
 J. Tomasi, M. Cossi, J. M. Millam, M. Klene, C. Adamo, R. Cammi, 
 J. W. Ochterski, R. L. Martin, K. Morokuma, O. Farkas, 
 J. B. Foresman, and D. J. Fox, Gaussian, Inc., Wallingford CT, 2016.
 
 ******************************************
 Gaussian 16:  EM64M-G16RevA.03 25-Dec-2016
                14-Oct-2024 
 ******************************************
 %mem=48GB
 %nprocshared=24
 Will use up to   24 processors via shared memory.
 %chk=cfho.chk
 ----------------------------------------------------------
 # opt freq wb97xd/6-311+g(2d,2p) geom=connectivity scf=xqc
 ----------------------------------------------------------
 1/18=20,19=15,26=3,38=1,57=2/1,3;
 2/9=110,12=2,17=6,18=5,40=1/2;
 3/5=4,6=6,7=212,11=2,25=1,30=1,71=1,74=-58/1,2,3;
 4//1;
 5/5=2,8=3,13=1,38=5/2,8;
 6/7=2,8=2,9=2,10=2,28=1/1;
 7//1,2,3,16;
 1/18=20,19=15,26=3/3(2);
 2/9=110/2;
 99//99;
 2/9=110/2;
 3/5=4,6=6,7=212,11=2,25=1,30=1,71=1,74=-58/1,2,3;
 4/5=5,16=3,69=1/1;
 5/5=2,8=3,13=1,38=5/2,8;
 7//1,2,3,16;
 1/18=20,19=15,26=3/3(-5);
 2/9=110/2;
 6/7=2,8=2,9=2,10=2,19=2,28=1/1;
 99/9=1/99;
 -------------------
 Title Card Required
 -------------------
 Symbolic Z-matrix:
 Charge =  0 Multiplicity = 1
 C                    -0.31779  -0.1099    0.20992 
 F                    -0.6183    1.19571   0.37598 
 O                     0.45569  -0.68533   1.01872 
 H                    -0.73729  -0.65543  -0.60942 
 

 GradGradGradGradGradGradGradGradGradGradGradGradGradGradGradGradGradGrad
 Berny optimization.
 Initialization pass.
                           ----------------------------
                           !    Initial Parameters    !
                           ! (Angstroms and Degrees)  !
 --------------------------                            --------------------------
 ! Name  Definition              Value          Derivative Info.                !
 --------------------------------------------------------------------------------
 ! R1    R(1,2)                  1.35           estimate D2E/DX2                !
 ! R2    R(1,3)                  1.2584         estimate D2E/DX2                !
 ! R3    R(1,4)                  1.07           estimate D2E/DX2                !
 ! A1    A(2,1,3)              120.0            estimate D2E/DX2                !
 ! A2    A(2,1,4)              120.0            estimate D2E/DX2                !
 ! A3    A(3,1,4)              120.0            estimate D2E/DX2                !
 ! D1    D(2,1,4,3)            180.0            estimate D2E/DX2                !
 --------------------------------------------------------------------------------
 Trust Radius=3.00D-01 FncErr=1.00D-07 GrdErr=1.00D-06 EigMax=2.50D+02 EigMin=1.00D-04
 Number of steps in this run=     20 maximum allowed number of steps=    100.
 GradGradGradGradGradGradGradGradGradGradGradGradGradGradGradGradGradGrad

                          Input orientation:                          
 ---------------------------------------------------------------------
 Center     Atomic      Atomic             Coordinates (Angstroms)
 Number     Number       Type             X           Y           Z
 ---------------------------------------------------------------------
      1          6           0       -0.317790   -0.109896    0.209917
      2          9           0       -0.618305    1.195712    0.375979
      3          8           0        0.455694   -0.685329    1.018725
      4          1           0       -0.737288   -0.655430   -0.609421
 ---------------------------------------------------------------------
                    Distance matrix (angstroms):
                    1          2          3          4
     1  C    0.000000
     2  F    1.350000   0.000000
     3  O    1.258400   2.259405   0.000000
     4  H    1.070000   2.100452   2.018653   0.000000
 Stoichiometry    CHFO
 Framework group  CS[SG(CHFO)]
 Deg. of freedom     5
 Full point group                 CS      NOp   2
 Largest Abelian subgroup         CS      NOp   2
 Largest concise Abelian subgroup C1      NOp   1
                         Standard orientation:                         
 ---------------------------------------------------------------------
 Center     Atomic      Atomic             Coordinates (Angstroms)
 Number     Number       Type             X           Y           Z
 ---------------------------------------------------------------------
      1          6           0       -0.000000    0.424974    0.000000
      2          9           0       -1.031332   -0.446148   -0.000000
      3          8           0        1.183903   -0.001577   -0.000000
      4          1           0       -0.189230    1.478108    0.000000
 ---------------------------------------------------------------------
 Rotational constants (GHZ):          82.2630959          11.3367714           9.9636670
 Standard basis: 6-311+G(2d,2p) (5D, 7F)
 There are    70 symmetry adapted cartesian basis functions of A'  symmetry.
 There are    26 symmetry adapted cartesian basis functions of A"  symmetry.
 There are    64 symmetry adapted basis functions of A'  symmetry.
 There are    26 symmetry adapted basis functions of A"  symmetry.
    90 basis functions,   137 primitive gaussians,    96 cartesian basis functions
    12 alpha electrons       12 beta electrons
       nuclear repulsion energy        65.5469478454 Hartrees.
 NAtoms=    4 NActive=    4 NUniq=    4 SFac= 1.00D+00 NAtFMM=   60 NAOKFM=F Big=F
 Integral buffers will be    131072 words long.
 Raffenetti 2 integral format.
 Two-electron integral symmetry is turned on.
 Nuclear repulsion after empirical dispersion term =       65.5467597084 Hartrees.
 One-electron integrals computed using PRISM.
 NBasis=    90 RedAO= T EigKep=  1.50D-03  NBF=    64    26
 NBsUse=    90 1.00D-06 EigRej= -1.00D+00 NBFU=    64    26
 ExpMin= 4.38D-02 ExpMax= 1.14D+04 ExpMxC= 1.72D+03 IAcc=3 IRadAn=         5 AccDes= 0.00D+00
 Harris functional with IExCor= 4639 and IRadAn=       5 diagonalized for initial guess.
 HarFok:  IExCor= 4639 AccDes= 0.00D+00 IRadAn=         5 IDoV= 1 UseB2=F ITyADJ=14
 ICtDFT=  3500011 ScaDFX=  1.000000  1.000000  1.000000  1.000000
 FoFCou: FMM=F IPFlag=           0 FMFlag=      100000 FMFlg1=           0
         NFxFlg=           0 DoJE=T BraDBF=F KetDBF=T FulRan=T
         wScrn=  0.000000 ICntrl=       500 IOpCl=  0 I1Cent=   200000004 NGrid=           0
         NMat0=    1 NMatS0=      1 NMatT0=    0 NMatD0=    1 NMtDS0=    0 NMtDT0=    0
 Petite list used in FoFCou.
 Initial guess orbital symmetries:
       Occupied  (A') (A') (A') (A') (A') (A') (A') (A') (A") (A')
                 (A") (A')
       Virtual   (A") (A') (A') (A') (A") (A') (A') (A') (A") (A')
                 (A') (A") (A') (A') (A') (A') (A') (A") (A') (A')
                 (A") (A') (A") (A') (A") (A') (A') (A") (A') (A')
                 (A') (A") (A') (A') (A') (A') (A") (A') (A") (A')
                 (A') (A") (A') (A") (A') (A') (A') (A") (A') (A")
                 (A') (A') (A") (A') (A') (A") (A') (A') (A') (A")
                 (A') (A') (A") (A') (A') (A") (A') (A") (A') (A')
                 (A") (A') (A") (A') (A') (A') (A') (A')
 The electronic state of the initial guess is 1-A'.
 Keep R1 ints in memory in symmetry-blocked form, NReq=38885788.
 Requested convergence on RMS density matrix=1.00D-08 within  32 cycles.
 Requested convergence on MAX density matrix=1.00D-06.
 Requested convergence on             energy=1.00D-06.
 No special actions if energy rises.
 SCF Done:  E(RwB97XD) =  -213.762382486     A.U. after   12 cycles
            NFock= 12  Conv=0.30D-08     -V/T= 2.0041
 QCSCF skips out because SCF is already converged.

 **********************************************************************

            Population analysis using the SCF density.

 **********************************************************************

 Orbital symmetries:
       Occupied  (A') (A') (A') (A') (A') (A') (A') (A") (A') (A')
                 (A") (A')
       Virtual   (A") (A') (A') (A') (A") (A') (A') (A') (A") (A')
                 (A') (A') (A") (A') (A') (A') (A') (A") (A') (A')
                 (A") (A') (A") (A') (A") (A') (A') (A') (A") (A')
                 (A') (A") (A') (A') (A') (A') (A") (A') (A") (A')
                 (A') (A") (A') (A") (A') (A') (A') (A") (A') (A")
                 (A') (A") (A') (A') (A') (A') (A") (A') (A') (A")
                 (A') (A') (A") (A') (A') (A") (A') (A") (A') (A')
                 (A") (A') (A") (A') (A') (A') (A') (A')
 The electronic state is 1-A'.
 Alpha  occ. eigenvalues --  -24.86925 -19.29106 -10.48478  -1.38105  -1.16086
 Alpha  occ. eigenvalues --   -0.78051  -0.67968  -0.60829  -0.60122  -0.52101
 Alpha  occ. eigenvalues --   -0.47150  -0.41365
 Alpha virt. eigenvalues --    0.00648   0.06733   0.08906   0.10012   0.10745
 Alpha virt. eigenvalues --    0.18986   0.25867   0.26540   0.28914   0.28928
 Alpha virt. eigenvalues --    0.31961   0.33228   0.33574   0.38149   0.41069
 Alpha virt. eigenvalues --    0.45620   0.54681   0.56346   0.64895   0.67775
 Alpha virt. eigenvalues --    0.71184   0.79468   0.85069   1.00129   1.03528
 Alpha virt. eigenvalues --    1.05819   1.09414   1.13717   1.14607   1.23629
 Alpha virt. eigenvalues --    1.28938   1.37620   1.40399   1.45206   1.49777
 Alpha virt. eigenvalues --    1.61363   1.68326   1.78807   1.88030   1.93899
 Alpha virt. eigenvalues --    2.08937   2.22479   2.30715   2.33171   2.50100
 Alpha virt. eigenvalues --    2.53900   2.75483   2.82104   2.94687   3.22224
 Alpha virt. eigenvalues --    3.26352   3.33595   3.34256   3.40621   3.68177
 Alpha virt. eigenvalues --    3.98209   3.98240   4.13327   4.81894   5.07680
 Alpha virt. eigenvalues --    5.14402   5.90566   6.35389   6.38878   6.68209
 Alpha virt. eigenvalues --    6.84876   6.91318   7.03466   7.22938   7.24995
 Alpha virt. eigenvalues --    9.13174   9.15836   9.28275   9.48170   9.72772
 Alpha virt. eigenvalues --   24.05549  50.00659  66.89261
          Condensed to atoms (all electrons):
               1          2          3          4
     1  C    4.460669   0.161552   0.464916   0.451914
     2  F    0.161552   9.128891  -0.011999  -0.042012
     3  O    0.464916  -0.011999   7.966768  -0.041703
     4  H    0.451914  -0.042012  -0.041703   0.478336
 Mulliken charges:
               1
     1  C    0.460949
     2  F   -0.236432
     3  O   -0.377982
     4  H    0.153465
 Sum of Mulliken charges =  -0.00000
 Mulliken charges with hydrogens summed into heavy atoms:
               1
     1  C    0.614414
     2  F   -0.236432
     3  O   -0.377982
 Electronic spatial extent (au):  <R**2>=            129.1944
 Charge=              0.0000 electrons
 Dipole moment (field-independent basis, Debye):
    X=             -1.5120    Y=              2.0415    Z=              0.0000  Tot=              2.5404
 Quadrupole moment (field-independent basis, Debye-Ang):
   XX=            -19.6201   YY=            -14.3008   ZZ=            -15.5359
   XY=             -0.6265   XZ=              0.0000   YZ=             -0.0000
 Traceless Quadrupole moment (field-independent basis, Debye-Ang):
   XX=             -3.1345   YY=              2.1848   ZZ=              0.9497
   XY=             -0.6265   XZ=              0.0000   YZ=             -0.0000
 Octapole moment (field-independent basis, Debye-Ang**2):
  XXX=             -6.5750  YYY=              0.9619  ZZZ=              0.0000  XYY=             -2.1396
  XXY=             -1.0480  XXZ=              0.0000  XZZ=             -1.4578  YZZ=             -0.7940
  YYZ=              0.0000  XYZ=             -0.0000
 Hexadecapole moment (field-independent basis, Debye-Ang**3):
 XXXX=            -95.6001 YYYY=            -26.8433 ZZZZ=            -12.4020 XXXY=             -6.8292
 XXXZ=              0.0000 YYYX=             -6.3531 YYYZ=             -0.0000 ZZZX=              0.0000
 ZZZY=             -0.0000 XXYY=            -21.0084 XXZZ=            -17.2630 YYZZ=             -7.6001
 XXYZ=             -0.0000 YYXZ=              0.0000 ZZXY=             -2.1289
 N-N= 6.554675970840D+01 E-N=-6.371029402507D+02  KE= 2.128794481199D+02
 Symmetry A'   KE= 2.028717971360D+02
 Symmetry A"   KE= 1.000765098390D+01
 Calling FoFJK, ICntrl=      2127 FMM=F ISym2X=1 I1Cent= 0 IOpClX= 0 NMat=1 NMatS=1 NMatT=0.
 ***** Axes restored to original set *****
 -------------------------------------------------------------------
 Center     Atomic                   Forces (Hartrees/Bohr)
 Number     Number              X              Y              Z
 -------------------------------------------------------------------
      1        6           0.083883462   -0.035981674    0.099443102
      2        9          -0.000668594   -0.026156716   -0.012530445
      3        8          -0.070048299    0.054342080   -0.072257504
      4        1          -0.013166569    0.007796310   -0.014655153
 -------------------------------------------------------------------
 Cartesian Forces:  Max     0.099443102 RMS     0.052114911

 GradGradGradGradGradGradGradGradGradGradGradGradGradGradGradGradGradGrad
 Berny optimization.
 FormGI is forming the generalized inverse of G from B-inverse, IUseBI=4.
 Internal  Forces:  Max     0.114346814 RMS     0.045724144
 Search for a local minimum.
 Step number   1 out of a maximum of   20
 All quantities printed in internal units (Hartrees-Bohrs-Radians)
 Mixed Optimization -- RFO/linear search
 Second derivative matrix not updated -- first step.
 The second derivative matrix:
                          R1        R2        R3        A1        A2
           R1           0.55021
           R2           0.00000   0.80209
           R3           0.00000   0.00000   0.37230
           A1           0.00000   0.00000   0.00000   0.25000
           A2           0.00000   0.00000   0.00000   0.00000   0.16000
           A3           0.00000   0.00000   0.00000   0.00000   0.00000
           D1           0.00000   0.00000   0.00000   0.00000   0.00000
                          A3        D1
           A3           0.16000
           D1           0.00000   0.00499
 ITU=  0
     Eigenvalues ---    0.00499   0.16000   0.22000   0.37230   0.55021
     Eigenvalues ---    0.80209
 RFO step:  Lambda=-2.12213349D-02 EMin= 4.99391670D-03
 Linear search not attempted -- first point.
 Iteration  1 RMS(Cart)=  0.05888024 RMS(Int)=  0.00205815
 Iteration  2 RMS(Cart)=  0.00190327 RMS(Int)=  0.00000052
 Iteration  3 RMS(Cart)=  0.00000052 RMS(Int)=  0.00000000
 ClnCor:  largest displacement from symmetrization is 7.37D-10 for atom     3.
 Variable       Old X    -DE/DX   Delta X   Delta X   Delta X     New X
                                 (Linear)    (Quad)   (Total)
    R1        2.55113  -0.02669   0.00000  -0.04671  -0.04671   2.50442
    R2        2.37803  -0.11435   0.00000  -0.13889  -0.13889   2.23914
    R3        2.02201   0.01241   0.00000   0.03153   0.03153   2.05354
    A1        2.09440   0.00776   0.00000   0.03217   0.03217   2.12657
    A2        2.09440  -0.02124   0.00000  -0.11191  -0.11191   1.98249
    A3        2.09440   0.01348   0.00000   0.07973   0.07973   2.17413
    D1        3.14159  -0.00000   0.00000  -0.00000  -0.00000   3.14159
         Item               Value     Threshold  Converged?
 Maximum Force            0.114347     0.000450     NO 
 RMS     Force            0.045724     0.000300     NO 
 Maximum Displacement     0.084657     0.001800     NO 
 RMS     Displacement     0.059707     0.001200     NO 
 Predicted change in Energy=-1.106035D-02
 GradGradGradGradGradGradGradGradGradGradGradGradGradGradGradGradGradGrad

                          Input orientation:                          
 ---------------------------------------------------------------------
 Center     Atomic      Atomic             Coordinates (Angstroms)
 Number     Number       Type             X           Y           Z
 ---------------------------------------------------------------------
      1          6           0       -0.289559   -0.127923    0.240759
      2          9           0       -0.617060    1.150914    0.357807
      3          8           0        0.439913   -0.659246    1.008590
      4          1           0       -0.750984   -0.618689   -0.611956
 ---------------------------------------------------------------------
                    Distance matrix (angstroms):
                    1          2          3          4
     1  C    0.000000
     2  F    1.325285   0.000000
     3  O    1.184904   2.194855   0.000000
     4  H    1.086687   2.022342   2.011480   0.000000
 Stoichiometry    CHFO
 Framework group  CS[SG(CHFO)]
 Deg. of freedom     5
 Full point group                 CS      NOp   2
 Largest Abelian subgroup         CS      NOp   2
 Largest concise Abelian subgroup C1      NOp   1
                         Standard orientation:                         
 ---------------------------------------------------------------------
 Center     Atomic      Atomic             Coordinates (Angstroms)
 Number     Number       Type             X           Y           Z
 ---------------------------------------------------------------------
      1          6           0        0.000000    0.399513    0.000000
      2          9           0       -0.975363   -0.497731    0.000000
      3          8           0        1.141558    0.081955   -0.000000
      4          1           0       -0.354202    1.426854    0.000000
 ---------------------------------------------------------------------
 Rotational constants (GHZ):          90.2113069          11.9932433          10.5858902
 Standard basis: 6-311+G(2d,2p) (5D, 7F)
 There are    70 symmetry adapted cartesian basis functions of A'  symmetry.
 There are    26 symmetry adapted cartesian basis functions of A"  symmetry.
 There are    64 symmetry adapted basis functions of A'  symmetry.
 There are    26 symmetry adapted basis functions of A"  symmetry.
    90 basis functions,   137 primitive gaussians,    96 cartesian basis functions
    12 alpha electrons       12 beta electrons
       nuclear repulsion energy        67.7391191209 Hartrees.
 NAtoms=    4 NActive=    4 NUniq=    4 SFac= 1.00D+00 NAtFMM=   60 NAOKFM=F Big=F
 Integral buffers will be    131072 words long.
 Raffenetti 2 integral format.
 Two-electron integral symmetry is turned on.
 Nuclear repulsion after empirical dispersion term =       67.7389559584 Hartrees.
 One-electron integrals computed using PRISM.
 NBasis=    90 RedAO= T EigKep=  1.13D-03  NBF=    64    26
 NBsUse=    90 1.00D-06 EigRej= -1.00D+00 NBFU=    64    26
 Initial guess from the checkpoint file:  "cfho.chk"
 B after Tr=    -0.000000   -0.000000    0.000000
         Rot=    0.999394    0.000000    0.000000   -0.034810 Ang=  -3.99 deg.
 Initial guess orbital symmetries:
       Occupied  (A') (A') (A') (A') (A') (A') (A') (A") (A') (A')
                 (A") (A')
       Virtual   (A") (A') (A') (A') (A") (A') (A') (A') (A") (A')
                 (A') (A') (A") (A') (A') (A') (A') (A") (A') (A')
                 (A") (A') (A") (A') (A") (A') (A') (A') (A") (A')
                 (A') (A") (A') (A') (A') (A') (A") (A') (A") (A')
                 (A') (A") (A') (A") (A') (A') (A') (A") (A') (A")
                 (A') (A") (A') (A') (A') (A') (A") (A') (A') (A")
                 (A') (A') (A") (A') (A') (A") (A') (A") (A') (A')
                 (A") (A') (A") (A') (A') (A') (A') (A')
 ExpMin= 4.38D-02 ExpMax= 1.14D+04 ExpMxC= 1.72D+03 IAcc=2 IRadAn=         4 AccDes= 0.00D+00
 Harris functional with IExCor= 4639 and IRadAn=       4 diagonalized for initial guess.
 HarFok:  IExCor= 4639 AccDes= 0.00D+00 IRadAn=         4 IDoV= 1 UseB2=F ITyADJ=14
 ICtDFT=  3500011 ScaDFX=  1.000000  1.000000  1.000000  1.000000
 FoFCou: FMM=F IPFlag=           0 FMFlag=      100000 FMFlg1=           0
         NFxFlg=           0 DoJE=T BraDBF=F KetDBF=T FulRan=T
         wScrn=  0.000000 ICntrl=       500 IOpCl=  0 I1Cent=   200000004 NGrid=           0
         NMat0=    1 NMatS0=      1 NMatT0=    0 NMatD0=    1 NMtDS0=    0 NMtDT0=    0
 Petite list used in FoFCou.
 Keep R1 ints in memory in symmetry-blocked form, NReq=38885788.
 Requested convergence on RMS density matrix=1.00D-08 within  32 cycles.
 Requested convergence on MAX density matrix=1.00D-06.
 Requested convergence on             energy=1.00D-06.
 No special actions if energy rises.
 SCF Done:  E(RwB97XD) =  -213.775389192     A.U. after   11 cycles
            NFock= 11  Conv=0.39D-08     -V/T= 2.0027
 QCSCF skips out because SCF is already converged.
 Calling FoFJK, ICntrl=      2127 FMM=F ISym2X=1 I1Cent= 0 IOpClX= 0 NMat=1 NMatS=1 NMatT=0.
 ***** Axes restored to original set *****
 -------------------------------------------------------------------
 Center     Atomic                   Forces (Hartrees/Bohr)
 Number     Number              X              Y              Z
 -------------------------------------------------------------------
      1        6           0.018267005   -0.016351967    0.017875100
      2        9          -0.004662705    0.005055299   -0.004171425
      3        8          -0.008542170    0.006659671   -0.008797005
      4        1          -0.005062130    0.004636997   -0.004906669
 -------------------------------------------------------------------
 Cartesian Forces:  Max     0.018267005 RMS     0.010211091

 GradGradGradGradGradGradGradGradGradGradGradGradGradGradGradGradGradGrad
 Berny optimization.
 Using GEDIIS/GDIIS optimizer.
 FormGI is forming the generalized inverse of G from B-inverse, IUseBI=4.
 Internal  Forces:  Max     0.013945767 RMS     0.007455095
 Search for a local minimum.
 Step number   2 out of a maximum of   20
 All quantities printed in internal units (Hartrees-Bohrs-Radians)
 Mixed Optimization -- RFO/linear search
 Update second derivatives using D2CorX and points    1    2
 DE= -1.30D-02 DEPred=-1.11D-02 R= 1.18D+00
 TightC=F SS=  1.41D+00  RLast= 2.06D-01 DXNew= 5.0454D-01 6.1760D-01
 Trust test= 1.18D+00 RLast= 2.06D-01 DXMaxT set to 5.05D-01
 The second derivative matrix:
                          R1        R2        R3        A1        A2
           R1           0.57671
           R2           0.04222   0.75964
           R3          -0.00066   0.01623   0.36959
           A1           0.00407   0.02516  -0.00304   0.24745
           A2          -0.00193  -0.03388   0.00490   0.00495   0.15149
           A3           0.00152   0.02460  -0.00353  -0.00354   0.00611
           D1           0.00000   0.00000  -0.00000  -0.00000   0.00000
                          A3        D1
           A3           0.15561
           D1          -0.00000   0.00499
 ITU=  1  0
 Use linear search instead of GDIIS.
     Eigenvalues ---    0.00499   0.14360   0.21696   0.36925   0.56762
     Eigenvalues ---    0.77320
 RFO step:  Lambda=-6.00080657D-04 EMin= 4.99391670D-03
 Quartic linear search produced a step of  0.15467.
 Iteration  1 RMS(Cart)=  0.02342414 RMS(Int)=  0.00051273
 Iteration  2 RMS(Cart)=  0.00051427 RMS(Int)=  0.00000007
 Iteration  3 RMS(Cart)=  0.00000006 RMS(Int)=  0.00000000
 ClnCor:  largest displacement from symmetrization is 2.16D-08 for atom     1.
 Variable       Old X    -DE/DX   Delta X   Delta X   Delta X     New X
                                 (Linear)    (Quad)   (Total)
    R1        2.50442   0.00566  -0.00722   0.01951   0.01229   2.51671
    R2        2.23914  -0.01395  -0.02148   0.00104  -0.02044   2.21870
    R3        2.05354   0.00391   0.00488   0.00637   0.01125   2.06479
    A1        2.12657   0.00442   0.00498   0.01604   0.02102   2.14759
    A2        1.98249  -0.00989  -0.01731  -0.03886  -0.05617   1.92632
    A3        2.17413   0.00547   0.01233   0.02282   0.03515   2.20928
    D1        3.14159  -0.00000   0.00000  -0.00000   0.00000   3.14159
         Item               Value     Threshold  Converged?
 Maximum Force            0.013946     0.000450     NO 
 RMS     Force            0.007455     0.000300     NO 
 Maximum Displacement     0.035518     0.001800     NO 
 RMS     Displacement     0.023636     0.001200     NO 
 Predicted change in Energy=-7.283624D-04
 GradGradGradGradGradGradGradGradGradGradGradGradGradGradGradGradGradGrad

                          Input orientation:                          
 ---------------------------------------------------------------------
 Center     Atomic      Atomic             Coordinates (Angstroms)
 Number     Number       Type             X           Y           Z
 ---------------------------------------------------------------------
      1          6           0       -0.278502   -0.137718    0.251624
      2          9           0       -0.625020    1.144863    0.344169
      3          8           0        0.444521   -0.662195    1.013620
      4          1           0       -0.758688   -0.599894   -0.614213
 ---------------------------------------------------------------------
                    Distance matrix (angstroms):
                    1          2          3          4
     1  C    0.000000
     2  F    1.331786   0.000000
     3  O    1.174086   2.203983   0.000000
     4  H    1.092638   1.995129   2.025200   0.000000
 Stoichiometry    CHFO
 Framework group  CS[SG(CHFO)]
 Deg. of freedom     5
 Full point group                 CS      NOp   2
 Largest Abelian subgroup         CS      NOp   2
 Largest concise Abelian subgroup C1      NOp   1
                         Standard orientation:                         
 ---------------------------------------------------------------------
 Center     Atomic      Atomic             Coordinates (Angstroms)
 Number     Number       Type             X           Y           Z
 ---------------------------------------------------------------------
      1          6           0       -0.000000    0.392956    0.000000
      2          9           0       -0.967150   -0.522617    0.000000
      3          8           0        1.141543    0.118442   -0.000000
      4          1           0       -0.427994    1.398282    0.000000
 ---------------------------------------------------------------------
 Rotational constants (GHZ):          92.9049398          11.8874913          10.5389927
 Standard basis: 6-311+G(2d,2p) (5D, 7F)
 There are    70 symmetry adapted cartesian basis functions of A'  symmetry.
 There are    26 symmetry adapted cartesian basis functions of A"  symmetry.
 There are    64 symmetry adapted basis functions of A'  symmetry.
 There are    26 symmetry adapted basis functions of A"  symmetry.
    90 basis functions,   137 primitive gaussians,    96 cartesian basis functions
    12 alpha electrons       12 beta electrons
       nuclear repulsion energy        67.7614453328 Hartrees.
 NAtoms=    4 NActive=    4 NUniq=    4 SFac= 1.00D+00 NAtFMM=   60 NAOKFM=F Big=F
 Integral buffers will be    131072 words long.
 Raffenetti 2 integral format.
 Two-electron integral symmetry is turned on.
 Nuclear repulsion after empirical dispersion term =       67.7612839584 Hartrees.
 One-electron integrals computed using PRISM.
 NBasis=    90 RedAO= T EigKep=  1.08D-03  NBF=    64    26
 NBsUse=    90 1.00D-06 EigRej= -1.00D+00 NBFU=    64    26
 Initial guess from the checkpoint file:  "cfho.chk"
 B after Tr=     0.000000    0.000000   -0.000000
         Rot=    0.999896   -0.000000   -0.000000   -0.014406 Ang=  -1.65 deg.
 Initial guess orbital symmetries:
       Occupied  (A') (A') (A') (A') (A') (A') (A') (A") (A') (A')
                 (A") (A')
       Virtual   (A") (A') (A') (A') (A") (A') (A') (A') (A") (A')
                 (A') (A') (A") (A') (A') (A') (A') (A") (A') (A')
                 (A") (A') (A") (A') (A") (A') (A') (A') (A") (A')
                 (A') (A") (A') (A') (A') (A') (A") (A') (A") (A')
                 (A') (A") (A') (A") (A') (A') (A') (A") (A') (A")
                 (A') (A') (A") (A') (A') (A") (A') (A') (A') (A")
                 (A') (A') (A") (A') (A') (A") (A') (A") (A') (A')
                 (A") (A') (A") (A') (A') (A') (A') (A')
 ExpMin= 4.38D-02 ExpMax= 1.14D+04 ExpMxC= 1.72D+03 IAcc=2 IRadAn=         4 AccDes= 0.00D+00
 Harris functional with IExCor= 4639 and IRadAn=       4 diagonalized for initial guess.
 HarFok:  IExCor= 4639 AccDes= 0.00D+00 IRadAn=         4 IDoV= 1 UseB2=F ITyADJ=14
 ICtDFT=  3500011 ScaDFX=  1.000000  1.000000  1.000000  1.000000
 FoFCou: FMM=F IPFlag=           0 FMFlag=      100000 FMFlg1=           0
         NFxFlg=           0 DoJE=T BraDBF=F KetDBF=T FulRan=T
         wScrn=  0.000000 ICntrl=       500 IOpCl=  0 I1Cent=   200000004 NGrid=           0
         NMat0=    1 NMatS0=      1 NMatT0=    0 NMatD0=    1 NMtDS0=    0 NMtDT0=    0
 Petite list used in FoFCou.
 Keep R1 ints in memory in symmetry-blocked form, NReq=38885788.
 Requested convergence on RMS density matrix=1.00D-08 within  32 cycles.
 Requested convergence on MAX density matrix=1.00D-06.
 Requested convergence on             energy=1.00D-06.
 No special actions if energy rises.
 SCF Done:  E(RwB97XD) =  -213.776112313     A.U. after   10 cycles
            NFock= 10  Conv=0.65D-08     -V/T= 2.0026
 QCSCF skips out because SCF is already converged.
 Calling FoFJK, ICntrl=      2127 FMM=F ISym2X=1 I1Cent= 0 IOpClX= 0 NMat=1 NMatS=1 NMatT=0.
 ***** Axes restored to original set *****
 -------------------------------------------------------------------
 Center     Atomic                   Forces (Hartrees/Bohr)
 Number     Number              X              Y              Z
 -------------------------------------------------------------------
      1        6           0.001620005   -0.006999430   -0.000877975
      2        9          -0.001319835    0.004555663    0.000206229
      3        8           0.000940798    0.000948703    0.001715552
      4        1          -0.001240968    0.001495065   -0.001043807
 -------------------------------------------------------------------
 Cartesian Forces:  Max     0.006999430 RMS     0.002653910

 GradGradGradGradGradGradGradGradGradGradGradGradGradGradGradGradGradGrad
 Berny optimization.
 Using GEDIIS/GDIIS optimizer.
 FormGI is forming the generalized inverse of G from B-inverse, IUseBI=4.
 Internal  Forces:  Max     0.004745078 RMS     0.002266896
 Search for a local minimum.
 Step number   3 out of a maximum of   20
 All quantities printed in internal units (Hartrees-Bohrs-Radians)
 Mixed Optimization -- RFO/linear search
 Update second derivatives using D2CorX and points    1    2    3
 DE= -7.23D-04 DEPred=-7.28D-04 R= 9.93D-01
 TightC=F SS=  1.41D+00  RLast= 7.43D-02 DXNew= 8.4853D-01 2.2304D-01
 Trust test= 9.93D-01 RLast= 7.43D-02 DXMaxT set to 5.05D-01
 The second derivative matrix:
                          R1        R2        R3        A1        A2
           R1           0.55682
           R2           0.12056   0.86566
           R3          -0.01848   0.00850   0.36824
           A1          -0.01942  -0.01126  -0.00008   0.25858
           A2           0.03806   0.00546   0.00397  -0.00772   0.16311
           A3          -0.02006   0.04123  -0.00997  -0.00753   0.01679
           D1           0.00000   0.00000   0.00000   0.00000  -0.00000
                          A3        D1
           A3           0.14342
           D1           0.00000   0.00499
 ITU=  1  1  0
 Use linear search instead of GDIIS.
     Eigenvalues ---    0.00499   0.12972   0.23706   0.36656   0.52404
     Eigenvalues ---    0.90905
 RFO step:  Lambda=-9.91660938D-05 EMin= 4.99391670D-03
 Quartic linear search produced a step of  0.18697.
 Iteration  1 RMS(Cart)=  0.00874846 RMS(Int)=  0.00007075
 Iteration  2 RMS(Cart)=  0.00006755 RMS(Int)=  0.00000001
 Iteration  3 RMS(Cart)=  0.00000000 RMS(Int)=  0.00000001
 ClnCor:  largest displacement from symmetrization is 1.80D-08 for atom     1.
 Variable       Old X    -DE/DX   Delta X   Delta X   Delta X     New X
                                 (Linear)    (Quad)   (Total)
    R1        2.51671   0.00475   0.00230   0.00816   0.01046   2.52717
    R2        2.21870   0.00127  -0.00382   0.00288  -0.00094   2.21776
    R3        2.06479   0.00074   0.00210   0.00115   0.00325   2.06804
    A1        2.14759  -0.00118   0.00393  -0.00873  -0.00480   2.14278
    A2        1.92632  -0.00156  -0.01050  -0.00520  -0.01571   1.91062
    A3        2.20928   0.00274   0.00657   0.01394   0.02051   2.22979
    D1        3.14159  -0.00000   0.00000  -0.00000   0.00000   3.14159
         Item               Value     Threshold  Converged?
 Maximum Force            0.004745     0.000450     NO 
 RMS     Force            0.002267     0.000300     NO 
 Maximum Displacement     0.011559     0.001800     NO 
 RMS     Displacement     0.008737     0.001200     NO 
 Predicted change in Energy=-6.931340D-05
 GradGradGradGradGradGradGradGradGradGradGradGradGradGradGradGradGradGrad

                          Input orientation:                          
 ---------------------------------------------------------------------
 Center     Atomic      Atomic             Coordinates (Angstroms)
 Number     Number       Type             X           Y           Z
 ---------------------------------------------------------------------
      1          6           0       -0.275996   -0.143834    0.252357
      2          9           0       -0.626096    1.143715    0.342178
      3          8           0        0.447508   -0.660380    1.018536
      4          1           0       -0.763105   -0.594445   -0.617872
 ---------------------------------------------------------------------
                    Distance matrix (angstroms):
                    1          2          3          4
     1  C    0.000000
     2  F    1.337319   0.000000
     3  O    1.173588   2.205639   0.000000
     4  H    1.094359   1.990394   2.036606   0.000000
 Stoichiometry    CHFO
 Framework group  CS[SG(CHFO)]
 Deg. of freedom     5
 Full point group                 CS      NOp   2
 Largest Abelian subgroup         CS      NOp   2
 Largest concise Abelian subgroup C1      NOp   1
                         Standard orientation:                         
 ---------------------------------------------------------------------
 Center     Atomic      Atomic             Coordinates (Angstroms)
 Number     Number       Type             X           Y           Z
 ---------------------------------------------------------------------
      1          6           0       -0.000000    0.396399    0.000000
      2          9           0       -0.964657   -0.529808    0.000000
      3          8           0        1.141674    0.124573   -0.000000
      4          1           0       -0.451473    1.393291    0.000000
 ---------------------------------------------------------------------
 Rotational constants (GHZ):          92.1336245          11.8665161          10.5125352
 Standard basis: 6-311+G(2d,2p) (5D, 7F)
 There are    70 symmetry adapted cartesian basis functions of A'  symmetry.
 There are    26 symmetry adapted cartesian basis functions of A"  symmetry.
 There are    64 symmetry adapted basis functions of A'  symmetry.
 There are    26 symmetry adapted basis functions of A"  symmetry.
    90 basis functions,   137 primitive gaussians,    96 cartesian basis functions
    12 alpha electrons       12 beta electrons
       nuclear repulsion energy        67.6582681089 Hartrees.
 NAtoms=    4 NActive=    4 NUniq=    4 SFac= 1.00D+00 NAtFMM=   60 NAOKFM=F Big=F
 Integral buffers will be    131072 words long.
 Raffenetti 2 integral format.
 Two-electron integral symmetry is turned on.
 Nuclear repulsion after empirical dispersion term =       67.6581057049 Hartrees.
 One-electron integrals computed using PRISM.
 NBasis=    90 RedAO= T EigKep=  1.07D-03  NBF=    64    26
 NBsUse=    90 1.00D-06 EigRej= -1.00D+00 NBFU=    64    26
 Initial guess from the checkpoint file:  "cfho.chk"
 B after Tr=     0.000000    0.000000    0.000000
         Rot=    0.999994   -0.000000   -0.000000   -0.003369 Ang=  -0.39 deg.
 Initial guess orbital symmetries:
       Occupied  (A') (A') (A') (A') (A') (A') (A') (A") (A') (A')
                 (A") (A')
       Virtual   (A") (A') (A') (A') (A") (A') (A') (A') (A") (A')
                 (A') (A') (A") (A') (A') (A') (A') (A") (A') (A')
                 (A") (A') (A") (A') (A") (A') (A') (A') (A") (A')
                 (A') (A") (A') (A') (A') (A') (A") (A') (A") (A')
                 (A') (A") (A') (A") (A') (A') (A') (A") (A') (A")
                 (A') (A') (A") (A') (A') (A") (A') (A') (A') (A")
                 (A') (A') (A") (A') (A') (A") (A') (A") (A') (A')
                 (A") (A') (A") (A') (A') (A') (A') (A')
 Keep R1 ints in memory in symmetry-blocked form, NReq=38885788.
 Requested convergence on RMS density matrix=1.00D-08 within  32 cycles.
 Requested convergence on MAX density matrix=1.00D-06.
 Requested convergence on             energy=1.00D-06.
 No special actions if energy rises.
 SCF Done:  E(RwB97XD) =  -213.776191406     A.U. after    9 cycles
            NFock=  9  Conv=0.90D-08     -V/T= 2.0027
 QCSCF skips out because SCF is already converged.
 Calling FoFJK, ICntrl=      2127 FMM=F ISym2X=1 I1Cent= 0 IOpClX= 0 NMat=1 NMatS=1 NMatT=0.
 ***** Axes restored to original set *****
 -------------------------------------------------------------------
 Center     Atomic                   Forces (Hartrees/Bohr)
 Number     Number              X              Y              Z
 -------------------------------------------------------------------
      1        6           0.000053981   -0.002334822   -0.000962116
      2        9          -0.000516123    0.002197142    0.000265145
      3        8           0.000215888   -0.000039607    0.000279458
      4        1           0.000246254    0.000177286    0.000417514
 -------------------------------------------------------------------
 Cartesian Forces:  Max     0.002334822 RMS     0.000997361

 GradGradGradGradGradGradGradGradGradGradGradGradGradGradGradGradGradGrad
 Berny optimization.
 Using GEDIIS/GDIIS optimizer.
 FormGI is forming the generalized inverse of G from B-inverse, IUseBI=4.
 Internal  Forces:  Max     0.002268287 RMS     0.000893516
 Search for a local minimum.
 Step number   4 out of a maximum of   20
 All quantities printed in internal units (Hartrees-Bohrs-Radians)
 Mixed Optimization -- En-DIIS/RFO-DIIS
 Update second derivatives using D2CorX and points    1    2    3    4
 DE= -7.91D-05 DEPred=-6.93D-05 R= 1.14D+00
 TightC=F SS=  1.41D+00  RLast= 2.85D-02 DXNew= 8.4853D-01 8.5438D-02
 Trust test= 1.14D+00 RLast= 2.85D-02 DXMaxT set to 5.05D-01
 The second derivative matrix:
                          R1        R2        R3        A1        A2
           R1           0.44183
           R2           0.08685   0.82330
           R3          -0.02006   0.00721   0.37968
           A1           0.00429  -0.00196   0.00046   0.25592
           A2           0.06003  -0.01086  -0.00614  -0.01616   0.16373
           A3          -0.05037   0.02924   0.00694  -0.00218   0.00859
           D1           0.00000   0.00000  -0.00000   0.00000   0.00000
                          A3        D1
           A3           0.16226
           D1          -0.00000   0.00499
 ITU=  1  1  1  0
 Use linear search instead of GDIIS.
     Eigenvalues ---    0.00499   0.13030   0.24059   0.37262   0.45326
     Eigenvalues ---    0.84248
 RFO step:  Lambda=-9.19516676D-06 EMin= 4.99391670D-03
 Quartic linear search produced a step of  0.19303.
 Iteration  1 RMS(Cart)=  0.00157298 RMS(Int)=  0.00000098
 Iteration  2 RMS(Cart)=  0.00000100 RMS(Int)=  0.00000000
 Iteration  3 RMS(Cart)=  0.00000000 RMS(Int)=  0.00000000
 ClnCor:  largest displacement from symmetrization is 5.30D-10 for atom     1.
 Variable       Old X    -DE/DX   Delta X   Delta X   Delta X     New X
                                 (Linear)    (Quad)   (Total)
    R1        2.52717   0.00227   0.00202   0.00362   0.00564   2.53281
    R2        2.21776   0.00033  -0.00018  -0.00011  -0.00029   2.21747
    R3        2.06804  -0.00051   0.00063  -0.00174  -0.00111   2.06693
    A1        2.14278  -0.00021  -0.00093  -0.00003  -0.00096   2.14183
    A2        1.91062   0.00014  -0.00303   0.00155  -0.00148   1.90914
    A3        2.22979   0.00006   0.00396  -0.00152   0.00243   2.23222
    D1        3.14159  -0.00000   0.00000  -0.00000   0.00000   3.14159
         Item               Value     Threshold  Converged?
 Maximum Force            0.002268     0.000450     NO 
 RMS     Force            0.000894     0.000300     NO 
 Maximum Displacement     0.002784     0.001800     NO 
 RMS     Displacement     0.001573     0.001200     NO 
 Predicted change in Energy=-6.670799D-06
 GradGradGradGradGradGradGradGradGradGradGradGradGradGradGradGradGradGrad

                          Input orientation:                          
 ---------------------------------------------------------------------
 Center     Atomic      Atomic             Coordinates (Angstroms)
 Number     Number       Type             X           Y           Z
 ---------------------------------------------------------------------
      1          6           0       -0.275688   -0.145225    0.252165
      2          9           0       -0.626629    1.145189    0.342099
      3          8           0        0.447826   -0.660654    1.018852
      4          1           0       -0.763199   -0.594253   -0.617915
 ---------------------------------------------------------------------
                    Distance matrix (angstroms):
                    1          2          3          4
     1  C    0.000000
     2  F    1.340304   0.000000
     3  O    1.173434   2.207604   0.000000
     4  H    1.093770   1.991466   2.037154   0.000000
 Stoichiometry    CHFO
 Framework group  CS[SG(CHFO)]
 Deg. of freedom     5
 Full point group                 CS      NOp   2
 Largest Abelian subgroup         CS      NOp   2
 Largest concise Abelian subgroup C1      NOp   1
                         Standard orientation:                         
 ---------------------------------------------------------------------
 Center     Atomic      Atomic             Coordinates (Angstroms)
 Number     Number       Type             X           Y           Z
 ---------------------------------------------------------------------
      1          6           0       -0.000000    0.397578    0.000000
      2          9           0       -0.964484   -0.533113    0.000000
      3          8           0        1.141943    0.127553   -0.000000
      4          1           0       -0.455192    1.392129    0.000000
 ---------------------------------------------------------------------
 Rotational constants (GHZ):          91.9451144          11.8436312          10.4921205
 Standard basis: 6-311+G(2d,2p) (5D, 7F)
 There are    70 symmetry adapted cartesian basis functions of A'  symmetry.
 There are    26 symmetry adapted cartesian basis functions of A"  symmetry.
 There are    64 symmetry adapted basis functions of A'  symmetry.
 There are    26 symmetry adapted basis functions of A"  symmetry.
    90 basis functions,   137 primitive gaussians,    96 cartesian basis functions
    12 alpha electrons       12 beta electrons
       nuclear repulsion energy        67.5978518176 Hartrees.
 NAtoms=    4 NActive=    4 NUniq=    4 SFac= 1.00D+00 NAtFMM=   60 NAOKFM=F Big=F
 Integral buffers will be    131072 words long.
 Raffenetti 2 integral format.
 Two-electron integral symmetry is turned on.
 Nuclear repulsion after empirical dispersion term =       67.5976888822 Hartrees.
 One-electron integrals computed using PRISM.
 NBasis=    90 RedAO= T EigKep=  1.07D-03  NBF=    64    26
 NBsUse=    90 1.00D-06 EigRej= -1.00D+00 NBFU=    64    26
 Initial guess from the checkpoint file:  "cfho.chk"
 B after Tr=    -0.000000   -0.000000   -0.000000
         Rot=    0.999999   -0.000000   -0.000000   -0.001266 Ang=  -0.15 deg.
 Initial guess orbital symmetries:
       Occupied  (A') (A') (A') (A') (A') (A') (A') (A") (A') (A')
                 (A") (A')
       Virtual   (A") (A') (A') (A') (A") (A') (A') (A') (A") (A')
                 (A') (A') (A") (A') (A') (A') (A') (A") (A') (A')
                 (A") (A') (A") (A') (A") (A') (A') (A') (A") (A')
                 (A') (A") (A') (A') (A') (A') (A") (A') (A") (A')
                 (A') (A") (A') (A") (A') (A') (A') (A") (A') (A")
                 (A') (A') (A") (A') (A') (A") (A') (A') (A') (A")
                 (A') (A') (A") (A') (A') (A") (A') (A") (A') (A')
                 (A") (A') (A") (A') (A') (A') (A') (A')
 Keep R1 ints in memory in symmetry-blocked form, NReq=38885788.
 Requested convergence on RMS density matrix=1.00D-08 within  32 cycles.
 Requested convergence on MAX density matrix=1.00D-06.
 Requested convergence on             energy=1.00D-06.
 No special actions if energy rises.
 SCF Done:  E(RwB97XD) =  -213.776199261     A.U. after    9 cycles
            NFock=  9  Conv=0.23D-08     -V/T= 2.0027
 QCSCF skips out because SCF is already converged.
 Calling FoFJK, ICntrl=      2127 FMM=F ISym2X=1 I1Cent= 0 IOpClX= 0 NMat=1 NMatS=1 NMatT=0.
 ***** Axes restored to original set *****
 -------------------------------------------------------------------
 Center     Atomic                   Forces (Hartrees/Bohr)
 Number     Number              X              Y              Z
 -------------------------------------------------------------------
      1        6          -0.000118569   -0.000423793   -0.000351253
      2        9          -0.000052383    0.000427761    0.000117803
      3        8           0.000020019    0.000004338    0.000029469
      4        1           0.000150933   -0.000008306    0.000203981
 -------------------------------------------------------------------
 Cartesian Forces:  Max     0.000427761 RMS     0.000220300

 GradGradGradGradGradGradGradGradGradGradGradGradGradGradGradGradGradGrad
 Berny optimization.
 Using GEDIIS/GDIIS optimizer.
 FormGI is forming the generalized inverse of G from B-inverse, IUseBI=4.
 Internal  Forces:  Max     0.000433446 RMS     0.000201669
 Search for a local minimum.
 Step number   5 out of a maximum of   20
 All quantities printed in internal units (Hartrees-Bohrs-Radians)
 Mixed Optimization -- En-DIIS/RFO-DIIS
 Swapping is turned off.
 Update second derivatives using D2CorX and points    1    2    3    4    5
 DE= -7.86D-06 DEPred=-6.67D-06 R= 1.18D+00
 TightC=F SS=  1.41D+00  RLast= 6.49D-03 DXNew= 8.4853D-01 1.9481D-02
 Trust test= 1.18D+00 RLast= 6.49D-03 DXMaxT set to 5.05D-01
 The second derivative matrix:
                          R1        R2        R3        A1        A2
           R1           0.36279
           R2           0.07630   0.86294
           R3           0.01848   0.02427   0.36943
           A1           0.02355   0.00858  -0.00775   0.25177
           A2           0.03020  -0.02142  -0.00057  -0.01370   0.16587
           A3          -0.04179   0.05200   0.00722  -0.00806   0.01108
           D1           0.00000   0.00000   0.00000   0.00000   0.00000
                          A3        D1
           A3           0.16293
           D1          -0.00000   0.00499
 ITU=  1  1  1  1  0
     Eigenvalues ---    0.00499   0.13381   0.23712   0.35831   0.38165
     Eigenvalues ---    0.87844
 En-DIIS/RFO-DIIS/Sim-DIIS IScMMF=       -3 using points:     5    4
 RFO step:  Lambda=-8.62643289D-07.
 DidBck=F Rises=F RFO-DIIS coefs:    1.15308   -0.15308
 Iteration  1 RMS(Cart)=  0.00055452 RMS(Int)=  0.00000012
 Iteration  2 RMS(Cart)=  0.00000012 RMS(Int)=  0.00000000
 ClnCor:  largest displacement from symmetrization is 7.93D-11 for atom     1.
 Variable       Old X    -DE/DX   Delta X   Delta X   Delta X     New X
                                 (Linear)    (Quad)   (Total)
    R1        2.53281   0.00043   0.00086   0.00032   0.00119   2.53399
    R2        2.21747   0.00003  -0.00004   0.00003  -0.00002   2.21745
    R3        2.06693  -0.00023  -0.00017  -0.00051  -0.00068   2.06625
    A1        2.14183  -0.00011  -0.00015  -0.00040  -0.00055   2.14128
    A2        1.90914   0.00017  -0.00023   0.00096   0.00073   1.90987
    A3        2.23222  -0.00006   0.00037  -0.00055  -0.00018   2.23204
    D1        3.14159   0.00000   0.00000  -0.00000   0.00000   3.14159
         Item               Value     Threshold  Converged?
 Maximum Force            0.000433     0.000450     YES
 RMS     Force            0.000202     0.000300     YES
 Maximum Displacement     0.000936     0.001800     YES
 RMS     Displacement     0.000554     0.001200     YES
 Predicted change in Energy=-4.313227D-07
 Optimization completed.
    -- Stationary point found.
                           ----------------------------
                           !   Optimized Parameters   !
                           ! (Angstroms and Degrees)  !
 --------------------------                            --------------------------
 ! Name  Definition              Value          Derivative Info.                !
 --------------------------------------------------------------------------------
 ! R1    R(1,2)                  1.3403         -DE/DX =    0.0004              !
 ! R2    R(1,3)                  1.1734         -DE/DX =    0.0                 !
 ! R3    R(1,4)                  1.0938         -DE/DX =   -0.0002              !
 ! A1    A(2,1,3)              122.7177         -DE/DX =   -0.0001              !
 ! A2    A(2,1,4)              109.3856         -DE/DX =    0.0002              !
 ! A3    A(3,1,4)              127.8968         -DE/DX =   -0.0001              !
 ! D1    D(2,1,4,3)            180.0            -DE/DX =    0.0                 !
 --------------------------------------------------------------------------------
 GradGradGradGradGradGradGradGradGradGradGradGradGradGradGradGradGradGrad

                          Input orientation:                          
 ---------------------------------------------------------------------
 Center     Atomic      Atomic             Coordinates (Angstroms)
 Number     Number       Type             X           Y           Z
 ---------------------------------------------------------------------
      1          6           0       -0.275688   -0.145225    0.252165
      2          9           0       -0.626629    1.145189    0.342099
      3          8           0        0.447826   -0.660654    1.018852
      4          1           0       -0.763199   -0.594253   -0.617915
 ---------------------------------------------------------------------
                    Distance matrix (angstroms):
                    1          2          3          4
     1  C    0.000000
     2  F    1.340304   0.000000
     3  O    1.173434   2.207604   0.000000
     4  H    1.093770   1.991466   2.037154   0.000000
 Stoichiometry    CHFO
 Framework group  CS[SG(CHFO)]
 Deg. of freedom     5
 Full point group                 CS      NOp   2
 Largest Abelian subgroup         CS      NOp   2
 Largest concise Abelian subgroup C1      NOp   1
                         Standard orientation:                         
 ---------------------------------------------------------------------
 Center     Atomic      Atomic             Coordinates (Angstroms)
 Number     Number       Type             X           Y           Z
 ---------------------------------------------------------------------
      1          6           0       -0.000000    0.397578    0.000000
      2          9           0       -0.964484   -0.533113    0.000000
      3          8           0        1.141943    0.127553    0.000000
      4          1           0       -0.455192    1.392129    0.000000
 ---------------------------------------------------------------------
 Rotational constants (GHZ):          91.9451144          11.8436312          10.4921205

 **********************************************************************

            Population analysis using the SCF density.

 **********************************************************************

 Orbital symmetries:
       Occupied  (A') (A') (A') (A') (A') (A') (A') (A") (A') (A')
                 (A") (A')
       Virtual   (A") (A') (A') (A') (A") (A') (A') (A') (A") (A')
                 (A') (A') (A") (A') (A') (A') (A') (A") (A') (A')
                 (A") (A') (A") (A') (A") (A') (A') (A') (A") (A')
                 (A') (A") (A') (A') (A') (A') (A") (A') (A") (A')
                 (A') (A") (A') (A") (A') (A') (A') (A") (A') (A")
                 (A') (A') (A") (A') (A') (A") (A') (A') (A') (A")
                 (A') (A') (A") (A') (A') (A") (A') (A") (A') (A')
                 (A") (A') (A") (A') (A') (A') (A') (A')
 The electronic state is 1-A'.
 Alpha  occ. eigenvalues --  -24.85465 -19.29219 -10.47029  -1.37683  -1.20755
 Alpha  occ. eigenvalues --   -0.77143  -0.67434  -0.61069  -0.60551  -0.51964
 Alpha  occ. eigenvalues --   -0.49135  -0.42543
 Alpha virt. eigenvalues --    0.03121   0.06942   0.09190   0.10081   0.10837
 Alpha virt. eigenvalues --    0.20002   0.25823   0.26932   0.28838   0.29978
 Alpha virt. eigenvalues --    0.32304   0.33448   0.33934   0.38435   0.42562
 Alpha virt. eigenvalues --    0.47939   0.56417   0.56521   0.65610   0.70094
 Alpha virt. eigenvalues --    0.71682   0.82089   0.86279   0.99456   1.03766
 Alpha virt. eigenvalues --    1.05188   1.08820   1.11889   1.14308   1.25324
 Alpha virt. eigenvalues --    1.36432   1.38451   1.39696   1.43646   1.53006
 Alpha virt. eigenvalues --    1.63906   1.69618   1.80960   1.91050   1.94907
 Alpha virt. eigenvalues --    2.09627   2.26960   2.32153   2.34006   2.55847
 Alpha virt. eigenvalues --    2.65695   2.73691   2.82982   2.93402   3.25191
 Alpha virt. eigenvalues --    3.25815   3.36307   3.36923   3.44857   3.76007
 Alpha virt. eigenvalues --    3.97007   4.04175   4.10493   4.77617   5.09020
 Alpha virt. eigenvalues --    5.19372   6.05389   6.36458   6.39889   6.71308
 Alpha virt. eigenvalues --    6.84944   6.91810   7.05673   7.25330   7.26307
 Alpha virt. eigenvalues --    9.14983   9.17774   9.30125   9.51258   9.75037
 Alpha virt. eigenvalues --   24.16548  50.05477  66.91027
          Condensed to atoms (all electrons):
               1          2          3          4
     1  C    4.457625   0.141000   0.479506   0.464279
     2  F    0.141000   9.173849  -0.005676  -0.058093
     3  O    0.479506  -0.005676   7.909025  -0.044077
     4  H    0.464279  -0.058093  -0.044077   0.505620
 Mulliken charges:
               1
     1  C    0.457589
     2  F   -0.251080
     3  O   -0.338779
     4  H    0.132270
 Sum of Mulliken charges =  -0.00000
 Mulliken charges with hydrogens summed into heavy atoms:
               1
     1  C    0.589859
     2  F   -0.251080
     3  O   -0.338779
 Electronic spatial extent (au):  <R**2>=            124.3457
 Charge=             -0.0000 electrons
 Dipole moment (field-independent basis, Debye):
    X=             -1.3355    Y=              1.7125    Z=              0.0000  Tot=              2.1717
 Quadrupole moment (field-independent basis, Debye-Ang):
   XX=            -19.0607   YY=            -14.7864   ZZ=            -15.3104
   XY=             -1.2340   XZ=             -0.0000   YZ=             -0.0000
 Traceless Quadrupole moment (field-independent basis, Debye-Ang):
   XX=             -2.6748   YY=              1.5994   ZZ=              1.0754
   XY=             -1.2340   XZ=             -0.0000   YZ=             -0.0000
 Octapole moment (field-independent basis, Debye-Ang**2):
  XXX=             -5.3900  YYY=             -0.3857  ZZZ=             -0.0000  XYY=             -2.1969
  XXY=             -0.8893  XXZ=             -0.0000  XZZ=             -1.0701  YZZ=             -0.8790
  YYZ=              0.0000  XYZ=              0.0000
 Hexadecapole moment (field-independent basis, Debye-Ang**3):
 XXXX=            -87.7303 YYYY=            -30.5311 ZZZZ=            -11.9337 XXXY=             -9.5651
 XXXZ=             -0.0000 YYYX=             -9.8118 YYYZ=              0.0000 ZZZX=             -0.0000
 ZZZY=             -0.0000 XXYY=            -19.7903 XXZZ=            -15.9518 YYZZ=             -7.8336
 XXYZ=             -0.0000 YYXZ=             -0.0000 ZZXY=             -2.8953
 N-N= 6.759768888223D+01 E-N=-6.414439841120D+02  KE= 2.132028648665D+02
 Symmetry A'   KE= 2.031436125233D+02
 Symmetry A"   KE= 1.005925234329D+01
 1\1\GINC-CCLEARTI\FOpt\RwB97XD\6-311+G(2d,2p)\C1H1F1O1\RAPPE\14-Oct-20
 24\0\\# opt freq wb97xd/6-311+g(2d,2p) geom=connectivity scf=xqc\\Titl
 e Card Required\\0,1\C,-0.2756875067,-0.1452247696,0.2521645623\F,-0.6
 266290124,1.145188697,0.3420992227\O,0.4478257345,-0.6606541162,1.0188
 517295\H,-0.7631986779,-0.594253032,-0.6179153926\\Version=EM64M-G16Re
 vA.03\State=1-A'\HF=-213.7761993\RMSD=2.314e-09\RMSF=2.203e-04\Dipole=
 -0.4562698,-0.1683505,-0.7025069\Quadrupole=0.1187345,-0.9278476,0.809
 1131,1.3416139,-0.341194,1.0791609\PG=CS [SG(C1H1F1O1)]\\@


 BREAD HAS TO MOLD IN ORDER TO GET PENICILLIN.
          -- JERRY BOATZ
 Job cpu time:       0 days  0 hours  6 minutes 52.5 seconds.
 Elapsed time:       0 days  0 hours  0 minutes 18.3 seconds.
 File lengths (MBytes):  RWF=     10 Int=      0 D2E=      0 Chk=      2 Scr=      1
 Normal termination of Gaussian 16 at Mon Oct 14 05:37:56 2024.
 Link1:  Proceeding to internal job step number  2.
 ----------------------------------------------------------------------
 #N Geom=AllCheck Guess=TCheck SCRF=Check GenChk RwB97XD/6-311+G(2d,2p)
  Freq
 ----------------------------------------------------------------------
 1/10=4,29=7,30=1,38=1,40=1/1,3;
 2/12=2,40=1/2;
 3/5=4,6=6,7=212,11=2,14=-4,25=1,30=1,70=2,71=2,74=-58,116=1,140=1/1,2,3;
 4/5=101/1;
 5/5=2,8=3,13=1,38=6,98=1/2,8;
 8/6=4,10=90,11=11/1;
 11/6=1,8=1,9=11,15=111,16=1/1,2,10;
 10/6=1/2;
 6/7=2,8=2,9=2,10=2,28=1/1;
 7/8=1,10=1,25=1/1,2,3,16;
 1/10=4,30=1/3;
 99//99;
 Structure from the checkpoint file:  "cfho.chk"
 -------------------
 Title Card Required
 -------------------
 Charge =  0 Multiplicity = 1
 Redundant internal coordinates found in file.  (old form).
 C,0,-0.2756875067,-0.1452247696,0.2521645623
 F,0,-0.6266290124,1.145188697,0.3420992227
 O,0,0.4478257345,-0.6606541162,1.0188517295
 H,0,-0.7631986779,-0.594253032,-0.6179153926
 Recover connectivity data from disk.

 GradGradGradGradGradGradGradGradGradGradGradGradGradGradGradGradGradGrad
 Berny optimization.
 Initialization pass.
                           ----------------------------
                           !    Initial Parameters    !
                           ! (Angstroms and Degrees)  !
 --------------------------                            --------------------------
 ! Name  Definition              Value          Derivative Info.                !
 --------------------------------------------------------------------------------
 ! R1    R(1,2)                  1.3403         calculate D2E/DX2 analytically  !
 ! R2    R(1,3)                  1.1734         calculate D2E/DX2 analytically  !
 ! R3    R(1,4)                  1.0938         calculate D2E/DX2 analytically  !
 ! A1    A(2,1,3)              122.7177         calculate D2E/DX2 analytically  !
 ! A2    A(2,1,4)              109.3856         calculate D2E/DX2 analytically  !
 ! A3    A(3,1,4)              127.8968         calculate D2E/DX2 analytically  !
 ! D1    D(2,1,4,3)            180.0            calculate D2E/DX2 analytically  !
 --------------------------------------------------------------------------------
 Trust Radius=3.00D-01 FncErr=1.00D-07 GrdErr=1.00D-07 EigMax=2.50D+02 EigMin=1.00D-04
 Number of steps in this run=      2 maximum allowed number of steps=      2.
 GradGradGradGradGradGradGradGradGradGradGradGradGradGradGradGradGradGrad

                          Input orientation:                          
 ---------------------------------------------------------------------
 Center     Atomic      Atomic             Coordinates (Angstroms)
 Number     Number       Type             X           Y           Z
 ---------------------------------------------------------------------
      1          6           0       -0.275688   -0.145225    0.252165
      2          9           0       -0.626629    1.145189    0.342099
      3          8           0        0.447826   -0.660654    1.018852
      4          1           0       -0.763199   -0.594253   -0.617915
 ---------------------------------------------------------------------
                    Distance matrix (angstroms):
                    1          2          3          4
     1  C    0.000000
     2  F    1.340304   0.000000
     3  O    1.173434   2.207604   0.000000
     4  H    1.093770   1.991466   2.037154   0.000000
 Stoichiometry    CHFO
 Framework group  CS[SG(CHFO)]
 Deg. of freedom     5
 Full point group                 CS      NOp   2
 Largest Abelian subgroup         CS      NOp   2
 Largest concise Abelian subgroup C1      NOp   1
                         Standard orientation:                         
 ---------------------------------------------------------------------
 Center     Atomic      Atomic             Coordinates (Angstroms)
 Number     Number       Type             X           Y           Z
 ---------------------------------------------------------------------
      1          6           0        0.000000    0.397578   -0.000000
      2          9           0       -0.964484   -0.533113    0.000000
      3          8           0        1.141943    0.127553   -0.000000
      4          1           0       -0.455192    1.392129   -0.000000
 ---------------------------------------------------------------------
 Rotational constants (GHZ):          91.9451144          11.8436312          10.4921205
 Standard basis: 6-311+G(2d,2p) (5D, 7F)
 There are    70 symmetry adapted cartesian basis functions of A'  symmetry.
 There are    26 symmetry adapted cartesian basis functions of A"  symmetry.
 There are    64 symmetry adapted basis functions of A'  symmetry.
 There are    26 symmetry adapted basis functions of A"  symmetry.
    90 basis functions,   137 primitive gaussians,    96 cartesian basis functions
    12 alpha electrons       12 beta electrons
       nuclear repulsion energy        67.5978518176 Hartrees.
 NAtoms=    4 NActive=    4 NUniq=    4 SFac= 1.00D+00 NAtFMM=   60 NAOKFM=F Big=F
 Integral buffers will be    131072 words long.
 Raffenetti 2 integral format.
 Two-electron integral symmetry is turned on.
 Nuclear repulsion after empirical dispersion term =       67.5976888822 Hartrees.
 One-electron integrals computed using PRISM.
 NBasis=    90 RedAO= T EigKep=  1.07D-03  NBF=    64    26
 NBsUse=    90 1.00D-06 EigRej= -1.00D+00 NBFU=    64    26
 Initial guess from the checkpoint file:  "cfho.chk"
 B after Tr=     0.000000   -0.000000   -0.000000
         Rot=    1.000000   -0.000000   -0.000000    0.000000 Ang=   0.00 deg.
 Initial guess orbital symmetries:
       Occupied  (A') (A') (A') (A') (A') (A') (A') (A") (A') (A')
                 (A") (A')
       Virtual   (A") (A') (A') (A') (A") (A') (A') (A') (A") (A')
                 (A') (A') (A") (A') (A') (A') (A') (A") (A') (A')
                 (A") (A') (A") (A') (A") (A') (A') (A') (A") (A')
                 (A') (A") (A') (A') (A') (A') (A") (A') (A") (A')
                 (A') (A") (A') (A") (A') (A') (A') (A") (A') (A")
                 (A') (A') (A") (A') (A') (A") (A') (A') (A') (A")
                 (A') (A') (A") (A') (A') (A") (A') (A") (A') (A')
                 (A") (A') (A") (A') (A') (A') (A') (A')
 Keep R1 ints in memory in symmetry-blocked form, NReq=38885788.
 Requested convergence on RMS density matrix=1.00D-08 within  32 cycles.
 Requested convergence on MAX density matrix=1.00D-06.
 Requested convergence on             energy=1.00D-06.
 No special actions if energy rises.
 SCF Done:  E(RwB97XD) =  -213.776199261     A.U. after    1 cycles
            NFock=  1  Conv=0.41D-09     -V/T= 2.0027
 QCSCF skips out because SCF is already converged.
 DoSCS=F DFT=T ScalE2(SS,OS)=  1.000000  1.000000
 Range of M.O.s used for correlation:     1    90
 NBasis=    90 NAE=    12 NBE=    12 NFC=     0 NFV=     0
 NROrb=     90 NOA=    12 NOB=    12 NVA=    78 NVB=    78
 Symmetrizing basis deriv contribution to polar:
 IMax=3 JMax=2 DiffMx= 0.00D+00
 G2DrvN: will do     5 centers at a time, making    1 passes.
 Calling FoFCou, ICntrl=  3107 FMM=F I1Cent=   0 AccDes= 0.00D+00.
 End of G2Drv F.D. properties file   721 does not exist.
 End of G2Drv F.D. properties file   722 does not exist.
 End of G2Drv F.D. properties file   788 does not exist.
          IDoAtm=1111
          Differentiating once with respect to electric field.
                with respect to dipole field.
          Differentiating once with respect to nuclear coordinates.
 Keep R1 ints in memory in symmetry-blocked form, NReq=38805453.
          There are    15 degrees of freedom in the 1st order CPHF.  IDoFFX=6 NUNeed=     3.
     12 vectors produced by pass  0 Test12= 6.24D-15 6.67D-09 XBig12= 8.98D+00 2.03D+00.
 AX will form    12 AO Fock derivatives at one time.
     12 vectors produced by pass  1 Test12= 6.24D-15 6.67D-09 XBig12= 2.78D+00 5.29D-01.
     12 vectors produced by pass  2 Test12= 6.24D-15 6.67D-09 XBig12= 7.27D-02 7.21D-02.
     12 vectors produced by pass  3 Test12= 6.24D-15 6.67D-09 XBig12= 8.17D-04 6.77D-03.
     12 vectors produced by pass  4 Test12= 6.24D-15 6.67D-09 XBig12= 1.00D-05 6.73D-04.
     12 vectors produced by pass  5 Test12= 6.24D-15 6.67D-09 XBig12= 1.06D-07 8.15D-05.
     12 vectors produced by pass  6 Test12= 6.24D-15 6.67D-09 XBig12= 5.67D-10 5.67D-06.
      5 vectors produced by pass  7 Test12= 6.24D-15 6.67D-09 XBig12= 3.16D-12 5.04D-07.
      2 vectors produced by pass  8 Test12= 6.24D-15 6.67D-09 XBig12= 1.61D-14 3.02D-08.
 InvSVY:  IOpt=1 It=  1 EMax= 6.66D-16
 Solved reduced A of dimension    91 with    12 vectors.
 Isotropic polarizability for W=    0.000000       16.40 Bohr**3.
 End of Minotr F.D. properties file   721 does not exist.
 End of Minotr F.D. properties file   722 does not exist.
 End of Minotr F.D. properties file   788 does not exist.

 **********************************************************************

            Population analysis using the SCF density.

 **********************************************************************

 Orbital symmetries:
       Occupied  (A') (A') (A') (A') (A') (A') (A') (A") (A') (A')
                 (A") (A')
       Virtual   (A") (A') (A') (A') (A") (A') (A') (A') (A") (A')
                 (A') (A') (A") (A') (A') (A') (A') (A") (A') (A')
                 (A") (A') (A") (A') (A") (A') (A') (A') (A") (A')
                 (A') (A") (A') (A') (A') (A') (A") (A') (A") (A')
                 (A') (A") (A') (A") (A') (A') (A') (A") (A') (A")
                 (A') (A') (A") (A') (A') (A") (A') (A') (A') (A")
                 (A') (A') (A") (A') (A') (A") (A') (A") (A') (A')
                 (A") (A') (A") (A') (A') (A') (A') (A')
 The electronic state is 1-A'.
 Alpha  occ. eigenvalues --  -24.85465 -19.29219 -10.47029  -1.37683  -1.20755
 Alpha  occ. eigenvalues --   -0.77143  -0.67434  -0.61069  -0.60551  -0.51964
 Alpha  occ. eigenvalues --   -0.49135  -0.42543
 Alpha virt. eigenvalues --    0.03121   0.06942   0.09190   0.10081   0.10837
 Alpha virt. eigenvalues --    0.20002   0.25823   0.26932   0.28838   0.29978
 Alpha virt. eigenvalues --    0.32304   0.33448   0.33934   0.38435   0.42562
 Alpha virt. eigenvalues --    0.47939   0.56417   0.56521   0.65610   0.70094
 Alpha virt. eigenvalues --    0.71682   0.82089   0.86279   0.99456   1.03766
 Alpha virt. eigenvalues --    1.05188   1.08820   1.11889   1.14308   1.25324
 Alpha virt. eigenvalues --    1.36432   1.38451   1.39696   1.43646   1.53006
 Alpha virt. eigenvalues --    1.63906   1.69618   1.80960   1.91050   1.94907
 Alpha virt. eigenvalues --    2.09627   2.26960   2.32153   2.34006   2.55847
 Alpha virt. eigenvalues --    2.65695   2.73691   2.82982   2.93402   3.25191
 Alpha virt. eigenvalues --    3.25815   3.36307   3.36923   3.44857   3.76007
 Alpha virt. eigenvalues --    3.97007   4.04175   4.10493   4.77617   5.09020
 Alpha virt. eigenvalues --    5.19372   6.05389   6.36458   6.39889   6.71308
 Alpha virt. eigenvalues --    6.84944   6.91810   7.05673   7.25330   7.26307
 Alpha virt. eigenvalues --    9.14983   9.17774   9.30125   9.51258   9.75037
 Alpha virt. eigenvalues --   24.16548  50.05477  66.91027
          Condensed to atoms (all electrons):
               1          2          3          4
     1  C    4.457625   0.141000   0.479506   0.464279
     2  F    0.141000   9.173849  -0.005676  -0.058093
     3  O    0.479506  -0.005676   7.909025  -0.044077
     4  H    0.464279  -0.058093  -0.044077   0.505620
 Mulliken charges:
               1
     1  C    0.457589
     2  F   -0.251080
     3  O   -0.338779
     4  H    0.132270
 Sum of Mulliken charges =  -0.00000
 Mulliken charges with hydrogens summed into heavy atoms:
               1
     1  C    0.589859
     2  F   -0.251080
     3  O   -0.338779
 APT charges:
               1
     1  C    1.187935
     2  F   -0.591602
     3  O   -0.635084
     4  H    0.038751
 Sum of APT charges =   0.00000
 APT charges with hydrogens summed into heavy atoms:
               1
     1  C    1.226686
     2  F   -0.591602
     3  O   -0.635084
 Electronic spatial extent (au):  <R**2>=            124.3457
 Charge=             -0.0000 electrons
 Dipole moment (field-independent basis, Debye):
    X=             -1.3355    Y=              1.7125    Z=             -0.0000  Tot=              2.1717
 Quadrupole moment (field-independent basis, Debye-Ang):
   XX=            -19.0607   YY=            -14.7864   ZZ=            -15.3104
   XY=             -1.2340   XZ=              0.0000   YZ=             -0.0000
 Traceless Quadrupole moment (field-independent basis, Debye-Ang):
   XX=             -2.6748   YY=              1.5994   ZZ=              1.0754
   XY=             -1.2340   XZ=              0.0000   YZ=             -0.0000
 Octapole moment (field-independent basis, Debye-Ang**2):
  XXX=             -5.3900  YYY=             -0.3857  ZZZ=              0.0000  XYY=             -2.1969
  XXY=             -0.8893  XXZ=              0.0000  XZZ=             -1.0701  YZZ=             -0.8790
  YYZ=              0.0000  XYZ=             -0.0000
 Hexadecapole moment (field-independent basis, Debye-Ang**3):
 XXXX=            -87.7303 YYYY=            -30.5311 ZZZZ=            -11.9337 XXXY=             -9.5651
 XXXZ=              0.0000 YYYX=             -9.8118 YYYZ=              0.0000 ZZZX=              0.0000
 ZZZY=              0.0000 XXYY=            -19.7903 XXZZ=            -15.9518 YYZZ=             -7.8336
 XXYZ=              0.0000 YYXZ=              0.0000 ZZXY=             -2.8953
 N-N= 6.759768888223D+01 E-N=-6.414439840382D+02  KE= 2.132028648248D+02
 Symmetry A'   KE= 2.031436124880D+02
 Symmetry A"   KE= 1.005925233681D+01
  Exact polarizability:  21.705   0.015  16.100   0.000  -0.000  11.404
 Approx polarizability:  24.832   0.011  16.035  -0.000  -0.000  12.315
 Calling FoFJK, ICntrl=    100127 FMM=F ISym2X=1 I1Cent= 0 IOpClX= 0 NMat=1 NMatS=1 NMatT=0.
 Full mass-weighted force constant matrix:
 Low frequencies ---  -22.5415  -13.1377   -0.0014   -0.0014    0.0008   31.8933
 Low frequencies ---  673.5914 1046.9847 1084.4288
 Diagonal vibrational polarizability:
        5.7632887       4.3282732       0.0002822
 Harmonic frequencies (cm**-1), IR intensities (KM/Mole), Raman scattering
 activities (A**4/AMU), depolarization ratios for plane and unpolarized
 incident light, reduced masses (AMU), force constants (mDyne/A),
 and normal coordinates:
                      1                      2                      3
                     A'                     A"                     A'
 Frequencies --    673.5913              1046.9836              1084.4288
 Red. masses --     12.9104                 1.6738                 8.8308
 Frc consts  --      3.4513                 1.0810                 6.1186
 IR Inten    --     21.1393                 0.0115               282.9057
  Atom  AN      X      Y      Z        X      Y      Z        X      Y      Z
     1   6    -0.23   0.38   0.00    -0.00  -0.00  -0.23     0.26   0.61  -0.00
     2   9     0.52   0.04  -0.00     0.00   0.00   0.04    -0.23  -0.33   0.00
     3   8    -0.44  -0.36  -0.00    -0.00   0.00   0.06     0.06  -0.10   0.00
     4   1    -0.10   0.44  -0.00    -0.00  -0.00   0.97     0.23   0.58   0.00
                      4                      5                      6
                     A'                     A'                     A'
 Frequencies --   1375.0329              1919.0798              3105.6939
 Red. masses --      1.1024                 9.4209                 1.1012
 Frc consts  --      1.2281                20.4423                 6.2579
 IR Inten    --      0.9566               313.0006                22.5794
  Atom  AN      X      Y      Z        X      Y      Z        X      Y      Z
     1   6    -0.04  -0.05   0.00     0.64  -0.13  -0.00     0.05  -0.08   0.00
     2   9     0.00  -0.02  -0.00    -0.01   0.01   0.00    -0.00  -0.00  -0.00
     3   8    -0.04   0.04  -0.00    -0.48   0.12   0.00    -0.01   0.00  -0.00
     4   1     0.92   0.38  -0.00     0.09  -0.56   0.00    -0.41   0.91  -0.00

 -------------------
 - Thermochemistry -
 -------------------
 Temperature   298.150 Kelvin.  Pressure   1.00000 Atm.
 Atom     1 has atomic number  6 and mass  12.00000
 Atom     2 has atomic number  9 and mass  18.99840
 Atom     3 has atomic number  8 and mass  15.99491
 Atom     4 has atomic number  1 and mass   1.00783
 Molecular mass:    48.00114 amu.
 Principal axes and moments of inertia in atomic units:
                           1         2         3
     Eigenvalues --    19.62846 152.38073 172.00920
           X            0.94557  -0.32543   0.00000
           Y            0.32543   0.94557   0.00000
           Z           -0.00000  -0.00000   1.00000
 This molecule is an asymmetric top.
 Rotational symmetry number  1.
 Rotational temperatures (Kelvin)      4.41267     0.56840     0.50354
 Rotational constants (GHZ):          91.94511    11.84363    10.49212
 Zero-point vibrational energy      55057.0 (Joules/Mol)
                                   13.15894 (Kcal/Mol)
 Vibrational temperatures:    969.15  1506.38  1560.25  1978.37  2761.13
          (Kelvin)           4468.40
 
 Zero-point correction=                           0.020970 (Hartree/Particle)
 Thermal correction to Energy=                    0.023993
 Thermal correction to Enthalpy=                  0.024937
 Thermal correction to Gibbs Free Energy=        -0.003051
 Sum of electronic and zero-point Energies=           -213.755229
 Sum of electronic and thermal Energies=              -213.752207
 Sum of electronic and thermal Enthalpies=            -213.751262
 Sum of electronic and thermal Free Energies=         -213.779250
 
                     E (Thermal)             CV                S
                      KCal/Mol        Cal/Mol-Kelvin    Cal/Mol-Kelvin
 Total                   15.056              7.596             58.905
 Electronic               0.000              0.000              0.000
 Translational            0.889              2.981             37.530
 Rotational               0.889              2.981             20.870
 Vibrational             13.278              1.634              0.505
                       Q            Log10(Q)             Ln(Q)
 Total Bot       0.253034D+02          1.403179          3.230940
 Total V=0       0.111879D+12         11.048748         25.440682
 Vib (Bot)       0.238407D-09         -9.622681        -22.157043
 Vib (V=0)       0.105411D+01          0.022887          0.052699
 Electronic      0.100000D+01          0.000000          0.000000
 Translational   0.130717D+08          7.116331         16.385958
 Rotational      0.811951D+04          3.909530          9.002025
 ***** Axes restored to original set *****
 -------------------------------------------------------------------
 Center     Atomic                   Forces (Hartrees/Bohr)
 Number     Number              X              Y              Z
 -------------------------------------------------------------------
      1        6          -0.000118575   -0.000423785   -0.000351257
      2        9          -0.000052382    0.000427757    0.000117802
      3        8           0.000020024    0.000004334    0.000029474
      4        1           0.000150933   -0.000008307    0.000203981
 -------------------------------------------------------------------
 Cartesian Forces:  Max     0.000427757 RMS     0.000220299
 FormGI is forming the generalized inverse of G from B-inverse, IUseBI=4.

 GradGradGradGradGradGradGradGradGradGradGradGradGradGradGradGradGradGrad
 Berny optimization.
 Internal  Forces:  Max     0.000433442 RMS     0.000201668
 Search for a local minimum.
 Step number   1 out of a maximum of    2
 All quantities printed in internal units (Hartrees-Bohrs-Radians)
 Second derivative matrix not updated -- analytic derivatives used.
 The second derivative matrix:
                          R1        R2        R3        A1        A2
           R1           0.35927
           R2           0.09757   1.01334
           R3           0.01539   0.01950   0.33968
           A1           0.02370   0.02493  -0.01164   0.17970
           A2           0.02170  -0.03887   0.00813  -0.09421   0.12047
           A3          -0.04540   0.01395   0.00351  -0.08549  -0.02626
           D1          -0.00000   0.00000  -0.00000   0.00000  -0.00000
                          A3        D1
           A3           0.11175
           D1           0.00000   0.07915
 ITU=  0
     Eigenvalues ---    0.07915   0.12766   0.25974   0.33962   0.36637
     Eigenvalues ---    1.03081
 Angle between quadratic step and forces=  12.65 degrees.
 Linear search not attempted -- first point.
 Iteration  1 RMS(Cart)=  0.00058727 RMS(Int)=  0.00000013
 Iteration  2 RMS(Cart)=  0.00000013 RMS(Int)=  0.00000001
 ClnCor:  largest displacement from symmetrization is 7.24D-09 for atom     1.
 Variable       Old X    -DE/DX   Delta X   Delta X   Delta X     New X
                                 (Linear)    (Quad)   (Total)
    R1        2.53281   0.00043   0.00000   0.00120   0.00120   2.53400
    R2        2.21747   0.00003   0.00000  -0.00002  -0.00002   2.21744
    R3        2.06693  -0.00023   0.00000  -0.00075  -0.00075   2.06617
    A1        2.14183  -0.00011   0.00000  -0.00051  -0.00051   2.14131
    A2        1.90914   0.00017   0.00000   0.00079   0.00079   1.90993
    A3        2.23222  -0.00006   0.00000  -0.00027  -0.00027   2.23195
    D1        3.14159   0.00000   0.00000   0.00000   0.00000   3.14159
         Item               Value     Threshold  Converged?
 Maximum Force            0.000433     0.000450     YES
 RMS     Force            0.000202     0.000300     YES
 Maximum Displacement     0.000979     0.001800     YES
 RMS     Displacement     0.000587     0.001200     YES
 Predicted change in Energy=-4.476392D-07
 Optimization completed.
    -- Stationary point found.
                           ----------------------------
                           !   Optimized Parameters   !
                           ! (Angstroms and Degrees)  !
 --------------------------                            --------------------------
 ! Name  Definition              Value          Derivative Info.                !
 --------------------------------------------------------------------------------
 ! R1    R(1,2)                  1.3403         -DE/DX =    0.0004              !
 ! R2    R(1,3)                  1.1734         -DE/DX =    0.0                 !
 ! R3    R(1,4)                  1.0938         -DE/DX =   -0.0002              !
 ! A1    A(2,1,3)              122.7177         -DE/DX =   -0.0001              !
 ! A2    A(2,1,4)              109.3856         -DE/DX =    0.0002              !
 ! A3    A(3,1,4)              127.8968         -DE/DX =   -0.0001              !
 ! D1    D(2,1,4,3)            180.0            -DE/DX =    0.0                 !
 --------------------------------------------------------------------------------
 GradGradGradGradGradGradGradGradGradGradGradGradGradGradGradGradGradGrad


 ----------------------------------------------------------------------

 Electric dipole moment (input orientation):
 (Debye = 10**-18 statcoulomb cm , SI units = C m)
                  (au)            (Debye)         (10**-30 SI)
   Tot        0.854424D+00      0.217173D+01      0.724411D+01
   x         -0.456270D+00     -0.115972D+01     -0.386842D+01
   y         -0.168350D+00     -0.427904D+00     -0.142733D+01
   z         -0.702507D+00     -0.178559D+01     -0.595610D+01

 Dipole polarizability, Alpha (input orientation).
 (esu units = cm**3 , SI units = C**2 m**2 J**-1)
 Alpha(0;0):
               (au)            (10**-24 esu)      (10**-40 SI)
   iso        0.164026D+02      0.243061D+01      0.270442D+01
   aniso      0.893265D+01      0.132368D+01      0.147280D+01
   xx         0.151074D+02      0.223869D+01      0.249088D+01
   yx        -0.296888D+01     -0.439943D+00     -0.489502D+00
   yy         0.180097D+02      0.266876D+01      0.296939D+01
   zx         0.377838D+01      0.559899D+00      0.622971D+00
   zy        -0.115250D+01     -0.170782D+00     -0.190021D+00
   zz         0.160906D+02      0.238438D+01      0.265298D+01

 ----------------------------------------------------------------------

 Dipole orientation:
     6         -0.67806443          0.33239695         -0.05951855
     9         -1.46902461         -2.05898510         -0.32557996
     8         -0.24223443          1.65008153         -1.78894917
     1         -0.52813324          0.78569759          1.95150622

 Electric dipole moment (dipole orientation):
 (Debye = 10**-18 statcoulomb cm , SI units = C m)
                  (au)            (Debye)         (10**-30 SI)
   Tot        0.854424D+00      0.217173D+01      0.724411D+01
   x          0.000000D+00      0.000000D+00      0.000000D+00
   y          0.000000D+00      0.000000D+00      0.000000D+00
   z          0.854424D+00      0.217173D+01      0.724411D+01

 Dipole polarizability, Alpha (dipole orientation).
 (esu units = cm**3 , SI units = C**2 m**2 J**-1)
 Alpha(0;0):
               (au)            (10**-24 esu)      (10**-40 SI)
   iso        0.164026D+02      0.243061D+01      0.270442D+01
   aniso      0.893265D+01      0.132368D+01      0.147280D+01
   xx         0.122117D+02      0.180959D+01      0.201344D+01
   yx         0.244361D+01      0.362106D+00      0.402898D+00
   yy         0.187915D+02      0.278461D+01      0.309830D+01
   zx        -0.852372D+00     -0.126309D+00     -0.140537D+00
   zy        -0.257705D+01     -0.381880D+00     -0.424899D+00
   zz         0.182045D+02      0.269762D+01      0.300151D+01

 ----------------------------------------------------------------------
 1\1\GINC-CCLEARTI\Freq\RwB97XD\6-311+G(2d,2p)\C1H1F1O1\RAPPE\14-Oct-20
 24\0\\#N Geom=AllCheck Guess=TCheck SCRF=Check GenChk RwB97XD/6-311+G(
 2d,2p) Freq\\Title Card Required\\0,1\C,-0.2756875067,-0.1452247696,0.
 2521645623\F,-0.6266290124,1.145188697,0.3420992227\O,0.4478257345,-0.
 6606541162,1.0188517295\H,-0.7631986779,-0.594253032,-0.6179153926\\Ve
 rsion=EM64M-G16RevA.03\State=1-A'\HF=-213.7761993\RMSD=4.111e-10\RMSF=
 2.203e-04\ZeroPoint=0.0209701\Thermal=0.0239927\Dipole=-0.4562698,-0.1
 683505,-0.7025069\DipoleDeriv=0.8503745,-0.5372652,0.422821,-0.5343028
 ,1.8053833,-0.0978854,0.424136,-0.1019612,0.9080459,-0.3125028,0.24800
 11,-0.1005528,0.3839935,-1.1950119,0.068649,-0.040188,-0.1184622,-0.26
 72901,-0.6083518,0.3041947,-0.2473972,0.1453531,-0.6515906,0.0574219,-
 0.3179043,0.2759712,-0.6453096,0.0704801,-0.0149306,-0.0748711,0.00495
 63,0.0412193,-0.0281855,-0.0660436,-0.0555478,0.0045538\Polar=15.10744
 06,-2.9688797,18.0096756,3.7783842,-1.1524963,16.0905902\Quadrupole=0.
 1187345,-0.9278476,0.8091131,1.3416139,-0.341194,1.0791609\PG=CS [SG(C
 1H1F1O1)]\NImag=0\\0.56599497,-0.16820288,0.55510080,0.44703117,-0.067
 95921,0.77172963,-0.06255188,0.03079712,-0.00269249,0.05740606,0.01456
 206,-0.23940591,-0.06374558,-0.08412593,0.33445744,-0.00989896,-0.0414
 0786,-0.08265957,0.02293798,0.02667734,0.05699636,-0.39353463,0.191167
 66,-0.36087956,-0.00938839,0.05810032,-0.01316679,0.40131023,0.2073705
 1,-0.22498517,0.21633540,0.05713288,-0.05992905,0.04360669,-0.26487834
 ,0.27076385,-0.35368739,0.19404200,-0.47007830,-0.01359623,0.04493780,
 0.02016541,0.39885019,-0.25578568,0.46120896,-0.10990846,-0.05376190,-
 0.08345912,0.01453421,0.01146354,0.00012777,0.00161279,0.00037496,-0.0
 3156658,0.09376146,-0.05372969,-0.09070972,-0.08463060,-0.00380407,-0.
 03512248,-0.02887617,0.01561036,0.01415037,0.01680589,0.04192340,0.111
 68184,-0.08344482,-0.08467492,-0.21899177,-0.00664927,-0.00786956,0.00
 549780,-0.02480384,-0.00415640,-0.01129607,0.11489793,0.09670089,0.224
 79004\\0.00011857,0.00042378,0.00035126,0.00005238,-0.00042776,-0.0001
 1780,-0.00002002,-0.00000433,-0.00002947,-0.00015093,0.00000831,-0.000
 20398\\\@


 Fatherhood is pretending the present you love most is soap-on-a-rope.
 -- Bill Cosby
 Job cpu time:       0 days  0 hours  4 minutes 30.3 seconds.
 Elapsed time:       0 days  0 hours  0 minutes 11.7 seconds.
 File lengths (MBytes):  RWF=     10 Int=      0 D2E=      0 Chk=      2 Scr=      1
 Normal termination of Gaussian 16 at Mon Oct 14 05:38:08 2024.
