 Entering Gaussian System, Link 0=/applications/g16/g16/g16
 Initial command:
 /applications/g16/g16/l1.exe "/scratch/g98/Gau-28720.inp" -scrdir="/scratch/g98/"
 Entering Link 1 = /applications/g16/g16/l1.exe PID=     28721.
  
 Copyright (c) 1988,1990,1992,1993,1995,1998,2003,2009,2016,
            Gaussian, Inc.  All Rights Reserved.
  
 This is part of the Gaussian(R) 16 program.  It is based on
 the Gaussian(R) 09 system (copyright 2009, Gaussian, Inc.),
 the Gaussian(R) 03 system (copyright 2003, Gaussian, Inc.),
 the Gaussian(R) 98 system (copyright 1998, Gaussian, Inc.),
 the Gaussian(R) 94 system (copyright 1995, Gaussian, Inc.),
 the Gaussian 92(TM) system (copyright 1992, Gaussian, Inc.),
 the Gaussian 90(TM) system (copyright 1990, Gaussian, Inc.),
 the Gaussian 88(TM) system (copyright 1988, Gaussian, Inc.),
 the Gaussian 86(TM) system (copyright 1986, Carnegie Mellon
 University), and the Gaussian 82(TM) system (copyright 1983,
 Carnegie Mellon University). Gaussian is a federally registered
 trademark of Gaussian, Inc.
  
 This software contains proprietary and confidential information,
 including trade secrets, belonging to Gaussian, Inc.
  
 This software is provided under written license and may be
 used, copied, transmitted, or stored only in accord with that
 written license.
  
 The following legend is applicable only to US Government
 contracts under FAR:
  
                    RESTRICTED RIGHTS LEGEND
  
 Use, reproduction and disclosure by the US Government is
 subject to restrictions as set forth in subparagraphs (a)
 and (c) of the Commercial Computer Software - Restricted
 Rights clause in FAR 52.227-19.
  
 Gaussian, Inc.
 340 Quinnipiac St., Bldg. 40, Wallingford CT 06492
  
  
 ---------------------------------------------------------------
 Warning -- This program may not be used in any manner that
 competes with the business of Gaussian, Inc. or will provide
 assistance to any competitor of Gaussian, Inc.  The licensee
 of this program is prohibited from giving any competitor of
 Gaussian, Inc. access to this program.  By using this program,
 the user acknowledges that Gaussian, Inc. is engaged in the
 business of creating and licensing software in the field of
 computational chemistry and represents and warrants to the
 licensee that it is not a competitor of Gaussian, Inc. and that
 it will not use this program in any manner prohibited above.
 ---------------------------------------------------------------
  

 Cite this work as:
 Gaussian 16, Revision A.03,
 M. J. Frisch, G. W. Trucks, H. B. Schlegel, G. E. Scuseria, 
 M. A. Robb, J. R. Cheeseman, G. Scalmani, V. Barone, 
 G. A. Petersson, H. Nakatsuji, X. Li, M. Caricato, A. V. Marenich, 
 J. Bloino, B. G. Janesko, R. Gomperts, B. Mennucci, H. P. Hratchian, 
 J. V. Ortiz, A. F. Izmaylov, J. L. Sonnenberg, D. Williams-Young, 
 F. Ding, F. Lipparini, F. Egidi, J. Goings, B. Peng, A. Petrone, 
 T. Henderson, D. Ranasinghe, V. G. Zakrzewski, J. Gao, N. Rega, 
 G. Zheng, W. Liang, M. Hada, M. Ehara, K. Toyota, R. Fukuda, 
 J. Hasegawa, M. Ishida, T. Nakajima, Y. Honda, O. Kitao, H. Nakai, 
 T. Vreven, K. Throssell, J. A. Montgomery, Jr., J. E. Peralta, 
 F. Ogliaro, M. J. Bearpark, J. J. Heyd, E. N. Brothers, K. N. Kudin, 
 V. N. Staroverov, T. A. Keith, R. Kobayashi, J. Normand, 
 K. Raghavachari, A. P. Rendell, J. C. Burant, S. S. Iyengar, 
 J. Tomasi, M. Cossi, J. M. Millam, M. Klene, C. Adamo, R. Cammi, 
 J. W. Ochterski, R. L. Martin, K. Morokuma, O. Farkas, 
 J. B. Foresman, and D. J. Fox, Gaussian, Inc., Wallingford CT, 2016.
 
 ******************************************
 Gaussian 16:  EM64M-G16RevA.03 25-Dec-2016
                28-Sep-2024 
 ******************************************
 %mem=48GB
 %nprocshared=24
 Will use up to   24 processors via shared memory.
 %chk=cfo.chk
 ----------------------------------------------------------------------
 # opt=tight uwb97xd/6-311+g(2d,2p) geom=connectivity integral=grid=sup
 erfinegrid scf=(xqc,tight) freq
 ----------------------------------------------------------------------
 1/7=10,18=20,19=15,26=5,38=1,57=2/1,3;
 2/9=110,12=2,17=6,18=5,40=1/2;
 3/5=4,6=6,7=212,11=2,25=1,30=1,71=1,74=-58,75=-7,116=2/1,2,3;
 4//1;
 5/5=2,8=3,13=1,32=2,38=5/2,8;
 6/7=2,8=2,9=2,10=2,28=1/1;
 7//1,2,3,16;
 1/7=10,18=20,19=15,26=5/3(2);
 2/9=110/2;
 99//99;
 2/9=110/2;
 3/5=4,6=6,7=212,11=2,25=1,30=1,71=1,74=-58,75=-7,116=2/1,2,3;
 4/5=5,16=3,69=1/1;
 5/5=2,8=3,13=1,32=2,38=5/2,8;
 7//1,2,3,16;
 1/7=10,18=20,19=15,26=5/3(-5);
 2/9=110/2;
 6/7=2,8=2,9=2,10=2,19=2,28=1/1;
 99/9=1/99;
 -------------------
 Title Card Required
 -------------------
 Symbolic Z-matrix:
 Charge =  0 Multiplicity = 2
 F                    -1.01054  -0.43677   0. 
 C                     0.        0.42033   0. 
 O                     1.13686   0.17611   0. 
 

 GradGradGradGradGradGradGradGradGradGradGradGradGradGradGradGradGradGrad
 Berny optimization.
 Initialization pass.
                           ----------------------------
                           !    Initial Parameters    !
                           ! (Angstroms and Degrees)  !
 --------------------------                            --------------------------
 ! Name  Definition              Value          Derivative Info.                !
 --------------------------------------------------------------------------------
 ! R1    R(1,2)                  1.3251         estimate D2E/DX2                !
 ! R2    R(2,3)                  1.1628         estimate D2E/DX2                !
 ! A1    A(1,2,3)              127.5726         estimate D2E/DX2                !
 --------------------------------------------------------------------------------
 Trust Radius=3.00D-01 FncErr=1.00D-07 GrdErr=1.00D-07 EigMax=2.50D+02 EigMin=1.00D-04
 Number of steps in this run=     20 maximum allowed number of steps=    100.
 GradGradGradGradGradGradGradGradGradGradGradGradGradGradGradGradGradGrad

                          Input orientation:                          
 ---------------------------------------------------------------------
 Center     Atomic      Atomic             Coordinates (Angstroms)
 Number     Number       Type             X           Y           Z
 ---------------------------------------------------------------------
      1          9           0       -1.010542   -0.436769    0.000000
      2          6           0        0.000000    0.420334    0.000000
      3          8           0        1.136859    0.176114    0.000000
 ---------------------------------------------------------------------
                    Distance matrix (angstroms):
                    1          2          3
     1  F    0.000000
     2  C    1.325074   0.000000
     3  O    2.233149   1.162795   0.000000
 Stoichiometry    CFO(2)
 Framework group  CS[SG(CFO)]
 Deg. of freedom     3
 Full point group                 CS      NOp   2
 Largest Abelian subgroup         CS      NOp   2
 Largest concise Abelian subgroup C1      NOp   1
                         Standard orientation:                         
 ---------------------------------------------------------------------
 Center     Atomic      Atomic             Coordinates (Angstroms)
 Number     Number       Type             X           Y           Z
 ---------------------------------------------------------------------
      1          9           0       -1.010541   -0.436769    0.000000
      2          6           0        0.000000    0.420334    0.000000
      3          8           0        1.136859    0.176115    0.000000
 ---------------------------------------------------------------------
 Rotational constants (GHZ):         190.5667567          11.5816283          10.9180855
 Standard basis: 6-311+G(2d,2p) (5D, 7F)
 There are    63 symmetry adapted cartesian basis functions of A'  symmetry.
 There are    24 symmetry adapted cartesian basis functions of A"  symmetry.
 There are    57 symmetry adapted basis functions of A'  symmetry.
 There are    24 symmetry adapted basis functions of A"  symmetry.
    81 basis functions,   126 primitive gaussians,    87 cartesian basis functions
    12 alpha electrons       11 beta electrons
       nuclear repulsion energy        60.4710693756 Hartrees.
 NAtoms=    3 NActive=    3 NUniq=    3 SFac= 1.00D+00 NAtFMM=   60 NAOKFM=F Big=F
 Integral buffers will be    131072 words long.
 Raffenetti 2 integral format.
 Two-electron integral symmetry is turned on.
 Nuclear repulsion after empirical dispersion term =       60.4710152743 Hartrees.
 One-electron integrals computed using PRISM.
 NBasis=    81 RedAO= T EigKep=  1.14D-03  NBF=    57    24
 NBsUse=    81 1.00D-06 EigRej= -1.00D+00 NBFU=    57    24
 ExpMin= 4.38D-02 ExpMax= 1.14D+04 ExpMxC= 1.72D+03 IAcc=3 IRadAn=         7 AccDes= 0.00D+00
 Harris functional with IExCor= 4639 and IRadAn=       7 diagonalized for initial guess.
 HarFok:  IExCor= 4639 AccDes= 0.00D+00 IRadAn=         7 IDoV= 1 UseB2=F ITyADJ=14
 ICtDFT=  3500011 ScaDFX=  1.000000  1.000000  1.000000  1.000000
 FoFCou: FMM=F IPFlag=           0 FMFlag=      100000 FMFlg1=           0
         NFxFlg=           0 DoJE=T BraDBF=F KetDBF=T FulRan=T
         wScrn=  0.000000 ICntrl=       500 IOpCl=  0 I1Cent=   200000004 NGrid=           0
         NMat0=    1 NMatS0=      1 NMatT0=    0 NMatD0=    1 NMtDS0=    0 NMtDT0=    0
 Petite list used in FoFCou.
 Initial guess orbital symmetries:
 Alpha Orbitals:
       Occupied  (A') (A') (A') (A') (A') (A') (A') (A") (A') (A")
                 (A') (A')
       Virtual   (A') (A") (A') (A') (A") (A') (A') (A") (A') (A')
                 (A") (A') (A') (A') (A') (A") (A') (A') (A") (A')
                 (A") (A') (A') (A') (A") (A') (A') (A') (A") (A')
                 (A') (A") (A') (A") (A') (A') (A') (A") (A") (A')
                 (A') (A') (A") (A') (A") (A') (A') (A") (A') (A')
                 (A") (A') (A') (A") (A') (A') (A") (A') (A") (A')
                 (A') (A") (A') (A") (A') (A') (A') (A') (A')
 Beta  Orbitals:
       Occupied  (A') (A') (A') (A') (A') (A') (A') (A") (A') (A")
                 (A')
       Virtual   (A') (A') (A") (A') (A') (A") (A') (A') (A") (A')
                 (A') (A") (A') (A') (A') (A') (A") (A') (A') (A")
                 (A') (A") (A') (A') (A') (A") (A') (A') (A') (A")
                 (A') (A') (A") (A') (A") (A') (A') (A') (A") (A")
                 (A') (A') (A') (A") (A') (A") (A') (A') (A") (A')
                 (A') (A") (A') (A') (A") (A') (A') (A") (A') (A")
                 (A') (A') (A") (A') (A") (A') (A') (A') (A') (A')
 The electronic state of the initial guess is 2-A'.
 Initial guess <Sx>= 0.0000 <Sy>= 0.0000 <Sz>= 0.5000 <S**2>= 0.7500 S= 0.5000
 Keep R1 and R2 ints in memory in symmetry-blocked form, NReq=32943235.
 Requested convergence on RMS density matrix=1.00D-08 within  32 cycles.
 Requested convergence on MAX density matrix=1.00D-06.
 Requested convergence on             energy=1.00D-06.
 No special actions if energy rises.
 SCF Done:  E(UwB97XD) =  -213.103522891     A.U. after   15 cycles
            NFock= 15  Conv=0.59D-08     -V/T= 2.0025
 <Sx>= 0.0000 <Sy>= 0.0000 <Sz>= 0.5000 <S**2>= 0.7543 S= 0.5021
 <L.S>= 0.000000000000E+00
 Annihilation of the first spin contaminant:
 S**2 before annihilation     0.7543,   after     0.7500
 QCSCF skips out because SCF is already converged.

 **********************************************************************

            Population analysis using the SCF density.

 **********************************************************************

 Orbital symmetries:
 Alpha Orbitals:
       Occupied  (A') (A') (A') (A') (A') (A') (A') (A') (A") (A")
                 (A') (A')
       Virtual   (A") (A') (A') (A') (A") (A') (A') (A") (A') (A')
                 (A') (A") (A') (A') (A') (A") (A') (A') (A") (A')
                 (A") (A') (A') (A') (A") (A') (A') (A') (A") (A')
                 (A') (A") (A') (A") (A') (A') (A') (A") (A") (A')
                 (A') (A') (A") (A') (A") (A') (A') (A") (A') (A')
                 (A") (A') (A') (A") (A') (A') (A") (A') (A") (A')
                 (A') (A") (A') (A") (A') (A') (A') (A') (A')
 Beta  Orbitals:
       Occupied  (A') (A') (A') (A') (A') (A') (A") (A') (A') (A")
                 (A')
       Virtual   (A') (A") (A') (A') (A") (A') (A') (A') (A") (A')
                 (A') (A") (A') (A') (A') (A') (A") (A') (A') (A")
                 (A') (A") (A') (A') (A') (A") (A') (A') (A") (A')
                 (A') (A') (A") (A') (A") (A') (A') (A') (A") (A")
                 (A') (A') (A') (A") (A') (A") (A') (A") (A') (A')
                 (A') (A") (A') (A') (A") (A') (A') (A") (A') (A")
                 (A') (A') (A") (A') (A") (A') (A') (A') (A') (A')
 The electronic state is 2-A'.
 Alpha  occ. eigenvalues --  -24.89302 -19.33257 -10.48623  -1.41389  -1.24637
 Alpha  occ. eigenvalues --   -0.77331  -0.64491  -0.64170  -0.63897  -0.52078
 Alpha  occ. eigenvalues --   -0.52041  -0.37303
 Alpha virt. eigenvalues --    0.02748   0.07912   0.10003   0.10263   0.10521
 Alpha virt. eigenvalues --    0.24098   0.25496   0.28089   0.28968   0.32547
 Alpha virt. eigenvalues --    0.33409   0.33449   0.37726   0.41140   0.49840
 Alpha virt. eigenvalues --    0.58238   0.58825   0.70485   0.74969   0.79813
 Alpha virt. eigenvalues --    0.89117   0.89807   1.05719   1.08841   1.11333
 Alpha virt. eigenvalues --    1.25075   1.33391   1.35711   1.36386   1.43191
 Alpha virt. eigenvalues --    1.55027   1.62102   1.70572   1.89476   1.90733
 Alpha virt. eigenvalues --    2.01990   2.14925   2.19010   2.34531   2.51812
 Alpha virt. eigenvalues --    2.58422   2.73632   2.83565   3.06645   3.26767
 Alpha virt. eigenvalues --    3.29699   3.36909   3.37077   3.67607   4.05022
 Alpha virt. eigenvalues --    5.06286   5.10322   5.96902   6.33487   6.35744
 Alpha virt. eigenvalues --    6.65985   6.78741   6.85629   7.02415   7.11241
 Alpha virt. eigenvalues --    7.21885   9.09667   9.10295   9.27531   9.38984
 Alpha virt. eigenvalues --    9.71308  24.08994  49.97897  66.86288
  Beta  occ. eigenvalues --  -24.88742 -19.32701 -10.47507  -1.39824  -1.23089
  Beta  occ. eigenvalues --   -0.74788  -0.62927  -0.62531  -0.61046  -0.51540
  Beta  occ. eigenvalues --   -0.48915
  Beta virt. eigenvalues --   -0.06626   0.05382   0.09684   0.11051   0.11953
  Beta virt. eigenvalues --    0.12128   0.25268   0.26007   0.28422   0.30377
  Beta virt. eigenvalues --    0.33278   0.33840   0.34547   0.38267   0.41571
  Beta virt. eigenvalues --    0.51580   0.59052   0.61110   0.72236   0.76734
  Beta virt. eigenvalues --    0.81442   0.90016   0.91130   1.06403   1.10110
  Beta virt. eigenvalues --    1.11565   1.26081   1.35049   1.36760   1.36842
  Beta virt. eigenvalues --    1.43774   1.55459   1.62868   1.71503   1.90031
  Beta virt. eigenvalues --    1.91268   2.02893   2.15961   2.19376   2.35132
  Beta virt. eigenvalues --    2.53182   2.60160   2.75121   2.85341   3.10080
  Beta virt. eigenvalues --    3.31342   3.33654   3.39900   3.40155   3.70629
  Beta virt. eigenvalues --    4.06999   5.06616   5.12573   5.98265   6.33972
  Beta virt. eigenvalues --    6.36796   6.67456   6.80475   6.87466   7.03190
  Beta virt. eigenvalues --    7.13468   7.23206   9.10553   9.11209   9.29117
  Beta virt. eigenvalues --    9.40900   9.73287  24.10821  49.98398  66.86726
          Condensed to atoms (all electrons):
               1          2          3
     1  F    9.127302   0.033087   0.015996
     2  C    0.033087   5.180482   0.382957
     3  O    0.015996   0.382957   7.828136
          Atomic-Atomic Spin Densities.
               1          2          3
     1  F    0.264967  -0.211286   0.014573
     2  C   -0.211286   1.100294  -0.121583
     3  O    0.014573  -0.121583   0.271332
 Mulliken charges and spin densities:
               1          2
     1  F   -0.176385   0.068254
     2  C    0.403473   0.767425
     3  O   -0.227089   0.164321
 Sum of Mulliken charges =   0.00000   1.00000
 Mulliken charges and spin densities with hydrogens summed into heavy atoms:
               1          2
     1  F   -0.176385   0.068254
     2  C    0.403473   0.767425
     3  O   -0.227089   0.164321
 Electronic spatial extent (au):  <R**2>=            116.1334
 Charge=             -0.0000 electrons
 Dipole moment (field-independent basis, Debye):
    X=             -0.7402    Y=              0.2331    Z=              0.0000  Tot=              0.7760
 Quadrupole moment (field-independent basis, Debye-Ang):
   XX=            -17.5269   YY=            -15.6947   ZZ=            -14.6432
   XY=             -0.4088   XZ=              0.0000   YZ=              0.0000
 Traceless Quadrupole moment (field-independent basis, Debye-Ang):
   XX=             -1.5720   YY=              0.2602   ZZ=              1.3118
   XY=             -0.4088   XZ=              0.0000   YZ=              0.0000
 Octapole moment (field-independent basis, Debye-Ang**2):
  XXX=             -4.6500  YYY=             -4.1368  ZZZ=              0.0000  XYY=             -1.1082
  XXY=             -1.4922  XXZ=              0.0000  XZZ=             -1.0795  YZZ=             -1.0502
  YYZ=              0.0000  XYZ=              0.0000
 Hexadecapole moment (field-independent basis, Debye-Ang**3):
 XXXX=            -85.1665 YYYY=            -26.5905 ZZZZ=            -11.7097 XXXY=             -9.6507
 XXXZ=              0.0000 YYYX=             -8.9359 YYYZ=              0.0000 ZZZX=              0.0000
 ZZZY=              0.0000 XXYY=            -18.2225 XXZZ=            -15.7788 YYZZ=             -6.2852
 XXYZ=              0.0000 YYXZ=              0.0000 ZZXY=             -3.1352
 N-N= 6.047101527427D+01 E-N=-6.255550533691D+02  KE= 2.125749505833D+02
 Symmetry A'   KE= 2.023015658105D+02
 Symmetry A"   KE= 1.027338477281D+01
 Symmetry A'   SP= 1.000000000000D+00
 Symmetry A"   SP= 1.401290650356D-14
                          Isotropic Fermi Contact Couplings
        Atom                 a.u.       MegaHertz       Gauss      10(-4) cm-1
     1  F(19)              0.21272     894.99737     319.35732     298.53899
     2  C(13)              0.68526     770.35950     274.88343     256.96427
     3  O(17)              0.08805     -53.37271     -19.04471     -17.80322
 --------------------------------------------------------
       Center         ----  Spin Dipole Couplings  ----
                      3XX-RR        3YY-RR        3ZZ-RR
 --------------------------------------------------------
     1   Atom       -0.411203      0.983653     -0.572450
     2   Atom       -0.093576      0.347848     -0.254272
     3   Atom       -0.354312      1.054465     -0.700152
 --------------------------------------------------------
                        XY            XZ            YZ
 --------------------------------------------------------
     1   Atom        0.509217      0.000000      0.000000
     2   Atom       -0.457342      0.000000      0.000000
     3   Atom       -0.431666      0.000000      0.000000
 --------------------------------------------------------


 ---------------------------------------------------------------------------------
              Anisotropic Spin Dipole Couplings in Principal Axis System
 ---------------------------------------------------------------------------------

       Atom             a.u.   MegaHertz   Gauss  10(-4) cm-1        Axes

              Baa    -0.5773  -289.944  -103.459   -96.715  0.9507 -0.3101  0.0000
     1 F(19)  Bbb    -0.5724  -287.499  -102.587   -95.899  0.0000  0.0000  1.0000
              Bcc     1.1498   577.443   206.046   192.614  0.3101  0.9507  0.0000
 
              Baa    -0.3807   -51.083   -18.228   -17.040  0.8469  0.5317  0.0000
     2 C(13)  Bbb    -0.2543   -34.121   -12.175   -11.382  0.0000  0.0000  1.0000
              Bcc     0.6350    85.204    30.403    28.421 -0.5317  0.8469  0.0000
 
              Baa    -0.7002    50.663    18.078    16.899  0.0000  0.0000  1.0000
     3 O(17)  Bbb    -0.4761    34.447    12.292    11.490  0.9625  0.2714  0.0000
              Bcc     1.1762   -85.110   -30.369   -28.390 -0.2714  0.9625  0.0000
 

 ---------------------------------------------------------------------------------

 Calling FoFJK, ICntrl=      2127 FMM=F ISym2X=1 I1Cent= 0 IOpClX= 1 NMat=1 NMatS=1 NMatT=0.
 ***** Axes restored to original set *****
 -------------------------------------------------------------------
 Center     Atomic                   Forces (Hartrees/Bohr)
 Number     Number              X              Y              Z
 -------------------------------------------------------------------
      1        9          -0.000048675   -0.000040288   -0.000000000
      2        6           0.000047296    0.000040682   -0.000000000
      3        8           0.000001379   -0.000000394   -0.000000000
 -------------------------------------------------------------------
 Cartesian Forces:  Max     0.000048675 RMS     0.000029602

 GradGradGradGradGradGradGradGradGradGradGradGradGradGradGradGradGradGrad
 Berny optimization.
 FormGI is forming the generalized inverse of G from B-inverse, IUseBI=4.
 Internal  Forces:  Max     0.000063308 RMS     0.000036561
 Search for a local minimum.
 Step number   1 out of a maximum of   20
 All quantities printed in internal units (Hartrees-Bohrs-Radians)
 Mixed Optimization -- En-DIIS/RFO-DIIS
 Second derivative matrix not updated -- first step.
 The second derivative matrix:
                          R1        R2        A1
           R1           0.60684
           R2           0.00000   1.25982
           A1           0.00000   0.00000   0.25000
 ITU=  0
     Eigenvalues ---    0.25000   0.60684   1.25982
 RFO step:  Lambda= 0.00000000D+00 EMin= 2.50000000D-01
 Linear search not attempted -- first point.
 Iteration  1 RMS(Cart)=  0.00004878 RMS(Int)=  0.00000000
 Iteration  2 RMS(Cart)=  0.00000000 RMS(Int)=  0.00000000
 ClnCor:  largest displacement from symmetrization is 8.95D-16 for atom     3.
 Variable       Old X    -DE/DX   Delta X   Delta X   Delta X     New X
                                 (Linear)    (Quad)   (Total)
    R1        2.50403   0.00006   0.00000   0.00010   0.00010   2.50413
    R2        2.19736   0.00000   0.00000   0.00000   0.00000   2.19736
    A1        2.22656   0.00000   0.00000   0.00000   0.00000   2.22657
         Item               Value     Threshold  Converged?
 Maximum Force            0.000063     0.000015     NO 
 RMS     Force            0.000037     0.000010     NO 
 Maximum Displacement     0.000061     0.000060     NO 
 RMS     Displacement     0.000049     0.000040     NO 
 Predicted change in Energy=-3.304035D-09
 GradGradGradGradGradGradGradGradGradGradGradGradGradGradGradGradGradGrad

                          Input orientation:                          
 ---------------------------------------------------------------------
 Center     Atomic      Atomic             Coordinates (Angstroms)
 Number     Number       Type             X           Y           Z
 ---------------------------------------------------------------------
      1          9           0       -1.010574   -0.436786    0.000000
      2          6           0        0.000016    0.420345    0.000000
      3          8           0        1.136875    0.176120    0.000000
 ---------------------------------------------------------------------
                    Distance matrix (angstroms):
                    1          2          3
     1  F    0.000000
     2  C    1.325129   0.000000
     3  O    2.233202   1.162795   0.000000
 Stoichiometry    CFO(2)
 Framework group  CS[SG(CFO)]
 Deg. of freedom     3
 Full point group                 CS      NOp   2
 Largest Abelian subgroup         CS      NOp   2
 Largest concise Abelian subgroup C1      NOp   1
                         Standard orientation:                         
 ---------------------------------------------------------------------
 Center     Atomic      Atomic             Coordinates (Angstroms)
 Number     Number       Type             X           Y           Z
 ---------------------------------------------------------------------
      1          9           0       -1.010551   -0.436831    0.000000
      2          6           0        0.000000    0.420347    0.000000
      3          8           0        1.136870    0.176174    0.000000
 ---------------------------------------------------------------------
 Rotational constants (GHZ):         190.5609466          11.5810585          10.9175600
 Standard basis: 6-311+G(2d,2p) (5D, 7F)
 There are    63 symmetry adapted cartesian basis functions of A'  symmetry.
 There are    24 symmetry adapted cartesian basis functions of A"  symmetry.
 There are    57 symmetry adapted basis functions of A'  symmetry.
 There are    24 symmetry adapted basis functions of A"  symmetry.
    81 basis functions,   126 primitive gaussians,    87 cartesian basis functions
    12 alpha electrons       11 beta electrons
       nuclear repulsion energy        60.4697605976 Hartrees.
 NAtoms=    3 NActive=    3 NUniq=    3 SFac= 1.00D+00 NAtFMM=   60 NAOKFM=F Big=F
 Integral buffers will be    131072 words long.
 Raffenetti 2 integral format.
 Two-electron integral symmetry is turned on.
 Nuclear repulsion after empirical dispersion term =       60.4697064888 Hartrees.
 One-electron integrals computed using PRISM.
 NBasis=    81 RedAO= T EigKep=  1.14D-03  NBF=    57    24
 NBsUse=    81 1.00D-06 EigRej= -1.00D+00 NBFU=    57    24
 Initial guess from the checkpoint file:  "cfo.chk"
 B after Tr=    -0.000000   -0.000000    0.000000
         Rot=    1.000000    0.000000    0.000000   -0.000023 Ang=  -0.00 deg.
 Initial guess orbital symmetries:
 Alpha Orbitals:
       Occupied  (A') (A') (A') (A') (A') (A') (A') (A') (A") (A")
                 (A') (A')
       Virtual   (A") (A') (A') (A') (A") (A') (A') (A") (A') (A')
                 (A') (A") (A') (A') (A') (A") (A') (A') (A") (A')
                 (A") (A') (A') (A') (A") (A') (A') (A') (A") (A')
                 (A') (A") (A') (A") (A') (A') (A') (A") (A") (A')
                 (A') (A') (A") (A') (A") (A') (A') (A") (A') (A')
                 (A") (A') (A') (A") (A') (A') (A") (A') (A") (A')
                 (A') (A") (A') (A") (A') (A') (A') (A') (A')
 Beta  Orbitals:
       Occupied  (A') (A') (A') (A') (A') (A') (A") (A') (A') (A")
                 (A')
       Virtual   (A') (A") (A') (A') (A") (A') (A') (A') (A") (A')
                 (A') (A") (A') (A') (A') (A') (A") (A') (A') (A")
                 (A') (A") (A') (A') (A') (A") (A') (A') (A") (A')
                 (A') (A') (A") (A') (A") (A') (A') (A') (A") (A")
                 (A') (A') (A') (A") (A') (A") (A') (A") (A') (A')
                 (A') (A") (A') (A') (A") (A') (A') (A") (A') (A")
                 (A') (A') (A") (A') (A") (A') (A') (A') (A') (A')
 Initial guess <Sx>= 0.0000 <Sy>= 0.0000 <Sz>= 0.5000 <S**2>= 0.7543 S= 0.5021
 Keep R1 and R2 ints in memory in symmetry-blocked form, NReq=32943235.
 Requested convergence on RMS density matrix=1.00D-08 within  32 cycles.
 Requested convergence on MAX density matrix=1.00D-06.
 Requested convergence on             energy=1.00D-06.
 No special actions if energy rises.
 SCF Done:  E(UwB97XD) =  -213.103522896     A.U. after    7 cycles
            NFock=  7  Conv=0.42D-08     -V/T= 2.0025
 <Sx>= 0.0000 <Sy>= 0.0000 <Sz>= 0.5000 <S**2>= 0.7543 S= 0.5021
 <L.S>= 0.000000000000E+00
 Annihilation of the first spin contaminant:
 S**2 before annihilation     0.7543,   after     0.7500
 QCSCF skips out because SCF is already converged.
 Calling FoFJK, ICntrl=      2127 FMM=F ISym2X=1 I1Cent= 0 IOpClX= 1 NMat=1 NMatS=1 NMatT=0.
 ***** Axes restored to original set *****
 -------------------------------------------------------------------
 Center     Atomic                   Forces (Hartrees/Bohr)
 Number     Number              X              Y              Z
 -------------------------------------------------------------------
      1        9          -0.000020902   -0.000019229   -0.000000000
      2        6           0.000032418    0.000019072   -0.000000000
      3        8          -0.000011516    0.000000157   -0.000000000
 -------------------------------------------------------------------
 Cartesian Forces:  Max     0.000032418 RMS     0.000016173

 GradGradGradGradGradGradGradGradGradGradGradGradGradGradGradGradGradGrad
 Berny optimization.
 Using GEDIIS/GDIIS optimizer.
 FormGI is forming the generalized inverse of G from B-inverse, IUseBI=4.
 Internal  Forces:  Max     0.000028506 RMS     0.000017885
 Search for a local minimum.
 Step number   2 out of a maximum of   20
 All quantities printed in internal units (Hartrees-Bohrs-Radians)
 Mixed Optimization -- En-DIIS/RFO-DIIS
 Swapping is turned off.
 Update second derivatives using D2CorX and points    1    2
 DE= -4.68D-09 DEPred=-3.30D-09 R= 1.42D+00
 Trust test= 1.42D+00 RLast= 1.04D-04 DXMaxT set to 3.00D-01
 The second derivative matrix:
                          R1        R2        A1
           R1           0.33145
           R2           0.10873   1.30383
           A1           0.03827   0.01644   0.25613
 ITU=  0  0
     Eigenvalues ---    0.23935   0.33582   1.31624
 En-DIIS/RFO-DIIS/Sim-DIIS IScMMF=       -3 using points:     2    1
 RFO step:  Lambda= 0.00000000D+00.
 DIIS inversion failure, remove point   2.
 Use linear search instead of GDIIS.
 RFO step:  Lambda= 0.00000000D+00 EMin= 2.39348024D-01
 Quartic linear search produced a step of  1.17733.
 Iteration  1 RMS(Cart)=  0.00005613 RMS(Int)=  0.00000000
 Iteration  2 RMS(Cart)=  0.00000000 RMS(Int)=  0.00000000
 ClnCor:  largest displacement from symmetrization is 8.95D-16 for atom     3.
 Variable       Old X    -DE/DX   Delta X   Delta X   Delta X     New X
                                 (Linear)    (Quad)   (Total)
    R1        2.50413   0.00003   0.00012   0.00001   0.00014   2.50427
    R2        2.19736  -0.00001   0.00000  -0.00002  -0.00002   2.19735
    A1        2.22657  -0.00000   0.00000  -0.00004  -0.00003   2.22653
         Item               Value     Threshold  Converged?
 Maximum Force            0.000029     0.000015     NO 
 RMS     Force            0.000018     0.000010     NO 
 Maximum Displacement     0.000052     0.000060     YES
 RMS     Displacement     0.000056     0.000040     NO 
 Predicted change in Energy=-1.237071D-09
 GradGradGradGradGradGradGradGradGradGradGradGradGradGradGradGradGradGrad

                          Input orientation:                          
 ---------------------------------------------------------------------
 Center     Atomic      Atomic             Coordinates (Angstroms)
 Number     Number       Type             X           Y           Z
 ---------------------------------------------------------------------
      1          9           0       -1.010602   -0.436811    0.000000
      2          6           0        0.000039    0.420372    0.000000
      3          8           0        1.136880    0.176117    0.000000
 ---------------------------------------------------------------------
                    Distance matrix (angstroms):
                    1          2          3
     1  F    0.000000
     2  C    1.325201   0.000000
     3  O    2.233240   1.162785   0.000000
 Stoichiometry    CFO(2)
 Framework group  CS[SG(CFO)]
 Deg. of freedom     3
 Full point group                 CS      NOp   2
 Largest Abelian subgroup         CS      NOp   2
 Largest concise Abelian subgroup C1      NOp   1
                         Standard orientation:                         
 ---------------------------------------------------------------------
 Center     Atomic      Atomic             Coordinates (Angstroms)
 Number     Number       Type             X           Y           Z
 ---------------------------------------------------------------------
      1          9           0       -1.010549   -0.436913    0.000000
      2          6           0        0.000000    0.420378    0.000000
      3          8           0        1.136868    0.176244    0.000000
 ---------------------------------------------------------------------
 Rotational constants (GHZ):         190.5411504          11.5806222          10.9171072
 Standard basis: 6-311+G(2d,2p) (5D, 7F)
 There are    63 symmetry adapted cartesian basis functions of A'  symmetry.
 There are    24 symmetry adapted cartesian basis functions of A"  symmetry.
 There are    57 symmetry adapted basis functions of A'  symmetry.
 There are    24 symmetry adapted basis functions of A"  symmetry.
    81 basis functions,   126 primitive gaussians,    87 cartesian basis functions
    12 alpha electrons       11 beta electrons
       nuclear repulsion energy        60.4684985730 Hartrees.
 NAtoms=    3 NActive=    3 NUniq=    3 SFac= 1.00D+00 NAtFMM=   60 NAOKFM=F Big=F
 Integral buffers will be    131072 words long.
 Raffenetti 2 integral format.
 Two-electron integral symmetry is turned on.
 Nuclear repulsion after empirical dispersion term =       60.4684444586 Hartrees.
 One-electron integrals computed using PRISM.
 NBasis=    81 RedAO= T EigKep=  1.14D-03  NBF=    57    24
 NBsUse=    81 1.00D-06 EigRej= -1.00D+00 NBFU=    57    24
 Initial guess from the checkpoint file:  "cfo.chk"
 B after Tr=     0.000000    0.000000    0.000000
         Rot=    1.000000    0.000000    0.000000   -0.000031 Ang=  -0.00 deg.
 Initial guess orbital symmetries:
 Alpha Orbitals:
       Occupied  (A') (A') (A') (A') (A') (A') (A') (A') (A") (A")
                 (A') (A')
       Virtual   (A") (A') (A') (A') (A") (A') (A') (A") (A') (A')
                 (A') (A") (A') (A') (A') (A") (A') (A') (A") (A')
                 (A") (A') (A') (A') (A") (A') (A') (A') (A") (A')
                 (A') (A") (A') (A") (A') (A') (A') (A") (A") (A')
                 (A') (A') (A") (A') (A") (A') (A') (A") (A') (A')
                 (A") (A') (A') (A") (A') (A') (A") (A') (A") (A')
                 (A') (A") (A') (A") (A') (A') (A') (A') (A')
 Beta  Orbitals:
       Occupied  (A') (A') (A') (A') (A') (A') (A") (A') (A') (A")
                 (A')
       Virtual   (A') (A") (A') (A') (A") (A') (A') (A') (A") (A')
                 (A') (A") (A') (A') (A') (A') (A") (A') (A') (A")
                 (A') (A") (A') (A') (A') (A") (A') (A') (A") (A')
                 (A') (A') (A") (A') (A") (A') (A') (A') (A") (A")
                 (A') (A') (A') (A") (A') (A") (A') (A") (A') (A')
                 (A') (A") (A') (A') (A") (A') (A') (A") (A') (A")
                 (A') (A') (A") (A') (A") (A') (A') (A') (A') (A')
 Initial guess <Sx>= 0.0000 <Sy>= 0.0000 <Sz>= 0.5000 <S**2>= 0.7543 S= 0.5021
 Keep R1 and R2 ints in memory in symmetry-blocked form, NReq=32943235.
 Requested convergence on RMS density matrix=1.00D-08 within  32 cycles.
 Requested convergence on MAX density matrix=1.00D-06.
 Requested convergence on             energy=1.00D-06.
 No special actions if energy rises.
 SCF Done:  E(UwB97XD) =  -213.103522897     A.U. after    7 cycles
            NFock=  7  Conv=0.53D-08     -V/T= 2.0025
 <Sx>= 0.0000 <Sy>= 0.0000 <Sz>= 0.5000 <S**2>= 0.7543 S= 0.5021
 <L.S>= 0.000000000000E+00
 Annihilation of the first spin contaminant:
 S**2 before annihilation     0.7543,   after     0.7500
 QCSCF skips out because SCF is already converged.
 Calling FoFJK, ICntrl=      2127 FMM=F ISym2X=1 I1Cent= 0 IOpClX= 1 NMat=1 NMatS=1 NMatT=0.
 ***** Axes restored to original set *****
 -------------------------------------------------------------------
 Center     Atomic                   Forces (Hartrees/Bohr)
 Number     Number              X              Y              Z
 -------------------------------------------------------------------
      1        9           0.000009039    0.000009642   -0.000000000
      2        6          -0.000004745   -0.000011340   -0.000000000
      3        8          -0.000004294    0.000001698   -0.000000000
 -------------------------------------------------------------------
 Cartesian Forces:  Max     0.000011340 RMS     0.000006210

 GradGradGradGradGradGradGradGradGradGradGradGradGradGradGradGradGradGrad
 Berny optimization.
 Using GEDIIS/GDIIS optimizer.
 FormGI is forming the generalized inverse of G from B-inverse, IUseBI=4.
 Internal  Forces:  Max     0.000013003 RMS     0.000008124
 Search for a local minimum.
 Step number   3 out of a maximum of   20
 All quantities printed in internal units (Hartrees-Bohrs-Radians)
 Mixed Optimization -- En-DIIS/RFO-DIIS
 Swapping is turned off.
 Update second derivatives using D2CorX and points    1    2    3
 DE= -1.10D-09 DEPred=-1.24D-09 R= 8.90D-01
 Trust test= 8.90D-01 RLast= 1.41D-04 DXMaxT set to 3.00D-01
 The second derivative matrix:
                          R1        R2        A1
           R1           0.33104
           R2           0.14176   1.30051
           A1           0.01677   0.01543   0.25887
 ITU=  0  0  0
     Eigenvalues ---    0.25486   0.31446   1.32111
 En-DIIS/RFO-DIIS/Sim-DIIS IScMMF=       -3 using points:     3    2    1
 RFO step:  Lambda= 0.00000000D+00.
 DIIS inversion failure, remove point   3.
 DIIS inversion failure, remove point   2.
 Use linear search instead of GDIIS.
 RFO step:  Lambda= 0.00000000D+00 EMin= 2.54858177D-01
 Quartic linear search produced a step of -0.32218.
 Iteration  1 RMS(Cart)=  0.00001881 RMS(Int)=  0.00000000
 Iteration  2 RMS(Cart)=  0.00000000 RMS(Int)=  0.00000000
 ClnCor:  largest displacement from symmetrization is 8.95D-16 for atom     3.
 Variable       Old X    -DE/DX   Delta X   Delta X   Delta X     New X
                                 (Linear)    (Quad)   (Total)
    R1        2.50427  -0.00001  -0.00004  -0.00000  -0.00004   2.50422
    R2        2.19735  -0.00000   0.00001  -0.00001   0.00000   2.19735
    A1        2.22653   0.00000   0.00001   0.00000   0.00001   2.22655
         Item               Value     Threshold  Converged?
 Maximum Force            0.000013     0.000015     YES
 RMS     Force            0.000008     0.000010     YES
 Maximum Displacement     0.000019     0.000060     YES
 RMS     Displacement     0.000019     0.000040     YES
 Predicted change in Energy=-2.739795D-10
 Optimization completed.
    -- Stationary point found.
                           ----------------------------
                           !   Optimized Parameters   !
                           ! (Angstroms and Degrees)  !
 --------------------------                            --------------------------
 ! Name  Definition              Value          Derivative Info.                !
 --------------------------------------------------------------------------------
 ! R1    R(1,2)                  1.3252         -DE/DX =    0.0                 !
 ! R2    R(2,3)                  1.1628         -DE/DX =    0.0                 !
 ! A1    A(1,2,3)              127.5709         -DE/DX =    0.0                 !
 --------------------------------------------------------------------------------
 GradGradGradGradGradGradGradGradGradGradGradGradGradGradGradGradGradGrad

                          Input orientation:                          
 ---------------------------------------------------------------------
 Center     Atomic      Atomic             Coordinates (Angstroms)
 Number     Number       Type             X           Y           Z
 ---------------------------------------------------------------------
      1          9           0       -1.010602   -0.436811    0.000000
      2          6           0        0.000039    0.420372    0.000000
      3          8           0        1.136880    0.176117    0.000000
 ---------------------------------------------------------------------
                    Distance matrix (angstroms):
                    1          2          3
     1  F    0.000000
     2  C    1.325201   0.000000
     3  O    2.233240   1.162785   0.000000
 Stoichiometry    CFO(2)
 Framework group  CS[SG(CFO)]
 Deg. of freedom     3
 Full point group                 CS      NOp   2
 Largest Abelian subgroup         CS      NOp   2
 Largest concise Abelian subgroup C1      NOp   1
                         Standard orientation:                         
 ---------------------------------------------------------------------
 Center     Atomic      Atomic             Coordinates (Angstroms)
 Number     Number       Type             X           Y           Z
 ---------------------------------------------------------------------
      1          9           0       -1.010549   -0.436913    0.000000
      2          6           0        0.000000    0.420378    0.000000
      3          8           0        1.136868    0.176244    0.000000
 ---------------------------------------------------------------------
 Rotational constants (GHZ):         190.5411504          11.5806222          10.9171072

 **********************************************************************

            Population analysis using the SCF density.

 **********************************************************************

 Orbital symmetries:
 Alpha Orbitals:
       Occupied  (A') (A') (A') (A') (A') (A') (A') (A') (A") (A")
                 (A') (A')
       Virtual   (A") (A') (A') (A') (A") (A') (A') (A") (A') (A')
                 (A') (A") (A') (A') (A') (A") (A') (A') (A") (A')
                 (A") (A') (A') (A') (A") (A') (A') (A') (A") (A')
                 (A') (A") (A') (A") (A') (A') (A') (A") (A") (A')
                 (A') (A') (A") (A') (A") (A') (A') (A") (A') (A')
                 (A") (A') (A') (A") (A') (A') (A") (A') (A") (A')
                 (A') (A") (A') (A") (A') (A') (A') (A') (A')
 Beta  Orbitals:
       Occupied  (A') (A') (A') (A') (A') (A') (A") (A') (A') (A")
                 (A')
       Virtual   (A') (A") (A') (A') (A") (A') (A') (A') (A") (A')
                 (A') (A") (A') (A') (A') (A') (A") (A') (A') (A")
                 (A') (A") (A') (A') (A') (A") (A') (A') (A") (A')
                 (A') (A') (A") (A') (A") (A') (A') (A') (A") (A")
                 (A') (A') (A') (A") (A') (A") (A') (A") (A') (A')
                 (A') (A") (A') (A') (A") (A') (A') (A") (A') (A")
                 (A') (A') (A") (A') (A") (A') (A') (A') (A') (A')
 The electronic state is 2-A'.
 Alpha  occ. eigenvalues --  -24.89299 -19.33259 -10.48624  -1.41382  -1.24639
 Alpha  occ. eigenvalues --   -0.77327  -0.64488  -0.64171  -0.63893  -0.52079
 Alpha  occ. eigenvalues --   -0.52042  -0.37306
 Alpha virt. eigenvalues --    0.02746   0.07912   0.10003   0.10263   0.10521
 Alpha virt. eigenvalues --    0.24094   0.25495   0.28089   0.28966   0.32546
 Alpha virt. eigenvalues --    0.33407   0.33449   0.37726   0.41140   0.49839
 Alpha virt. eigenvalues --    0.58238   0.58825   0.70482   0.74968   0.79814
 Alpha virt. eigenvalues --    0.89115   0.89807   1.05717   1.08840   1.11332
 Alpha virt. eigenvalues --    1.25073   1.33390   1.35714   1.36387   1.43191
 Alpha virt. eigenvalues --    1.55026   1.62101   1.70569   1.89477   1.90736
 Alpha virt. eigenvalues --    2.01988   2.14923   2.19008   2.34530   2.51812
 Alpha virt. eigenvalues --    2.58418   2.73609   2.83563   3.06642   3.26764
 Alpha virt. eigenvalues --    3.29694   3.36909   3.37074   3.67605   4.05022
 Alpha virt. eigenvalues --    5.06284   5.10320   5.96900   6.33490   6.35746
 Alpha virt. eigenvalues --    6.65969   6.78738   6.85620   7.02413   7.11238
 Alpha virt. eigenvalues --    7.21883   9.09669   9.10296   9.27527   9.38979
 Alpha virt. eigenvalues --    9.71306  24.08981  49.97895  66.86290
  Beta  occ. eigenvalues --  -24.88739 -19.32703 -10.47508  -1.39816  -1.23091
  Beta  occ. eigenvalues --   -0.74784  -0.62923  -0.62530  -0.61044  -0.51541
  Beta  occ. eigenvalues --   -0.48917
  Beta virt. eigenvalues --   -0.06629   0.05380   0.09683   0.11051   0.11952
  Beta virt. eigenvalues --    0.12128   0.25265   0.26006   0.28422   0.30375
  Beta virt. eigenvalues --    0.33278   0.33840   0.34545   0.38267   0.41571
  Beta virt. eigenvalues --    0.51578   0.59052   0.61109   0.72234   0.76734
  Beta virt. eigenvalues --    0.81442   0.90015   0.91130   1.06401   1.10109
  Beta virt. eigenvalues --    1.11564   1.26079   1.35048   1.36762   1.36846
  Beta virt. eigenvalues --    1.43775   1.55457   1.62866   1.71500   1.90032
  Beta virt. eigenvalues --    1.91271   2.02891   2.15958   2.19373   2.35131
  Beta virt. eigenvalues --    2.53182   2.60156   2.75098   2.85339   3.10077
  Beta virt. eigenvalues --    3.31338   3.33649   3.39898   3.40155   3.70627
  Beta virt. eigenvalues --    4.06999   5.06614   5.12570   5.98263   6.33975
  Beta virt. eigenvalues --    6.36798   6.67440   6.80473   6.87458   7.03188
  Beta virt. eigenvalues --    7.13465   7.23205   9.10555   9.11210   9.29114
  Beta virt. eigenvalues --    9.40896   9.73285  24.10808  49.98396  66.86729
          Condensed to atoms (all electrons):
               1          2          3
     1  F    9.127339   0.033096   0.016001
     2  C    0.033096   5.180460   0.382963
     3  O    0.016001   0.382963   7.828081
          Atomic-Atomic Spin Densities.
               1          2          3
     1  F    0.265021  -0.211278   0.014574
     2  C   -0.211278   1.100263  -0.121589
     3  O    0.014574  -0.121589   0.271302
 Mulliken charges and spin densities:
               1          2
     1  F   -0.176436   0.068317
     2  C    0.403482   0.767396
     3  O   -0.227046   0.164287
 Sum of Mulliken charges =  -0.00000   1.00000
 Mulliken charges and spin densities with hydrogens summed into heavy atoms:
               1          2
     1  F   -0.176436   0.068317
     2  C    0.403482   0.767396
     3  O   -0.227046   0.164287
 Electronic spatial extent (au):  <R**2>=            116.1406
 Charge=             -0.0000 electrons
 Dipole moment (field-independent basis, Debye):
    X=             -0.7395    Y=              0.2335    Z=              0.0000  Tot=              0.7755
 Quadrupole moment (field-independent basis, Debye-Ang):
   XX=            -17.5271   YY=            -15.6946   ZZ=            -14.6433
   XY=             -0.4091   XZ=              0.0000   YZ=              0.0000
 Traceless Quadrupole moment (field-independent basis, Debye-Ang):
   XX=             -1.5721   YY=              0.2603   ZZ=              1.3117
   XY=             -0.4091   XZ=              0.0000   YZ=              0.0000
 Octapole moment (field-independent basis, Debye-Ang**2):
  XXX=             -4.6483  YYY=             -4.1367  ZZZ=              0.0000  XYY=             -1.1079
  XXY=             -1.4923  XXZ=              0.0000  XZZ=             -1.0791  YZZ=             -1.0502
  YYZ=              0.0000  XYZ=              0.0000
 Hexadecapole moment (field-independent basis, Debye-Ang**3):
 XXXX=            -85.1680 YYYY=            -26.5957 ZZZZ=            -11.7096 XXXY=             -9.6555
 XXXZ=              0.0000 YYYX=             -8.9405 YYYZ=              0.0000 ZZZX=              0.0000
 ZZZY=              0.0000 XXYY=            -18.2237 XXZZ=            -15.7791 YYZZ=             -6.2861
 XXYZ=              0.0000 YYXZ=              0.0000 ZZXY=             -3.1367
 N-N= 6.046844445856D+01 E-N=-6.255499682899D+02  KE= 2.125747451031D+02
 Symmetry A'   KE= 2.023013509089D+02
 Symmetry A"   KE= 1.027339419418D+01
 Symmetry A'   SP= 1.000000000000D+00
 Symmetry A"   SP= 3.702143843223D-16
                          Isotropic Fermi Contact Couplings
        Atom                 a.u.       MegaHertz       Gauss      10(-4) cm-1
     1  F(19)              0.21270     894.90905     319.32580     298.50953
     2  C(13)              0.68537     770.49035     274.93012     257.00792
     3  O(17)              0.08803     -53.36347     -19.04141     -17.80014
 --------------------------------------------------------
       Center         ----  Spin Dipole Couplings  ----
                      3XX-RR        3YY-RR        3ZZ-RR
 --------------------------------------------------------
     1   Atom       -0.411275      0.983893     -0.572618
     2   Atom       -0.093408      0.347646     -0.254238
     3   Atom       -0.354191      1.054315     -0.700124
 --------------------------------------------------------
                        XY            XZ            YZ
 --------------------------------------------------------
     1   Atom        0.509463      0.000000      0.000000
     2   Atom       -0.457411      0.000000      0.000000
     3   Atom       -0.431763      0.000000      0.000000
 --------------------------------------------------------


 ---------------------------------------------------------------------------------
              Anisotropic Spin Dipole Couplings in Principal Axis System
 ---------------------------------------------------------------------------------

       Atom             a.u.   MegaHertz   Gauss  10(-4) cm-1        Axes

              Baa    -0.5775  -290.038  -103.493   -96.746  0.9507 -0.3102  0.0000
     1 F(19)  Bbb    -0.5726  -287.583  -102.617   -95.928  0.0000  0.0000  1.0000
              Bcc     1.1501   577.622   206.110   192.674  0.3102  0.9507  0.0000
 
              Baa    -0.3807   -51.083   -18.228   -17.040  0.8468  0.5318  0.0000
     2 C(13)  Bbb    -0.2542   -34.116   -12.174   -11.380  0.0000  0.0000  1.0000
              Bcc     0.6349    85.200    30.401    28.419 -0.5318  0.8468  0.0000
 
              Baa    -0.7001    50.661    18.077    16.899  0.0000  0.0000  1.0000
     3 O(17)  Bbb    -0.4760    34.444    12.290    11.489  0.9624  0.2715  0.0000
              Bcc     1.1761   -85.104   -30.367   -28.388 -0.2715  0.9624  0.0000
 

 ---------------------------------------------------------------------------------

 1\1\GINC-CCLEARTI\FOpt\UwB97XD\6-311+G(2d,2p)\C1F1O1(2)\RAPPE\28-Sep-2
 024\0\\# opt=tight uwb97xd/6-311+g(2d,2p) geom=connectivity integral=g
 rid=superfinegrid scf=(xqc,tight) freq\\Title Card Required\\0,2\F,-1.
 0106018653,-0.4368107299,0.\C,0.0000386803,0.4203722409,0.\O,1.1368801
 85,0.1761174891,0.\\Version=EM64M-G16RevA.03\State=2-A'\HF=-213.103522
 9\S2=0.754292\S2-1=0.\S2A=0.750013\RMSD=5.263e-09\RMSF=6.210e-06\Dipol
 e=-0.2909437,0.0918823,0.\Quadrupole=-1.1688682,0.1936265,0.9752417,-0
 .3039934,0.,0.\PG=CS [SG(C1F1O1)]\\@


 IF AT FIRST YOU DON'T SUCCEED, TRY, TRY AGAIN.
 THEN GIVE UP;
 THERE'S NO USE BEING A DAMN FOOL ABOUT IT.

                                 -- W. C. FIELDS
 Job cpu time:       0 days  0 hours  5 minutes 44.5 seconds.
 Elapsed time:       0 days  0 hours  0 minutes 15.0 seconds.
 File lengths (MBytes):  RWF=     10 Int=      0 D2E=      0 Chk=      2 Scr=      1
 Normal termination of Gaussian 16 at Sat Sep 28 08:17:55 2024.
 Link1:  Proceeding to internal job step number  2.
 ----------------------------------------------------------------------
 #N Geom=AllCheck Guess=TCheck SCRF=Check GenChk UwB97XD/6-311+G(2d,2p)
  Freq
 ----------------------------------------------------------------------
 1/7=10,10=4,29=7,30=1,38=1,40=1/1,3;
 2/12=2,40=1/2;
 3/5=4,6=6,7=212,11=2,14=-4,25=1,30=1,70=2,71=2,74=-58,75=-7,116=2,140=1/1,2,3;
 4/5=101/1;
 5/5=2,8=3,13=1,32=2,38=6,98=1/2,8;
 8/6=4,10=90,11=11/1;
 11/6=1,8=1,9=11,15=111,16=1/1,2,10;
 10/6=1/2;
 6/7=2,8=2,9=2,10=2,28=1/1;
 7/8=1,10=1,25=1/1,2,3,16;
 1/7=10,10=4,30=1/3;
 99//99;
 Structure from the checkpoint file:  "cfo.chk"
 -------------------
 Title Card Required
 -------------------
 Charge =  0 Multiplicity = 2
 Redundant internal coordinates found in file.  (old form).
 F,0,-1.0106018653,-0.4368107299,0.
 C,0,0.0000386803,0.4203722409,0.
 O,0,1.136880185,0.1761174891,0.
 Recover connectivity data from disk.

 GradGradGradGradGradGradGradGradGradGradGradGradGradGradGradGradGradGrad
 Berny optimization.
 Initialization pass.
                           ----------------------------
                           !    Initial Parameters    !
                           ! (Angstroms and Degrees)  !
 --------------------------                            --------------------------
 ! Name  Definition              Value          Derivative Info.                !
 --------------------------------------------------------------------------------
 ! R1    R(1,2)                  1.3252         calculate D2E/DX2 analytically  !
 ! R2    R(2,3)                  1.1628         calculate D2E/DX2 analytically  !
 ! A1    A(1,2,3)              127.5709         calculate D2E/DX2 analytically  !
 --------------------------------------------------------------------------------
 Trust Radius=3.00D-01 FncErr=1.00D-07 GrdErr=1.00D-07 EigMax=2.50D+02 EigMin=1.00D-04
 Number of steps in this run=      2 maximum allowed number of steps=      2.
 GradGradGradGradGradGradGradGradGradGradGradGradGradGradGradGradGradGrad

                          Input orientation:                          
 ---------------------------------------------------------------------
 Center     Atomic      Atomic             Coordinates (Angstroms)
 Number     Number       Type             X           Y           Z
 ---------------------------------------------------------------------
      1          9           0       -1.010602   -0.436811    0.000000
      2          6           0        0.000039    0.420372    0.000000
      3          8           0        1.136880    0.176117    0.000000
 ---------------------------------------------------------------------
                    Distance matrix (angstroms):
                    1          2          3
     1  F    0.000000
     2  C    1.325201   0.000000
     3  O    2.233240   1.162785   0.000000
 Stoichiometry    CFO(2)
 Framework group  CS[SG(CFO)]
 Deg. of freedom     3
 Full point group                 CS      NOp   2
 Largest Abelian subgroup         CS      NOp   2
 Largest concise Abelian subgroup C1      NOp   1
                         Standard orientation:                         
 ---------------------------------------------------------------------
 Center     Atomic      Atomic             Coordinates (Angstroms)
 Number     Number       Type             X           Y           Z
 ---------------------------------------------------------------------
      1          9           0       -1.010549   -0.436913    0.000000
      2          6           0        0.000000    0.420378    0.000000
      3          8           0        1.136868    0.176244    0.000000
 ---------------------------------------------------------------------
 Rotational constants (GHZ):         190.5411504          11.5806222          10.9171072
 Standard basis: 6-311+G(2d,2p) (5D, 7F)
 There are    63 symmetry adapted cartesian basis functions of A'  symmetry.
 There are    24 symmetry adapted cartesian basis functions of A"  symmetry.
 There are    57 symmetry adapted basis functions of A'  symmetry.
 There are    24 symmetry adapted basis functions of A"  symmetry.
    81 basis functions,   126 primitive gaussians,    87 cartesian basis functions
    12 alpha electrons       11 beta electrons
       nuclear repulsion energy        60.4684985730 Hartrees.
 NAtoms=    3 NActive=    3 NUniq=    3 SFac= 1.00D+00 NAtFMM=   60 NAOKFM=F Big=F
 Integral buffers will be    131072 words long.
 Raffenetti 2 integral format.
 Two-electron integral symmetry is turned on.
 Nuclear repulsion after empirical dispersion term =       60.4684444586 Hartrees.
 One-electron integrals computed using PRISM.
 NBasis=    81 RedAO= T EigKep=  1.14D-03  NBF=    57    24
 NBsUse=    81 1.00D-06 EigRej= -1.00D+00 NBFU=    57    24
 Initial guess from the checkpoint file:  "cfo.chk"
 B after Tr=    -0.000000   -0.000000    0.000000
         Rot=    1.000000    0.000000    0.000000    0.000000 Ang=   0.00 deg.
 Initial guess orbital symmetries:
 Alpha Orbitals:
       Occupied  (A') (A') (A') (A') (A') (A') (A') (A') (A") (A")
                 (A') (A')
       Virtual   (A") (A') (A') (A') (A") (A') (A') (A") (A') (A')
                 (A') (A") (A') (A') (A') (A") (A') (A') (A") (A')
                 (A") (A') (A') (A') (A") (A') (A') (A') (A") (A')
                 (A') (A") (A') (A") (A') (A') (A') (A") (A") (A')
                 (A') (A') (A") (A') (A") (A') (A') (A") (A') (A')
                 (A") (A') (A') (A") (A') (A') (A") (A') (A") (A')
                 (A') (A") (A') (A") (A') (A') (A') (A') (A')
 Beta  Orbitals:
       Occupied  (A') (A') (A') (A') (A') (A') (A") (A') (A') (A")
                 (A')
       Virtual   (A') (A") (A') (A') (A") (A') (A') (A') (A") (A')
                 (A') (A") (A') (A') (A') (A') (A") (A') (A') (A")
                 (A') (A") (A') (A') (A') (A") (A') (A') (A") (A')
                 (A') (A') (A") (A') (A") (A') (A') (A') (A") (A")
                 (A') (A') (A') (A") (A') (A") (A') (A") (A') (A')
                 (A') (A") (A') (A') (A") (A') (A') (A") (A') (A")
                 (A') (A') (A") (A') (A") (A') (A') (A') (A') (A')
 Initial guess <Sx>= 0.0000 <Sy>= 0.0000 <Sz>= 0.5000 <S**2>= 0.7543 S= 0.5021
 Keep R1 and R2 ints in memory in symmetry-blocked form, NReq=32943235.
 Requested convergence on RMS density matrix=1.00D-08 within  32 cycles.
 Requested convergence on MAX density matrix=1.00D-06.
 Requested convergence on             energy=1.00D-06.
 No special actions if energy rises.
 SCF Done:  E(UwB97XD) =  -213.103522897     A.U. after    1 cycles
            NFock=  1  Conv=0.96D-09     -V/T= 2.0025
 <Sx>= 0.0000 <Sy>= 0.0000 <Sz>= 0.5000 <S**2>= 0.7543 S= 0.5021
 <L.S>= 0.000000000000E+00
 Annihilation of the first spin contaminant:
 S**2 before annihilation     0.7543,   after     0.7500
 QCSCF skips out because SCF is already converged.
 DoSCS=F DFT=T ScalE2(SS,OS)=  1.000000  1.000000
 Range of M.O.s used for correlation:     1    81
 NBasis=    81 NAE=    12 NBE=    11 NFC=     0 NFV=     0
 NROrb=     81 NOA=    12 NOB=    11 NVA=    69 NVB=    70

 **** Warning!!: The largest alpha MO coefficient is  0.10208976D+02

 Symmetrizing basis deriv contribution to polar:
 IMax=3 JMax=2 DiffMx= 0.00D+00
 G2DrvN: will do     4 centers at a time, making    1 passes.
 Calling FoFCou, ICntrl=  3107 FMM=F I1Cent=   0 AccDes= 0.00D+00.
 End of G2Drv F.D. properties file   721 does not exist.
 End of G2Drv F.D. properties file   722 does not exist.
 End of G2Drv F.D. properties file   788 does not exist.
          IDoAtm=111
          Differentiating once with respect to electric field.
                with respect to dipole field.
          Differentiating once with respect to nuclear coordinates.
 Keep R1 and R2 ints in memory in symmetry-blocked form, NReq=32792598.
          There are    12 degrees of freedom in the 1st order CPHF.  IDoFFX=6 NUNeed=     3.
      9 vectors produced by pass  0 Test12= 1.33D-14 8.33D-09 XBig12= 1.88D+01 1.96D+00.
 AX will form     9 AO Fock derivatives at one time.
      9 vectors produced by pass  1 Test12= 1.33D-14 8.33D-09 XBig12= 6.89D+00 5.97D-01.
      9 vectors produced by pass  2 Test12= 1.33D-14 8.33D-09 XBig12= 3.63D-01 2.33D-01.
      9 vectors produced by pass  3 Test12= 1.33D-14 8.33D-09 XBig12= 2.54D-02 6.16D-02.
      9 vectors produced by pass  4 Test12= 1.33D-14 8.33D-09 XBig12= 9.79D-04 7.87D-03.
      9 vectors produced by pass  5 Test12= 1.33D-14 8.33D-09 XBig12= 2.36D-05 1.51D-03.
      9 vectors produced by pass  6 Test12= 1.33D-14 8.33D-09 XBig12= 4.98D-07 1.84D-04.
      9 vectors produced by pass  7 Test12= 1.33D-14 8.33D-09 XBig12= 4.64D-09 1.63D-05.
      4 vectors produced by pass  8 Test12= 1.33D-14 8.33D-09 XBig12= 4.48D-11 1.30D-06.
      3 vectors produced by pass  9 Test12= 1.33D-14 8.33D-09 XBig12= 3.25D-13 1.01D-07.
      1 vectors produced by pass 10 Test12= 1.33D-14 8.33D-09 XBig12= 2.94D-15 1.26D-08.
 InvSVY:  IOpt=1 It=  1 EMax= 8.88D-16
 Solved reduced A of dimension    80 with     9 vectors.
 Isotropic polarizability for W=    0.000000       15.96 Bohr**3.
 End of Minotr F.D. properties file   721 does not exist.
 End of Minotr F.D. properties file   722 does not exist.
 End of Minotr F.D. properties file   788 does not exist.

 **********************************************************************

            Population analysis using the SCF density.

 **********************************************************************

 Orbital symmetries:
 Alpha Orbitals:
       Occupied  (A') (A') (A') (A') (A') (A') (A') (A') (A") (A")
                 (A') (A')
       Virtual   (A") (A') (A') (A') (A") (A') (A') (A") (A') (A')
                 (A') (A") (A') (A') (A') (A") (A') (A') (A") (A')
                 (A") (A') (A') (A') (A") (A') (A') (A') (A") (A')
                 (A') (A") (A') (A") (A') (A') (A') (A") (A") (A')
                 (A') (A') (A") (A') (A") (A') (A') (A") (A') (A')
                 (A") (A') (A') (A") (A') (A') (A") (A') (A") (A')
                 (A') (A") (A') (A") (A') (A') (A') (A') (A')
 Beta  Orbitals:
       Occupied  (A') (A') (A') (A') (A') (A') (A") (A') (A') (A")
                 (A')
       Virtual   (A') (A") (A') (A') (A") (A') (A') (A') (A") (A')
                 (A') (A") (A') (A') (A') (A') (A") (A') (A') (A")
                 (A') (A") (A') (A') (A') (A") (A') (A') (A") (A')
                 (A') (A') (A") (A') (A") (A') (A') (A') (A") (A")
                 (A') (A') (A') (A") (A') (A") (A') (A") (A') (A')
                 (A') (A") (A') (A') (A") (A') (A') (A") (A') (A")
                 (A') (A') (A") (A') (A") (A') (A') (A') (A') (A')
 The electronic state is 2-A'.
 Alpha  occ. eigenvalues --  -24.89299 -19.33259 -10.48624  -1.41382  -1.24639
 Alpha  occ. eigenvalues --   -0.77327  -0.64488  -0.64171  -0.63893  -0.52079
 Alpha  occ. eigenvalues --   -0.52042  -0.37306
 Alpha virt. eigenvalues --    0.02746   0.07912   0.10003   0.10263   0.10521
 Alpha virt. eigenvalues --    0.24094   0.25495   0.28089   0.28966   0.32546
 Alpha virt. eigenvalues --    0.33407   0.33449   0.37726   0.41140   0.49839
 Alpha virt. eigenvalues --    0.58238   0.58825   0.70482   0.74968   0.79814
 Alpha virt. eigenvalues --    0.89115   0.89807   1.05717   1.08840   1.11332
 Alpha virt. eigenvalues --    1.25073   1.33390   1.35714   1.36387   1.43191
 Alpha virt. eigenvalues --    1.55026   1.62101   1.70569   1.89477   1.90736
 Alpha virt. eigenvalues --    2.01988   2.14923   2.19008   2.34530   2.51812
 Alpha virt. eigenvalues --    2.58418   2.73609   2.83563   3.06642   3.26764
 Alpha virt. eigenvalues --    3.29694   3.36909   3.37074   3.67605   4.05022
 Alpha virt. eigenvalues --    5.06284   5.10320   5.96900   6.33490   6.35746
 Alpha virt. eigenvalues --    6.65969   6.78738   6.85620   7.02413   7.11238
 Alpha virt. eigenvalues --    7.21883   9.09669   9.10296   9.27527   9.38979
 Alpha virt. eigenvalues --    9.71306  24.08981  49.97895  66.86290
  Beta  occ. eigenvalues --  -24.88739 -19.32703 -10.47508  -1.39816  -1.23091
  Beta  occ. eigenvalues --   -0.74784  -0.62923  -0.62530  -0.61044  -0.51541
  Beta  occ. eigenvalues --   -0.48917
  Beta virt. eigenvalues --   -0.06629   0.05380   0.09683   0.11051   0.11952
  Beta virt. eigenvalues --    0.12128   0.25265   0.26006   0.28422   0.30375
  Beta virt. eigenvalues --    0.33278   0.33840   0.34545   0.38267   0.41571
  Beta virt. eigenvalues --    0.51578   0.59052   0.61109   0.72234   0.76734
  Beta virt. eigenvalues --    0.81442   0.90015   0.91130   1.06401   1.10109
  Beta virt. eigenvalues --    1.11564   1.26079   1.35048   1.36762   1.36846
  Beta virt. eigenvalues --    1.43775   1.55457   1.62866   1.71500   1.90032
  Beta virt. eigenvalues --    1.91271   2.02891   2.15958   2.19373   2.35131
  Beta virt. eigenvalues --    2.53182   2.60156   2.75098   2.85339   3.10077
  Beta virt. eigenvalues --    3.31338   3.33649   3.39898   3.40155   3.70627
  Beta virt. eigenvalues --    4.06999   5.06614   5.12570   5.98263   6.33975
  Beta virt. eigenvalues --    6.36798   6.67440   6.80473   6.87458   7.03188
  Beta virt. eigenvalues --    7.13465   7.23205   9.10555   9.11210   9.29114
  Beta virt. eigenvalues --    9.40896   9.73285  24.10808  49.98396  66.86729
          Condensed to atoms (all electrons):
               1          2          3
     1  F    9.127339   0.033096   0.016001
     2  C    0.033096   5.180460   0.382963
     3  O    0.016001   0.382963   7.828081
          Atomic-Atomic Spin Densities.
               1          2          3
     1  F    0.265021  -0.211278   0.014574
     2  C   -0.211278   1.100263  -0.121589
     3  O    0.014574  -0.121589   0.271302
 Mulliken charges and spin densities:
               1          2
     1  F   -0.176436   0.068317
     2  C    0.403482   0.767396
     3  O   -0.227046   0.164287
 Sum of Mulliken charges =   0.00000   1.00000
 Mulliken charges and spin densities with hydrogens summed into heavy atoms:
               1          2
     1  F   -0.176436   0.068317
     2  C    0.403482   0.767396
     3  O   -0.227046   0.164287
 APT charges:
               1
     1  F   -0.454618
     2  C    0.914885
     3  O   -0.460268
 Sum of APT charges =   0.00000
 APT charges with hydrogens summed into heavy atoms:
               1
     1  F   -0.454618
     2  C    0.914885
     3  O   -0.460268
 Electronic spatial extent (au):  <R**2>=            116.1406
 Charge=             -0.0000 electrons
 Dipole moment (field-independent basis, Debye):
    X=             -0.7395    Y=              0.2335    Z=              0.0000  Tot=              0.7755
 Quadrupole moment (field-independent basis, Debye-Ang):
   XX=            -17.5271   YY=            -15.6946   ZZ=            -14.6433
   XY=             -0.4091   XZ=              0.0000   YZ=              0.0000
 Traceless Quadrupole moment (field-independent basis, Debye-Ang):
   XX=             -1.5721   YY=              0.2603   ZZ=              1.3117
   XY=             -0.4091   XZ=              0.0000   YZ=              0.0000
 Octapole moment (field-independent basis, Debye-Ang**2):
  XXX=             -4.6483  YYY=             -4.1367  ZZZ=              0.0000  XYY=             -1.1079
  XXY=             -1.4923  XXZ=              0.0000  XZZ=             -1.0791  YZZ=             -1.0502
  YYZ=              0.0000  XYZ=              0.0000
 Hexadecapole moment (field-independent basis, Debye-Ang**3):
 XXXX=            -85.1680 YYYY=            -26.5957 ZZZZ=            -11.7096 XXXY=             -9.6555
 XXXZ=              0.0000 YYYX=             -8.9405 YYYZ=              0.0000 ZZZX=              0.0000
 ZZZY=              0.0000 XXYY=            -18.2237 XXZZ=            -15.7791 YYZZ=             -6.2861
 XXYZ=              0.0000 YYXZ=              0.0000 ZZXY=             -3.1367
 N-N= 6.046844445856D+01 E-N=-6.255499686506D+02  KE= 2.125747452642D+02
 Symmetry A'   KE= 2.023013510500D+02
 Symmetry A"   KE= 1.027339421426D+01
 Symmetry A'   SP= 1.000000000000D+00
 Symmetry A"   SP=-2.748059483963D-15
  Exact polarizability:  21.291   0.297  14.644   0.000  -0.000  11.936
 Approx polarizability:  24.811   0.107  14.214  -0.000  -0.000  12.093
                          Isotropic Fermi Contact Couplings
        Atom                 a.u.       MegaHertz       Gauss      10(-4) cm-1
     1  F(19)              0.21270     894.90931     319.32589     298.50961
     2  C(13)              0.68537     770.49029     274.93010     257.00790
     3  O(17)              0.08803     -53.36345     -19.04141     -17.80013
 --------------------------------------------------------
       Center         ----  Spin Dipole Couplings  ----
                      3XX-RR        3YY-RR        3ZZ-RR
 --------------------------------------------------------
     1   Atom       -0.411275      0.983893     -0.572618
     2   Atom       -0.093408      0.347646     -0.254238
     3   Atom       -0.354191      1.054315     -0.700125
 --------------------------------------------------------
                        XY            XZ            YZ
 --------------------------------------------------------
     1   Atom        0.509463      0.000000      0.000000
     2   Atom       -0.457411      0.000000      0.000000
     3   Atom       -0.431763      0.000000      0.000000
 --------------------------------------------------------


 ---------------------------------------------------------------------------------
              Anisotropic Spin Dipole Couplings in Principal Axis System
 ---------------------------------------------------------------------------------

       Atom             a.u.   MegaHertz   Gauss  10(-4) cm-1        Axes

              Baa    -0.5775  -290.038  -103.493   -96.746  0.9507 -0.3102  0.0000
     1 F(19)  Bbb    -0.5726  -287.583  -102.617   -95.927  0.0000  0.0000  1.0000
              Bcc     1.1501   577.622   206.110   192.674  0.3102  0.9507  0.0000
 
              Baa    -0.3807   -51.083   -18.228   -17.040  0.8468  0.5318  0.0000
     2 C(13)  Bbb    -0.2542   -34.116   -12.174   -11.380  0.0000  0.0000  1.0000
              Bcc     0.6349    85.200    30.401    28.419 -0.5318  0.8468  0.0000
 
              Baa    -0.7001    50.661    18.077    16.899  0.0000  0.0000  1.0000
     3 O(17)  Bbb    -0.4760    34.444    12.290    11.489  0.9624  0.2715  0.0000
              Bcc     1.1761   -85.104   -30.367   -28.388 -0.2715  0.9624  0.0000
 

 ---------------------------------------------------------------------------------

 Calling FoFJK, ICntrl=    100127 FMM=F ISym2X=1 I1Cent= 0 IOpClX= 1 NMat=1 NMatS=1 NMatT=0.
 Full mass-weighted force constant matrix:
 Low frequencies ---  -10.9009   -5.8059   -0.0003   -0.0003    0.0006    7.0954
 Low frequencies ---  640.3435 1049.7312 1957.0573
 Diagonal vibrational polarizability:
        5.3048254       2.5333198       0.0000000
 Harmonic frequencies (cm**-1), IR intensities (KM/Mole), Raman scattering
 activities (A**4/AMU), depolarization ratios for plane and unpolarized
 incident light, reduced masses (AMU), force constants (mDyne/A),
 and normal coordinates:
                      1                      2                      3
                     A'                     A'                     A'
 Frequencies --    640.3435              1049.7312              1957.0573
 Red. masses --     15.6179                13.9104                13.4097
 Frc consts  --      3.7731                 9.0312                30.2605
 IR Inten    --     10.8734               213.0077               273.6144
  Atom  AN      X      Y      Z        X      Y      Z        X      Y      Z
     1   9     0.55   0.00   0.00    -0.33  -0.38  -0.00    -0.01  -0.00   0.00
     2   6    -0.25   0.51   0.00     0.34   0.77  -0.00     0.79  -0.18   0.00
     3   8    -0.47  -0.39   0.00     0.14  -0.13   0.00    -0.58   0.13   0.00

 -------------------
 - Thermochemistry -
 -------------------
 Temperature   298.150 Kelvin.  Pressure   1.00000 Atm.
 Atom     1 has atomic number  9 and mass  18.99840
 Atom     2 has atomic number  6 and mass  12.00000
 Atom     3 has atomic number  8 and mass  15.99491
 Molecular mass:    46.99332 amu.
 Principal axes and moments of inertia in atomic units:
                           1         2         3
     Eigenvalues --     9.47166 155.84147 165.31313
           X            0.95523  -0.29586   0.00000
           Y            0.29586   0.95523   0.00000
           Z            0.00000   0.00000   1.00000
 This molecule is an asymmetric top.
 Rotational symmetry number  1.
 Rotational temperatures (Kelvin)      9.14453     0.55578     0.52394
 Rotational constants (GHZ):         190.54115    11.58062    10.91711
 Zero-point vibrational energy      21814.7 (Joules/Mol)
                                    5.21384 (Kcal/Mol)
 Vibrational temperatures:    921.31  1510.33  2815.77
          (Kelvin)
 
 Zero-point correction=                           0.008309 (Hartree/Particle)
 Thermal correction to Energy=                    0.011311
 Thermal correction to Enthalpy=                  0.012256
 Thermal correction to Gibbs Free Energy=        -0.015984
 Sum of electronic and zero-point Energies=           -213.095214
 Sum of electronic and thermal Energies=              -213.092211
 Sum of electronic and thermal Enthalpies=            -213.091267
 Sum of electronic and thermal Free Energies=         -213.119507
 
                     E (Thermal)             CV                S
                      KCal/Mol        Cal/Mol-Kelvin    Cal/Mol-Kelvin
 Total                    7.098              7.249             59.436
 Electronic               0.000              0.000              1.377
 Translational            0.889              2.981             37.467
 Rotational               0.889              2.981             20.129
 Vibrational              5.321              1.287              0.463
                       Q            Log10(Q)             Ln(Q)
 Total Bot       0.225076D+08          7.352329         16.929363
 Total V=0       0.149313D+12         11.174098         25.729312
 Vib (Bot)       0.158941D-03         -3.798763         -8.746975
 Vib (V=0)       0.105440D+01          0.023006          0.052974
 Electronic      0.200000D+01          0.301030          0.693147
 Translational   0.126622D+08          7.102508         16.354129
 Rotational      0.559183D+04          3.747554          8.629062
 ***** Axes restored to original set *****
 -------------------------------------------------------------------
 Center     Atomic                   Forces (Hartrees/Bohr)
 Number     Number              X              Y              Z
 -------------------------------------------------------------------
      1        9           0.000009031    0.000009643   -0.000000000
      2        6          -0.000004758   -0.000011340   -0.000000000
      3        8          -0.000004273    0.000001698   -0.000000000
 -------------------------------------------------------------------
 Cartesian Forces:  Max     0.000011340 RMS     0.000006209
 FormGI is forming the generalized inverse of G from B-inverse, IUseBI=4.

 GradGradGradGradGradGradGradGradGradGradGradGradGradGradGradGradGradGrad
 Berny optimization.
 Internal  Forces:  Max     0.000012997 RMS     0.000008118
 Search for a local minimum.
 Step number   1 out of a maximum of    2
 All quantities printed in internal units (Hartrees-Bohrs-Radians)
 Second derivative matrix not updated -- analytic derivatives used.
 The second derivative matrix:
                          R1        R2        A1
           R1           0.33113
           R2           0.11067   1.03236
           A1           0.03605   0.04670   0.31897
 ITU=  0
     Eigenvalues ---    0.28625   0.34316   1.05305
 Angle between quadratic step and forces=  19.39 degrees.
 Linear search not attempted -- first point.
 Iteration  1 RMS(Cart)=  0.00001750 RMS(Int)=  0.00000000
 Iteration  2 RMS(Cart)=  0.00000000 RMS(Int)=  0.00000000
 ClnCor:  largest displacement from symmetrization is 4.48D-16 for atom     3.
 Variable       Old X    -DE/DX   Delta X   Delta X   Delta X     New X
                                 (Linear)    (Quad)   (Total)
    R1        2.50427  -0.00001   0.00000  -0.00004  -0.00004   2.50423
    R2        2.19735  -0.00000   0.00000  -0.00000  -0.00000   2.19734
    A1        2.22653   0.00000   0.00000   0.00001   0.00001   2.22655
         Item               Value     Threshold  Converged?
 Maximum Force            0.000013     0.000015     YES
 RMS     Force            0.000008     0.000010     YES
 Maximum Displacement     0.000018     0.000060     YES
 RMS     Displacement     0.000017     0.000040     YES
 Predicted change in Energy=-2.812998D-10
 Optimization completed.
    -- Stationary point found.
                           ----------------------------
                           !   Optimized Parameters   !
                           ! (Angstroms and Degrees)  !
 --------------------------                            --------------------------
 ! Name  Definition              Value          Derivative Info.                !
 --------------------------------------------------------------------------------
 ! R1    R(1,2)                  1.3252         -DE/DX =    0.0                 !
 ! R2    R(2,3)                  1.1628         -DE/DX =    0.0                 !
 ! A1    A(1,2,3)              127.5709         -DE/DX =    0.0                 !
 --------------------------------------------------------------------------------
 GradGradGradGradGradGradGradGradGradGradGradGradGradGradGradGradGradGrad


 ----------------------------------------------------------------------

 Electric dipole moment (input orientation):
 (Debye = 10**-18 statcoulomb cm , SI units = C m)
                  (au)            (Debye)         (10**-30 SI)
   Tot        0.305107D+00      0.775506D+00      0.258681D+01
   x         -0.290944D+00     -0.739505D+00     -0.246672D+01
   y          0.918822D-01      0.233541D+00      0.779010D+00
   z          0.000000D+00      0.000000D+00      0.000000D+00

 Dipole polarizability, Alpha (input orientation).
 (esu units = cm**3 , SI units = C**2 m**2 J**-1)
 Alpha(0;0):
               (au)            (10**-24 esu)      (10**-40 SI)
   iso        0.159567D+02      0.236454D+01      0.263091D+01
   aniso      0.835358D+01      0.123787D+01      0.137732D+01
   xx         0.212908D+02      0.315497D+01      0.351037D+01
   yx         0.296733D+00      0.439713D-01      0.489247D-01
   yy         0.146438D+02      0.216998D+01      0.241443D+01
   zx         0.000000D+00      0.000000D+00      0.000000D+00
   zy         0.000000D+00      0.000000D+00      0.000000D+00
   zz         0.119356D+02      0.176867D+01      0.196791D+01

 ----------------------------------------------------------------------

 Dipole orientation:
     9         -0.41023827         -1.29901326          1.57252259
     6          0.22812889          0.72236665          0.23915806
     8          0.29040997          0.91957875         -1.94843296

 Electric dipole moment (dipole orientation):
 (Debye = 10**-18 statcoulomb cm , SI units = C m)
                  (au)            (Debye)         (10**-30 SI)
   Tot        0.305107D+00      0.775506D+00      0.258681D+01
   x          0.000000D+00      0.000000D+00      0.000000D+00
   y          0.000000D+00      0.000000D+00      0.000000D+00
   z          0.305107D+00      0.775506D+00      0.258681D+01

 Dipole polarizability, Alpha (dipole orientation).
 (esu units = cm**3 , SI units = C**2 m**2 J**-1)
 Alpha(0;0):
               (au)            (10**-24 esu)      (10**-40 SI)
   iso        0.159567D+02      0.236454D+01      0.263091D+01
   aniso      0.835358D+01      0.123787D+01      0.137732D+01
   xx         0.122513D+02      0.181546D+01      0.201997D+01
   yx         0.999748D+00      0.148147D+00      0.164836D+00
   yy         0.151013D+02      0.223778D+01      0.248986D+01
   zx        -0.647982D+00     -0.960211D-01     -0.106838D+00
   zy        -0.205183D+01     -0.304049D+00     -0.338300D+00
   zz         0.205175D+02      0.304038D+01      0.338288D+01

 ----------------------------------------------------------------------
 1\1\GINC-CCLEARTI\Freq\UwB97XD\6-311+G(2d,2p)\C1F1O1(2)\RAPPE\28-Sep-2
 024\0\\#N Geom=AllCheck Guess=TCheck SCRF=Check GenChk UwB97XD/6-311+G
 (2d,2p) Freq\\Title Card Required\\0,2\F,-1.0106018653,-0.4368107299,0
 .\C,0.0000386803,0.4203722409,0.\O,1.136880185,0.1761174891,0.\\Versio
 n=EM64M-G16RevA.03\State=2-A'\HF=-213.1035229\S2=0.754292\S2-1=0.\S2A=
 0.750013\RMSD=9.615e-10\RMSF=6.209e-06\ZeroPoint=0.0083088\Thermal=0.0
 113115\Dipole=-0.2909436,0.0918822,0.\DipoleDeriv=-0.8404669,-0.340671
 4,0.,-0.6735583,-0.5089124,0.,0.,0.,-0.0144733,1.7880622,0.5545722,0.,
 0.4777978,0.7938691,0.,0.,0.,0.162724,-0.9475952,-0.2139008,0.,0.19576
 05,-0.2849566,0.,0.,0.,-0.1482507\Polar=21.2907715,0.2967333,14.643765
 2,0.,0.,11.9355877\Quadrupole=-1.1688678,0.1936263,0.9752415,-0.303993
 2,0.,0.\PG=CS [SG(C1F1O1)]\NImag=0\\0.22806224,0.13590917,0.15392688,0
 .,0.,0.00002063,-0.12325179,-0.08687816,0.,1.01689555,-0.10726930,-0.1
 9882861,0.,-0.12082976,0.34368594,0.,0.,-0.00001520,0.,0.,-0.00002103,
 -0.10481045,-0.04903101,0.,-0.89364376,0.22809906,0.,0.99845420,-0.028
 63987,0.04490173,0.,0.20770792,-0.14485733,0.,-0.17906805,0.09995560,0
 .,0.,-0.00000543,0.,0.,0.00003623,0.,0.,-0.00003079\\-0.00000903,-0.00
 000964,0.,0.00000476,0.00001134,0.,0.00000427,-0.00000170,0.\\\@


 THE MOST SERIOUS THREAT TO THE SURVIVAL OF MANKIND IS NOT NOW
 IGNORANCE IN THE TRADITIONAL SENSE,
 BUT A MORALLY NEUTRAL, AN INSENSITIVE OR INHIBITED HUMAN INTELLIGENCE.

                     -- MARGO JEFFERSON IN NEWSWEEK, SEPTEMBER 2, 1974
 Job cpu time:       0 days  0 hours  5 minutes 58.4 seconds.
 Elapsed time:       0 days  0 hours  0 minutes 15.3 seconds.
 File lengths (MBytes):  RWF=     10 Int=      0 D2E=      0 Chk=      2 Scr=      1
 Normal termination of Gaussian 16 at Sat Sep 28 08:18:10 2024.
