 Entering Gaussian System, Link 0=/applications/g16/g16/g16
 Initial command:
 /applications/g16/g16/l1.exe "/scratch/g98/Gau-29424.inp" -scrdir="/scratch/g98/"
 Entering Link 1 = /applications/g16/g16/l1.exe PID=     29425.
  
 Copyright (c) 1988,1990,1992,1993,1995,1998,2003,2009,2016,
            Gaussian, Inc.  All Rights Reserved.
  
 This is part of the Gaussian(R) 16 program.  It is based on
 the Gaussian(R) 09 system (copyright 2009, Gaussian, Inc.),
 the Gaussian(R) 03 system (copyright 2003, Gaussian, Inc.),
 the Gaussian(R) 98 system (copyright 1998, Gaussian, Inc.),
 the Gaussian(R) 94 system (copyright 1995, Gaussian, Inc.),
 the Gaussian 92(TM) system (copyright 1992, Gaussian, Inc.),
 the Gaussian 90(TM) system (copyright 1990, Gaussian, Inc.),
 the Gaussian 88(TM) system (copyright 1988, Gaussian, Inc.),
 the Gaussian 86(TM) system (copyright 1986, Carnegie Mellon
 University), and the Gaussian 82(TM) system (copyright 1983,
 Carnegie Mellon University). Gaussian is a federally registered
 trademark of Gaussian, Inc.
  
 This software contains proprietary and confidential information,
 including trade secrets, belonging to Gaussian, Inc.
  
 This software is provided under written license and may be
 used, copied, transmitted, or stored only in accord with that
 written license.
  
 The following legend is applicable only to US Government
 contracts under FAR:
  
                    RESTRICTED RIGHTS LEGEND
  
 Use, reproduction and disclosure by the US Government is
 subject to restrictions as set forth in subparagraphs (a)
 and (c) of the Commercial Computer Software - Restricted
 Rights clause in FAR 52.227-19.
  
 Gaussian, Inc.
 340 Quinnipiac St., Bldg. 40, Wallingford CT 06492
  
  
 ---------------------------------------------------------------
 Warning -- This program may not be used in any manner that
 competes with the business of Gaussian, Inc. or will provide
 assistance to any competitor of Gaussian, Inc.  The licensee
 of this program is prohibited from giving any competitor of
 Gaussian, Inc. access to this program.  By using this program,
 the user acknowledges that Gaussian, Inc. is engaged in the
 business of creating and licensing software in the field of
 computational chemistry and represents and warrants to the
 licensee that it is not a competitor of Gaussian, Inc. and that
 it will not use this program in any manner prohibited above.
 ---------------------------------------------------------------
  

 Cite this work as:
 Gaussian 16, Revision A.03,
 M. J. Frisch, G. W. Trucks, H. B. Schlegel, G. E. Scuseria, 
 M. A. Robb, J. R. Cheeseman, G. Scalmani, V. Barone, 
 G. A. Petersson, H. Nakatsuji, X. Li, M. Caricato, A. V. Marenich, 
 J. Bloino, B. G. Janesko, R. Gomperts, B. Mennucci, H. P. Hratchian, 
 J. V. Ortiz, A. F. Izmaylov, J. L. Sonnenberg, D. Williams-Young, 
 F. Ding, F. Lipparini, F. Egidi, J. Goings, B. Peng, A. Petrone, 
 T. Henderson, D. Ranasinghe, V. G. Zakrzewski, J. Gao, N. Rega, 
 G. Zheng, W. Liang, M. Hada, M. Ehara, K. Toyota, R. Fukuda, 
 J. Hasegawa, M. Ishida, T. Nakajima, Y. Honda, O. Kitao, H. Nakai, 
 T. Vreven, K. Throssell, J. A. Montgomery, Jr., J. E. Peralta, 
 F. Ogliaro, M. J. Bearpark, J. J. Heyd, E. N. Brothers, K. N. Kudin, 
 V. N. Staroverov, T. A. Keith, R. Kobayashi, J. Normand, 
 K. Raghavachari, A. P. Rendell, J. C. Burant, S. S. Iyengar, 
 J. Tomasi, M. Cossi, J. M. Millam, M. Klene, C. Adamo, R. Cammi, 
 J. W. Ochterski, R. L. Martin, K. Morokuma, O. Farkas, 
 J. B. Foresman, and D. J. Fox, Gaussian, Inc., Wallingford CT, 2016.
 
 ******************************************
 Gaussian 16:  EM64M-G16RevA.03 25-Dec-2016
                17-Oct-2025 
 ******************************************
 %mem=48GB
 %nprocshared=24
 Will use up to   24 processors via shared memory.
 %chk=cfoh_cis.chk
 ----------------------------------------------------------------------
 # opt freq uwb97xd/6-311+g(2d,2p) geom=connectivity scf=xqc integral=g
 rid=superfinegrid scf=(xqc,tight)
 ----------------------------------------------------------------------
 1/18=20,19=15,26=5,38=1,57=2/1,3;
 2/9=110,12=2,17=6,18=5,40=1/2;
 3/5=4,6=6,7=212,11=2,25=1,30=1,71=1,74=-58,75=-7,116=2/1,2,3;
 4//1;
 5/5=2,32=2,38=5/2;
 6/7=2,8=2,9=2,10=2,28=1/1;
 7//1,2,3,16;
 1/18=20,19=15,26=5/3(2);
 2/9=110/2;
 99//99;
 2/9=110/2;
 3/5=4,6=6,7=212,11=2,25=1,30=1,71=1,74=-58,75=-7,116=2/1,2,3;
 4/5=5,16=3,69=1/1;
 5/5=2,32=2,38=5/2;
 7//1,2,3,16;
 1/18=20,19=15,26=5/3(-5);
 2/9=110/2;
 6/7=2,8=2,9=2,10=2,19=2,28=1/1;
 99/9=1/99;
 -------------------
 Title Card Required
 -------------------
 Symbolic Z-matrix:
 Charge =  0 Multiplicity = 1
 C                    -1.95959   0.24643  -0.28761 
 F                    -3.138     0.85534  -0.11578 
 H                    -2.98785  -1.14587   0.47243 
 O                    -2.09094  -0.9618    0.13897 
 

 GradGradGradGradGradGradGradGradGradGradGradGradGradGradGradGradGradGrad
 Berny optimization.
 Initialization pass.
                           ----------------------------
                           !    Initial Parameters    !
                           ! (Angstroms and Degrees)  !
 --------------------------                            --------------------------
 ! Name  Definition              Value          Derivative Info.                !
 --------------------------------------------------------------------------------
 ! R1    R(1,2)                  1.3375         estimate D2E/DX2                !
 ! R2    R(1,4)                  1.288          estimate D2E/DX2                !
 ! R3    R(3,4)                  0.9744         estimate D2E/DX2                !
 ! A1    A(2,1,4)              107.1368         estimate D2E/DX2                !
 ! A2    A(1,4,3)              112.6061         estimate D2E/DX2                !
 ! D1    D(2,1,4,3)              0.236          estimate D2E/DX2                !
 --------------------------------------------------------------------------------
 Trust Radius=3.00D-01 FncErr=1.00D-07 GrdErr=1.00D-07 EigMax=2.50D+02 EigMin=1.00D-04
 Number of steps in this run=     20 maximum allowed number of steps=    100.
 GradGradGradGradGradGradGradGradGradGradGradGradGradGradGradGradGradGrad

                          Input orientation:                          
 ---------------------------------------------------------------------
 Center     Atomic      Atomic             Coordinates (Angstroms)
 Number     Number       Type             X           Y           Z
 ---------------------------------------------------------------------
      1          6           0       -1.959591    0.246428   -0.287606
      2          9           0       -3.138001    0.855340   -0.115778
      3          1           0       -2.987854   -1.145867    0.472430
      4          8           0       -2.090943   -0.961797    0.138968
 ---------------------------------------------------------------------
                    Distance matrix (angstroms):
                    1          2          3          4
     1  C    0.000000
     2  F    1.337516   0.000000
     3  H    1.890361   2.091259   0.000000
     4  O    1.288032   2.112632   0.974437   0.000000
 Stoichiometry    CHFO
 Framework group  C1[X(CHFO)]
 Deg. of freedom     6
 Full point group                 C1      NOp   1
 Largest Abelian subgroup         C1      NOp   1
 Largest concise Abelian subgroup C1      NOp   1
                         Standard orientation:                         
 ---------------------------------------------------------------------
 Center     Atomic      Atomic             Coordinates (Angstroms)
 Number     Number       Type             X           Y           Z
 ---------------------------------------------------------------------
      1          6           0       -0.009047    0.624551    0.000472
      2          9           0        1.046913   -0.196361   -0.000183
      3          1           0       -0.854959   -1.065980    0.002341
      4          8           0       -1.064122   -0.114260   -0.000441
 ---------------------------------------------------------------------
 Rotational constants (GHZ):          75.2944350          12.7501578          10.9037516
 Standard basis: 6-311+G(2d,2p) (5D, 7F)
 There are    96 symmetry adapted cartesian basis functions of A   symmetry.
 There are    90 symmetry adapted basis functions of A   symmetry.
    90 basis functions,   137 primitive gaussians,    96 cartesian basis functions
    12 alpha electrons       12 beta electrons
       nuclear repulsion energy        67.4212586890 Hartrees.
 NAtoms=    4 NActive=    4 NUniq=    4 SFac= 1.00D+00 NAtFMM=   60 NAOKFM=F Big=F
 Integral buffers will be    131072 words long.
 Raffenetti 2 integral format.
 Two-electron integral symmetry is turned on.
 Nuclear repulsion after empirical dispersion term =       67.4211081446 Hartrees.
 One-electron integrals computed using PRISM.
 NBasis=    90 RedAO= T EigKep=  1.39D-03  NBF=    90
 NBsUse=    90 1.00D-06 EigRej= -1.00D+00 NBFU=    90
 ExpMin= 4.38D-02 ExpMax= 1.14D+04 ExpMxC= 1.72D+03 IAcc=3 IRadAn=         7 AccDes= 0.00D+00
 Harris functional with IExCor= 4639 and IRadAn=       7 diagonalized for initial guess.
 HarFok:  IExCor= 4639 AccDes= 0.00D+00 IRadAn=         7 IDoV= 1 UseB2=F ITyADJ=14
 ICtDFT=  3500011 ScaDFX=  1.000000  1.000000  1.000000  1.000000
 FoFCou: FMM=F IPFlag=           0 FMFlag=      100000 FMFlg1=           0
         NFxFlg=           0 DoJE=T BraDBF=F KetDBF=T FulRan=T
         wScrn=  0.000000 ICntrl=       500 IOpCl=  0 I1Cent=   200000004 NGrid=           0
         NMat0=    1 NMatS0=      1 NMatT0=    0 NMatD0=    1 NMtDS0=    0 NMtDT0=    0
 Petite list used in FoFCou.
 Initial guess <Sx>= 0.0000 <Sy>= 0.0000 <Sz>= 0.0000 <S**2>=-0.0000 S=-0.0000
 Keep R1 and R2 ints in memory in canonical form, NReq=55744224.
 Requested convergence on RMS density matrix=1.00D-08 within 128 cycles.
 Requested convergence on MAX density matrix=1.00D-06.
 Requested convergence on             energy=1.00D-06.
 No special actions if energy rises.
 SCF Done:  E(UwB97XD) =  -213.704294762     A.U. after   12 cycles
            NFock= 12  Conv=0.69D-08     -V/T= 2.0025
 <Sx>= 0.0000 <Sy>= 0.0000 <Sz>= 0.0000 <S**2>= 0.0000 S= 0.0000
 <L.S>= 0.000000000000E+00
 Annihilation of the first spin contaminant:
 S**2 before annihilation     0.0000,   after     0.0000

 **********************************************************************

            Population analysis using the SCF density.

 **********************************************************************

 Orbital symmetries:
 Alpha Orbitals:
       Occupied  (A) (A) (A) (A) (A) (A) (A) (A) (A) (A) (A) (A)
       Virtual   (A) (A) (A) (A) (A) (A) (A) (A) (A) (A) (A) (A)
                 (A) (A) (A) (A) (A) (A) (A) (A) (A) (A) (A) (A)
                 (A) (A) (A) (A) (A) (A) (A) (A) (A) (A) (A) (A)
                 (A) (A) (A) (A) (A) (A) (A) (A) (A) (A) (A) (A)
                 (A) (A) (A) (A) (A) (A) (A) (A) (A) (A) (A) (A)
                 (A) (A) (A) (A) (A) (A) (A) (A) (A) (A) (A) (A)
                 (A) (A) (A) (A) (A) (A)
 Beta  Orbitals:
       Occupied  (A) (A) (A) (A) (A) (A) (A) (A) (A) (A) (A) (A)
       Virtual   (A) (A) (A) (A) (A) (A) (A) (A) (A) (A) (A) (A)
                 (A) (A) (A) (A) (A) (A) (A) (A) (A) (A) (A) (A)
                 (A) (A) (A) (A) (A) (A) (A) (A) (A) (A) (A) (A)
                 (A) (A) (A) (A) (A) (A) (A) (A) (A) (A) (A) (A)
                 (A) (A) (A) (A) (A) (A) (A) (A) (A) (A) (A) (A)
                 (A) (A) (A) (A) (A) (A) (A) (A) (A) (A) (A) (A)
                 (A) (A) (A) (A) (A) (A)
 The electronic state is 1-A.
 Alpha  occ. eigenvalues --  -24.86005 -19.35303 -10.44457  -1.38765  -1.23677
 Alpha  occ. eigenvalues --   -0.79864  -0.70584  -0.61833  -0.61133  -0.51431
 Alpha  occ. eigenvalues --   -0.51296  -0.37099
 Alpha virt. eigenvalues --    0.02144   0.06238   0.10622   0.11744   0.11961
 Alpha virt. eigenvalues --    0.16672   0.22564   0.26010   0.26973   0.28815
 Alpha virt. eigenvalues --    0.30471   0.32651   0.35166   0.38082   0.40757
 Alpha virt. eigenvalues --    0.44450   0.51691   0.60375   0.62786   0.69235
 Alpha virt. eigenvalues --    0.71420   0.77286   0.83657   0.86158   0.91478
 Alpha virt. eigenvalues --    0.96598   1.05631   1.10112   1.17243   1.17981
 Alpha virt. eigenvalues --    1.32974   1.38134   1.38359   1.41403   1.50640
 Alpha virt. eigenvalues --    1.52119   1.79416   1.84986   1.92874   1.99140
 Alpha virt. eigenvalues --    2.11619   2.14549   2.27900   2.30795   2.35099
 Alpha virt. eigenvalues --    2.45027   2.73977   2.78930   2.88194   3.24160
 Alpha virt. eigenvalues --    3.34021   3.36605   3.37658   3.51652   3.53061
 Alpha virt. eigenvalues --    3.79160   4.00914   4.09247   4.16629   5.03702
 Alpha virt. eigenvalues --    5.47788   6.09580   6.35728   6.41631   6.69648
 Alpha virt. eigenvalues --    6.88835   6.96223   7.09127   7.19348   7.41500
 Alpha virt. eigenvalues --    9.11504   9.14616   9.28914   9.38405   9.73668
 Alpha virt. eigenvalues --   23.99061  49.96195  66.90355
  Beta  occ. eigenvalues --  -24.86005 -19.35303 -10.44457  -1.38765  -1.23677
  Beta  occ. eigenvalues --   -0.79864  -0.70584  -0.61833  -0.61133  -0.51431
  Beta  occ. eigenvalues --   -0.51296  -0.37099
  Beta virt. eigenvalues --    0.02144   0.06238   0.10622   0.11744   0.11961
  Beta virt. eigenvalues --    0.16672   0.22564   0.26010   0.26973   0.28815
  Beta virt. eigenvalues --    0.30471   0.32651   0.35166   0.38082   0.40757
  Beta virt. eigenvalues --    0.44450   0.51691   0.60375   0.62786   0.69235
  Beta virt. eigenvalues --    0.71420   0.77286   0.83657   0.86158   0.91478
  Beta virt. eigenvalues --    0.96598   1.05631   1.10112   1.17243   1.17981
  Beta virt. eigenvalues --    1.32974   1.38134   1.38359   1.41403   1.50640
  Beta virt. eigenvalues --    1.52119   1.79416   1.84986   1.92874   1.99140
  Beta virt. eigenvalues --    2.11619   2.14549   2.27900   2.30795   2.35099
  Beta virt. eigenvalues --    2.45027   2.73977   2.78930   2.88194   3.24160
  Beta virt. eigenvalues --    3.34021   3.36605   3.37658   3.51652   3.53061
  Beta virt. eigenvalues --    3.79160   4.00914   4.09247   4.16629   5.03702
  Beta virt. eigenvalues --    5.47788   6.09580   6.35728   6.41631   6.69648
  Beta virt. eigenvalues --    6.88835   6.96223   7.09127   7.19348   7.41500
  Beta virt. eigenvalues --    9.11504   9.14616   9.28914   9.38405   9.73668
  Beta virt. eigenvalues --   23.99061  49.96195  66.90355
          Condensed to atoms (all electrons):
               1          2          3          4
     1  C    5.831791  -0.032743   0.069461   0.007237
     2  F   -0.032743   9.243138  -0.014887   0.015594
     3  H    0.069461  -0.014887   0.530201   0.160299
     4  O    0.007237   0.015594   0.160299   7.984946
          Atomic-Atomic Spin Densities.
               1          2          3          4
     1  C    0.000000   0.000000   0.000000   0.000000
     2  F    0.000000   0.000000   0.000000   0.000000
     3  H    0.000000   0.000000   0.000000   0.000000
     4  O    0.000000   0.000000   0.000000   0.000000
 Mulliken charges and spin densities:
               1          2
     1  C    0.124253   0.000000
     2  F   -0.211102   0.000000
     3  H    0.254925   0.000000
     4  O   -0.168077   0.000000
 Sum of Mulliken charges =   0.00000   0.00000
 Mulliken charges and spin densities with hydrogens summed into heavy atoms:
               1          2
     1  C    0.124253   0.000000
     2  F   -0.211102   0.000000
     4  O    0.086849   0.000000
 Electronic spatial extent (au):  <R**2>=            122.0084
 Charge=              0.0000 electrons
 Dipole moment (field-independent basis, Debye):
    X=             -0.6893    Y=             -2.5487    Z=              0.0046  Tot=              2.6403
 Quadrupole moment (field-independent basis, Debye-Ang):
   XX=            -18.0448   YY=            -16.6398   ZZ=            -16.1483
   XY=              1.5941   XZ=             -0.0041   YZ=             -0.0078
 Traceless Quadrupole moment (field-independent basis, Debye-Ang):
   XX=             -1.1005   YY=              0.3045   ZZ=              0.7960
   XY=              1.5941   XZ=             -0.0041   YZ=             -0.0078
 Octapole moment (field-independent basis, Debye-Ang**2):
  XXX=              3.8240  YYY=            -12.2593  ZZZ=             -0.0017  XYY=             -1.3379
  XXY=             -2.9029  XXZ=              0.0018  XZZ=              1.2237  YZZ=             -1.8629
  YYZ=              0.0031  XYZ=              0.0057
 Hexadecapole moment (field-independent basis, Debye-Ang**3):
 XXXX=            -87.4796 YYYY=            -39.8725 ZZZZ=            -14.0238 XXXY=              0.9088
 XXXZ=             -0.0047 YYYX=              2.0422 YYYZ=             -0.0155 ZZZX=             -0.0024
 ZZZY=             -0.0055 XXYY=            -18.0240 XXZZ=            -16.6789 YYZZ=             -8.7825
 XXYZ=             -0.0064 YYXZ=             -0.0060 ZZXY=             -0.0176
 N-N= 6.742110814460D+01 E-N=-6.407070282777D+02  KE= 2.131640527227D+02
                          Isotropic Fermi Contact Couplings
        Atom                 a.u.       MegaHertz       Gauss      10(-4) cm-1
     1  C(13)              0.00000       0.00000       0.00000       0.00000
     2  F(19)              0.00000       0.00000       0.00000       0.00000
     3  H(1)               0.00000       0.00000       0.00000       0.00000
     4  O(17)              0.00000      -0.00000      -0.00000      -0.00000
 --------------------------------------------------------
       Center         ----  Spin Dipole Couplings  ----
                      3XX-RR        3YY-RR        3ZZ-RR
 --------------------------------------------------------
     1   Atom        0.000000      0.000000      0.000000
     2   Atom        0.000000      0.000000      0.000000
     3   Atom        0.000000      0.000000      0.000000
     4   Atom        0.000000      0.000000      0.000000
 --------------------------------------------------------
                        XY            XZ            YZ
 --------------------------------------------------------
     1   Atom        0.000000      0.000000      0.000000
     2   Atom        0.000000      0.000000      0.000000
     3   Atom        0.000000      0.000000      0.000000
     4   Atom        0.000000      0.000000      0.000000
 --------------------------------------------------------


 ---------------------------------------------------------------------------------
              Anisotropic Spin Dipole Couplings in Principal Axis System
 ---------------------------------------------------------------------------------

       Atom             a.u.   MegaHertz   Gauss  10(-4) cm-1        Axes

              Baa     0.0000     0.000     0.000     0.000  1.0000  0.0000  0.0000
     1 C(13)  Bbb     0.0000     0.000     0.000     0.000  0.0000  1.0000  0.0000
              Bcc     0.0000     0.000     0.000     0.000  0.0000  0.0000  1.0000
 
              Baa     0.0000     0.000     0.000     0.000  1.0000  0.0000  0.0000
     2 F(19)  Bbb     0.0000     0.000     0.000     0.000  0.0000  1.0000  0.0000
              Bcc     0.0000     0.000     0.000     0.000  0.0000  0.0000  1.0000
 
              Baa     0.0000     0.000     0.000     0.000  1.0000  0.0000  0.0000
     3 H(1)   Bbb     0.0000     0.000     0.000     0.000  0.0000  1.0000  0.0000
              Bcc     0.0000     0.000     0.000     0.000  0.0000  0.0000  1.0000
 
              Baa     0.0000    -0.000    -0.000    -0.000  1.0000  0.0000  0.0000
     4 O(17)  Bbb     0.0000    -0.000    -0.000    -0.000  0.0000  1.0000  0.0000
              Bcc     0.0000    -0.000    -0.000    -0.000  0.0000  0.0000  1.0000
 

 ---------------------------------------------------------------------------------

 Calling FoFJK, ICntrl=      2127 FMM=F ISym2X=0 I1Cent= 0 IOpClX= 1 NMat=1 NMatS=1 NMatT=0.
 ***** Axes restored to original set *****
 -------------------------------------------------------------------
 Center     Atomic                   Forces (Hartrees/Bohr)
 Number     Number              X              Y              Z
 -------------------------------------------------------------------
      1        6           0.001682249    0.000639884   -0.000560164
      2        9          -0.001452604    0.000297527    0.000258549
      3        1          -0.000111565    0.000398472    0.000045679
      4        8          -0.000118080   -0.001335883    0.000255936
 -------------------------------------------------------------------
 Cartesian Forces:  Max     0.001682249 RMS     0.000809113

 GradGradGradGradGradGradGradGradGradGradGradGradGradGradGradGradGradGrad
 Berny optimization.
 FormGI is forming the generalized inverse of G from B-inverse, IUseBI=4.
 Internal  Forces:  Max     0.001448147 RMS     0.000884536
 Search for a local minimum.
 Step number   1 out of a maximum of   20
 All quantities printed in internal units (Hartrees-Bohrs-Radians)
 Mixed Optimization -- En-DIIS/RFO-DIIS
 Second derivative matrix not updated -- first step.
 The second derivative matrix:
                          R1        R2        R3        A1        A2
           R1           0.57765
           R2           0.00000   0.70630
           R3           0.00000   0.00000   0.52480
           A1           0.00000   0.00000   0.00000   0.25000
           A2           0.00000   0.00000   0.00000   0.00000   0.16000
           D1           0.00000   0.00000   0.00000   0.00000   0.00000
                          D1
           D1           0.03173
 ITU=  0
     Eigenvalues ---    0.03173   0.16000   0.25000   0.52480   0.57765
     Eigenvalues ---    0.70630
 RFO step:  Lambda=-1.38878487D-05 EMin= 3.17290266D-02
 Linear search not attempted -- first point.
 Iteration  1 RMS(Cart)=  0.00511380 RMS(Int)=  0.00002196
 Iteration  2 RMS(Cart)=  0.00001650 RMS(Int)=  0.00000000
 Iteration  3 RMS(Cart)=  0.00000000 RMS(Int)=  0.00000000
 Variable       Old X    -DE/DX   Delta X   Delta X   Delta X     New X
                                 (Linear)    (Quad)   (Total)
    R1        2.52754   0.00145   0.00000   0.00251   0.00251   2.53005
    R2        2.43403   0.00100   0.00000   0.00142   0.00142   2.43545
    R3        1.84142   0.00004   0.00000   0.00008   0.00008   1.84150
    A1        1.86989  -0.00101   0.00000  -0.00403  -0.00403   1.86586
    A2        1.96535  -0.00073   0.00000  -0.00454  -0.00454   1.96081
    D1        0.00412  -0.00022   0.00000  -0.00680  -0.00680  -0.00269
         Item               Value     Threshold  Converged?
 Maximum Force            0.001448     0.000450     NO 
 RMS     Force            0.000885     0.000300     NO 
 Maximum Displacement     0.008445     0.001800     NO 
 RMS     Displacement     0.005114     0.001200     NO 
 Predicted change in Energy=-6.943924D-06
 GradGradGradGradGradGradGradGradGradGradGradGradGradGradGradGradGradGrad

                          Input orientation:                          
 ---------------------------------------------------------------------
 Center     Atomic      Atomic             Coordinates (Angstroms)
 Number     Number       Type             X           Y           Z
 ---------------------------------------------------------------------
      1          6           0       -1.957635    0.246679   -0.286739
      2          9           0       -3.139515    0.851822   -0.115098
      3          1           0       -2.988374   -1.141398    0.472456
      4          8           0       -2.090865   -0.963000    0.137394
 ---------------------------------------------------------------------
                    Distance matrix (angstroms):
                    1          2          3          4
     1  C    0.000000
     2  F    1.338843   0.000000
     3  H    1.888268   2.083504   0.000000
     4  O    1.288783   2.111160   0.974481   0.000000
 Stoichiometry    CHFO
 Framework group  C1[X(CHFO)]
 Deg. of freedom     6
 Full point group                 C1      NOp   1
 Largest Abelian subgroup         C1      NOp   1
 Largest concise Abelian subgroup C1      NOp   1
                         Standard orientation:                         
 ---------------------------------------------------------------------
 Center     Atomic      Atomic             Coordinates (Angstroms)
 Number     Number       Type             X           Y           Z
 ---------------------------------------------------------------------
      1          6           0       -0.009896    0.626550   -0.000308
      2          9           0        1.046096   -0.196481    0.000120
      3          1           0       -0.847365   -1.065845   -0.001534
      4          8           0       -1.063516   -0.115641    0.000288
 ---------------------------------------------------------------------
 Rotational constants (GHZ):          74.8909866          12.7713570          10.9107249
 Standard basis: 6-311+G(2d,2p) (5D, 7F)
 There are    96 symmetry adapted cartesian basis functions of A   symmetry.
 There are    90 symmetry adapted basis functions of A   symmetry.
    90 basis functions,   137 primitive gaussians,    96 cartesian basis functions
    12 alpha electrons       12 beta electrons
       nuclear repulsion energy        67.4113096416 Hartrees.
 NAtoms=    4 NActive=    4 NUniq=    4 SFac= 1.00D+00 NAtFMM=   60 NAOKFM=F Big=F
 Integral buffers will be    131072 words long.
 Raffenetti 2 integral format.
 Two-electron integral symmetry is turned on.
 Nuclear repulsion after empirical dispersion term =       67.4111609875 Hartrees.
 One-electron integrals computed using PRISM.
 NBasis=    90 RedAO= T EigKep=  1.39D-03  NBF=    90
 NBsUse=    90 1.00D-06 EigRej= -1.00D+00 NBFU=    90
 Initial guess from the checkpoint file:  "cfoh_cis.chk"
 B after Tr=     0.000000   -0.000000    0.000000
         Rot=    1.000000    0.000000   -0.000000   -0.000441 Ang=   0.05 deg.
 Initial guess <Sx>= 0.0000 <Sy>= 0.0000 <Sz>= 0.0000 <S**2>=-0.0000 S=-0.0000
 Keep R1 and R2 ints in memory in canonical form, NReq=55744224.
 Requested convergence on RMS density matrix=1.00D-08 within 128 cycles.
 Requested convergence on MAX density matrix=1.00D-06.
 Requested convergence on             energy=1.00D-06.
 No special actions if energy rises.
 SCF Done:  E(UwB97XD) =  -213.704301662     A.U. after    9 cycles
            NFock=  9  Conv=0.92D-08     -V/T= 2.0025
 <Sx>= 0.0000 <Sy>= 0.0000 <Sz>= 0.0000 <S**2>=-0.0000 S=-0.0000
 <L.S>= 0.000000000000E+00
 Annihilation of the first spin contaminant:
 S**2 before annihilation    -0.0000,   after     0.0000
 Calling FoFJK, ICntrl=      2127 FMM=F ISym2X=0 I1Cent= 0 IOpClX= 1 NMat=1 NMatS=1 NMatT=0.
 ***** Axes restored to original set *****
 -------------------------------------------------------------------
 Center     Atomic                   Forces (Hartrees/Bohr)
 Number     Number              X              Y              Z
 -------------------------------------------------------------------
      1        6           0.000473468   -0.000147714   -0.000207679
      2        9          -0.000742098    0.000686644    0.000074378
      3        1          -0.000004535    0.000035649   -0.000100484
      4        8           0.000273165   -0.000574580    0.000233785
 -------------------------------------------------------------------
 Cartesian Forces:  Max     0.000742098 RMS     0.000385967

 GradGradGradGradGradGradGradGradGradGradGradGradGradGradGradGradGradGrad
 Berny optimization.
 Using GEDIIS/GDIIS optimizer.
 FormGI is forming the generalized inverse of G from B-inverse, IUseBI=4.
 Internal  Forces:  Max     0.000974684 RMS     0.000536637
 Search for a local minimum.
 Step number   2 out of a maximum of   20
 All quantities printed in internal units (Hartrees-Bohrs-Radians)
 Mixed Optimization -- En-DIIS/RFO-DIIS
 Swapping is turned off.
 Update second derivatives using D2CorX and points    1    2
 DE= -6.90D-06 DEPred=-6.94D-06 R= 9.94D-01
 TightC=F SS=  1.41D+00  RLast= 9.56D-03 DXNew= 5.0454D-01 2.8689D-02
 Trust test= 9.94D-01 RLast= 9.56D-03 DXMaxT set to 3.00D-01
 The second derivative matrix:
                          R1        R2        R3        A1        A2
           R1           0.44268
           R2          -0.08828   0.65043
           R3          -0.00181  -0.00038   0.52513
           A1           0.04762   0.01441  -0.00656   0.38277
           A2           0.05465   0.03103  -0.00129   0.02284   0.14973
           D1           0.01041   0.00330  -0.00137   0.02769   0.00462
                          D1
           D1           0.03750
 ITU=  1  0
     Eigenvalues ---    0.03514   0.13501   0.34726   0.46201   0.52572
     Eigenvalues ---    0.68310
 En-DIIS/RFO-DIIS/Sim-DIIS IScMMF=       -3 using points:     2    1
 RFO step:  Lambda=-4.56895818D-06.
 DidBck=F Rises=F RFO-DIIS coefs:    0.96886    0.03114
 Iteration  1 RMS(Cart)=  0.00167340 RMS(Int)=  0.00000188
 Iteration  2 RMS(Cart)=  0.00000180 RMS(Int)=  0.00000000
 Iteration  3 RMS(Cart)=  0.00000000 RMS(Int)=  0.00000000
 Variable       Old X    -DE/DX   Delta X   Delta X   Delta X     New X
                                 (Linear)    (Quad)   (Total)
    R1        2.53005   0.00097  -0.00008   0.00258   0.00250   2.53255
    R2        2.43545   0.00052  -0.00004   0.00125   0.00120   2.43665
    R3        1.84150  -0.00004  -0.00000  -0.00004  -0.00004   1.84146
    A1        1.86586   0.00069   0.00013   0.00128   0.00141   1.86727
    A2        1.96081  -0.00010   0.00014  -0.00228  -0.00214   1.95867
    D1       -0.00269   0.00014   0.00021   0.00197   0.00218  -0.00050
         Item               Value     Threshold  Converged?
 Maximum Force            0.000975     0.000450     NO 
 RMS     Force            0.000537     0.000300     NO 
 Maximum Displacement     0.002333     0.001800     NO 
 RMS     Displacement     0.001674     0.001200     NO 
 Predicted change in Energy=-2.284520D-06
 GradGradGradGradGradGradGradGradGradGradGradGradGradGradGradGradGradGrad

                          Input orientation:                          
 ---------------------------------------------------------------------
 Center     Atomic      Atomic             Coordinates (Angstroms)
 Number     Number       Type             X           Y           Z
 ---------------------------------------------------------------------
      1          6           0       -1.957808    0.246179   -0.287025
      2          9           0       -3.140240    0.853057   -0.114974
      3          1           0       -2.988250   -1.141190    0.471937
      4          8           0       -2.090091   -0.963942    0.138076
 ---------------------------------------------------------------------
                    Distance matrix (angstroms):
                    1          2          3          4
     1  C    0.000000
     2  F    1.340167   0.000000
     3  H    1.887492   2.084368   0.000000
     4  O    1.289419   2.113843   0.974459   0.000000
 Stoichiometry    CHFO
 Framework group  C1[X(CHFO)]
 Deg. of freedom     6
 Full point group                 C1      NOp   1
 Largest Abelian subgroup         C1      NOp   1
 Largest concise Abelian subgroup C1      NOp   1
                         Standard orientation:                         
 ---------------------------------------------------------------------
 Center     Atomic      Atomic             Coordinates (Angstroms)
 Number     Number       Type             X           Y           Z
 ---------------------------------------------------------------------
      1          6           0       -0.010438    0.626417   -0.000058
      2          9           0        1.047530   -0.196232    0.000022
      3          1           0       -0.846867   -1.065627   -0.000287
      4          8           0       -1.064784   -0.115847    0.000054
 ---------------------------------------------------------------------
 Rotational constants (GHZ):          74.9287794          12.7394030          10.8881911
 Standard basis: 6-311+G(2d,2p) (5D, 7F)
 There are    96 symmetry adapted cartesian basis functions of A   symmetry.
 There are    90 symmetry adapted basis functions of A   symmetry.
    90 basis functions,   137 primitive gaussians,    96 cartesian basis functions
    12 alpha electrons       12 beta electrons
       nuclear repulsion energy        67.3574329662 Hartrees.
 NAtoms=    4 NActive=    4 NUniq=    4 SFac= 1.00D+00 NAtFMM=   60 NAOKFM=F Big=F
 Integral buffers will be    131072 words long.
 Raffenetti 2 integral format.
 Two-electron integral symmetry is turned on.
 Nuclear repulsion after empirical dispersion term =       67.3572839177 Hartrees.
 One-electron integrals computed using PRISM.
 NBasis=    90 RedAO= T EigKep=  1.39D-03  NBF=    90
 NBsUse=    90 1.00D-06 EigRej= -1.00D+00 NBFU=    90
 Initial guess from the checkpoint file:  "cfoh_cis.chk"
 B after Tr=    -0.000000    0.000000   -0.000000
         Rot=    1.000000   -0.000000    0.000000   -0.000167 Ang=  -0.02 deg.
 Initial guess <Sx>= 0.0000 <Sy>= 0.0000 <Sz>= 0.0000 <S**2>=-0.0000 S=-0.0000
 Keep R1 and R2 ints in memory in canonical form, NReq=55744224.
 Requested convergence on RMS density matrix=1.00D-08 within 128 cycles.
 Requested convergence on MAX density matrix=1.00D-06.
 Requested convergence on             energy=1.00D-06.
 No special actions if energy rises.
 SCF Done:  E(UwB97XD) =  -213.704302967     A.U. after    9 cycles
            NFock=  9  Conv=0.58D-08     -V/T= 2.0026
 <Sx>= 0.0000 <Sy>= 0.0000 <Sz>= 0.0000 <S**2>= 0.0000 S= 0.0000
 <L.S>= 0.000000000000E+00
 Annihilation of the first spin contaminant:
 S**2 before annihilation     0.0000,   after    -0.0000
 Calling FoFJK, ICntrl=      2127 FMM=F ISym2X=0 I1Cent= 0 IOpClX= 1 NMat=1 NMatS=1 NMatT=0.
 ***** Axes restored to original set *****
 -------------------------------------------------------------------
 Center     Atomic                   Forces (Hartrees/Bohr)
 Number     Number              X              Y              Z
 -------------------------------------------------------------------
      1        6           0.000255527   -0.000143055   -0.000053786
      2        9           0.000023024   -0.000227152    0.000076930
      3        1           0.000000613   -0.000147746    0.000029794
      4        8          -0.000279164    0.000517953   -0.000052938
 -------------------------------------------------------------------
 Cartesian Forces:  Max     0.000517953 RMS     0.000207851

 GradGradGradGradGradGradGradGradGradGradGradGradGradGradGradGradGradGrad
 Berny optimization.
 Using GEDIIS/GDIIS optimizer.
 FormGI is forming the generalized inverse of G from B-inverse, IUseBI=4.
 Internal  Forces:  Max     0.000536865 RMS     0.000283188
 Search for a local minimum.
 Step number   3 out of a maximum of   20
 All quantities printed in internal units (Hartrees-Bohrs-Radians)
 Mixed Optimization -- En-DIIS/RFO-DIIS
 Swapping is turned off.
 Update second derivatives using D2CorX and points    1    2    3
 DE= -1.30D-06 DEPred=-2.28D-06 R= 5.71D-01
 TightC=F SS=  1.41D+00  RLast= 4.36D-03 DXNew= 5.0454D-01 1.3092D-02
 Trust test= 5.71D-01 RLast= 4.36D-03 DXMaxT set to 3.00D-01
 The second derivative matrix:
                          R1        R2        R3        A1        A2
           R1           0.40444
           R2          -0.06481   0.70467
           R3          -0.00785  -0.00616   0.52548
           A1           0.13644   0.09856  -0.01171   0.45688
           A2           0.02238  -0.01210   0.00230  -0.02932   0.18022
           D1           0.00426  -0.00067  -0.00127   0.02638   0.00653
                          D1
           D1           0.03740
 ITU=  1  1  0
     Eigenvalues ---    0.03502   0.16940   0.27405   0.52142   0.56781
     Eigenvalues ---    0.74137
 En-DIIS/RFO-DIIS/Sim-DIIS IScMMF=       -3 using points:     3    2    1
 RFO step:  Lambda=-1.05324931D-06.
 DidBck=F Rises=F RFO-DIIS coefs:    0.90255    0.01417    0.08329
 Iteration  1 RMS(Cart)=  0.00082021 RMS(Int)=  0.00000054
 Iteration  2 RMS(Cart)=  0.00000043 RMS(Int)=  0.00000000
 Variable       Old X    -DE/DX   Delta X   Delta X   Delta X     New X
                                 (Linear)    (Quad)   (Total)
    R1        2.53255  -0.00011  -0.00045   0.00049   0.00004   2.53259
    R2        2.43665  -0.00033  -0.00024  -0.00004  -0.00027   2.43638
    R3        1.84146   0.00004  -0.00000   0.00004   0.00004   1.84150
    A1        1.86727  -0.00054   0.00020  -0.00137  -0.00118   1.86609
    A2        1.95867   0.00027   0.00059   0.00067   0.00126   1.95993
    D1       -0.00050   0.00003   0.00035   0.00101   0.00136   0.00086
         Item               Value     Threshold  Converged?
 Maximum Force            0.000537     0.000450     NO 
 RMS     Force            0.000283     0.000300     YES
 Maximum Displacement     0.001055     0.001800     YES
 RMS     Displacement     0.000820     0.001200     YES
 Predicted change in Energy=-5.247292D-07
 GradGradGradGradGradGradGradGradGradGradGradGradGradGradGradGradGradGrad

                          Input orientation:                          
 ---------------------------------------------------------------------
 Center     Atomic      Atomic             Coordinates (Angstroms)
 Number     Number       Type             X           Y           Z
 ---------------------------------------------------------------------
      1          6           0       -1.957492    0.246273   -0.287464
      2          9           0       -3.140108    0.852631   -0.114698
      3          1           0       -2.988481   -1.141416    0.471822
      4          8           0       -2.090307   -0.963383    0.138353
 ---------------------------------------------------------------------
                    Distance matrix (angstroms):
                    1          2          3          4
     1  C    0.000000
     2  F    1.340186   0.000000
     3  H    1.888156   2.084039   0.000000
     4  O    1.289274   2.112824   0.974481   0.000000
 Stoichiometry    CHFO
 Framework group  C1[X(CHFO)]
 Deg. of freedom     6
 Full point group                 C1      NOp   1
 Largest Abelian subgroup         C1      NOp   1
 Largest concise Abelian subgroup C1      NOp   1
                         Standard orientation:                         
 ---------------------------------------------------------------------
 Center     Atomic      Atomic             Coordinates (Angstroms)
 Number     Number       Type             X           Y           Z
 ---------------------------------------------------------------------
      1          6           0       -0.010461    0.626862    0.000098
      2          9           0        1.047060   -0.196393   -0.000038
      3          1           0       -0.846920   -1.065908    0.000490
      4          8           0       -1.064232   -0.115966   -0.000092
 ---------------------------------------------------------------------
 Rotational constants (GHZ):          74.8305318          12.7513870          10.8948639
 Standard basis: 6-311+G(2d,2p) (5D, 7F)
 There are    96 symmetry adapted cartesian basis functions of A   symmetry.
 There are    90 symmetry adapted basis functions of A   symmetry.
    90 basis functions,   137 primitive gaussians,    96 cartesian basis functions
    12 alpha electrons       12 beta electrons
       nuclear repulsion energy        67.3677066708 Hartrees.
 NAtoms=    4 NActive=    4 NUniq=    4 SFac= 1.00D+00 NAtFMM=   60 NAOKFM=F Big=F
 Integral buffers will be    131072 words long.
 Raffenetti 2 integral format.
 Two-electron integral symmetry is turned on.
 Nuclear repulsion after empirical dispersion term =       67.3675577318 Hartrees.
 One-electron integrals computed using PRISM.
 NBasis=    90 RedAO= T EigKep=  1.39D-03  NBF=    90
 NBsUse=    90 1.00D-06 EigRej= -1.00D+00 NBFU=    90
 Initial guess from the checkpoint file:  "cfoh_cis.chk"
 B after Tr=     0.000000    0.000000   -0.000000
         Rot=    1.000000    0.000000    0.000000    0.000012 Ang=   0.00 deg.
 Initial guess <Sx>= 0.0000 <Sy>= 0.0000 <Sz>= 0.0000 <S**2>= 0.0000 S= 0.0000
 Keep R1 and R2 ints in memory in canonical form, NReq=55744224.
 Requested convergence on RMS density matrix=1.00D-08 within 128 cycles.
 Requested convergence on MAX density matrix=1.00D-06.
 Requested convergence on             energy=1.00D-06.
 No special actions if energy rises.
 SCF Done:  E(UwB97XD) =  -213.704303417     A.U. after    8 cycles
            NFock=  8  Conv=0.74D-08     -V/T= 2.0026
 <Sx>= 0.0000 <Sy>= 0.0000 <Sz>= 0.0000 <S**2>=-0.0000 S=-0.0000
 <L.S>= 0.000000000000E+00
 Annihilation of the first spin contaminant:
 S**2 before annihilation    -0.0000,   after    -0.0000
 Calling FoFJK, ICntrl=      2127 FMM=F ISym2X=0 I1Cent= 0 IOpClX= 1 NMat=1 NMatS=1 NMatT=0.
 ***** Axes restored to original set *****
 -------------------------------------------------------------------
 Center     Atomic                   Forces (Hartrees/Bohr)
 Number     Number              X              Y              Z
 -------------------------------------------------------------------
      1        6          -0.000059742   -0.000191171    0.000114115
      2        9          -0.000009856    0.000064299   -0.000037763
      3        1           0.000042583    0.000003852    0.000014558
      4        8           0.000027014    0.000123020   -0.000090911
 -------------------------------------------------------------------
 Cartesian Forces:  Max     0.000191171 RMS     0.000084145

 GradGradGradGradGradGradGradGradGradGradGradGradGradGradGradGradGradGrad
 Berny optimization.
 Using GEDIIS/GDIIS optimizer.
 FormGI is forming the generalized inverse of G from B-inverse, IUseBI=4.
 Internal  Forces:  Max     0.000165589 RMS     0.000095752
 Search for a local minimum.
 Step number   4 out of a maximum of   20
 All quantities printed in internal units (Hartrees-Bohrs-Radians)
 Mixed Optimization -- En-DIIS/RFO-DIIS
 Swapping is turned off.
 Update second derivatives using D2CorX and points    1    2    3    4
 DE= -4.50D-07 DEPred=-5.25D-07 R= 8.58D-01
 Trust test= 8.58D-01 RLast= 2.21D-03 DXMaxT set to 3.00D-01
 The second derivative matrix:
                          R1        R2        R3        A1        A2
           R1           0.38396
           R2          -0.02873   0.68665
           R3          -0.00563   0.00013   0.52847
           A1           0.14672   0.01657  -0.03277   0.56428
           A2          -0.00135   0.01886   0.00576  -0.02726   0.16451
           D1           0.00459   0.00743   0.00273  -0.00287   0.01014
                          D1
           D1           0.04195
 ITU=  0  1  1  0
     Eigenvalues ---    0.04096   0.16199   0.30004   0.52118   0.65546
     Eigenvalues ---    0.69017
 En-DIIS/RFO-DIIS/Sim-DIIS IScMMF=       -3 using points:     4    3    2    1
 RFO step:  Lambda=-1.39905542D-07.
 DidBck=F Rises=F RFO-DIIS coefs:    0.68301    0.14793    0.17261   -0.00354
 Iteration  1 RMS(Cart)=  0.00040564 RMS(Int)=  0.00000020
 Iteration  2 RMS(Cart)=  0.00000021 RMS(Int)=  0.00000000
 Variable       Old X    -DE/DX   Delta X   Delta X   Delta X     New X
                                 (Linear)    (Quad)   (Total)
    R1        2.53259   0.00003  -0.00043   0.00036  -0.00007   2.53252
    R2        2.43638  -0.00015  -0.00011  -0.00009  -0.00020   2.43617
    R3        1.84150  -0.00003  -0.00001  -0.00003  -0.00004   1.84146
    A1        1.86609   0.00017   0.00012   0.00020   0.00032   1.86641
    A2        1.95993   0.00002  -0.00005   0.00028   0.00023   1.96016
    D1        0.00086  -0.00005  -0.00082  -0.00012  -0.00094  -0.00008
         Item               Value     Threshold  Converged?
 Maximum Force            0.000166     0.000450     YES
 RMS     Force            0.000096     0.000300     YES
 Maximum Displacement     0.000436     0.001800     YES
 RMS     Displacement     0.000406     0.001200     YES
 Predicted change in Energy=-6.921822D-08
 Optimization completed.
    -- Stationary point found.
                           ----------------------------
                           !   Optimized Parameters   !
                           ! (Angstroms and Degrees)  !
 --------------------------                            --------------------------
 ! Name  Definition              Value          Derivative Info.                !
 --------------------------------------------------------------------------------
 ! R1    R(1,2)                  1.3402         -DE/DX =    0.0                 !
 ! R2    R(1,4)                  1.2893         -DE/DX =   -0.0002              !
 ! R3    R(3,4)                  0.9745         -DE/DX =    0.0                 !
 ! A1    A(2,1,4)              106.9192         -DE/DX =    0.0002              !
 ! A2    A(1,4,3)              112.2955         -DE/DX =    0.0                 !
 ! D1    D(2,1,4,3)              0.0491         -DE/DX =    0.0                 !
 --------------------------------------------------------------------------------
 GradGradGradGradGradGradGradGradGradGradGradGradGradGradGradGradGradGrad

                          Input orientation:                          
 ---------------------------------------------------------------------
 Center     Atomic      Atomic             Coordinates (Angstroms)
 Number     Number       Type             X           Y           Z
 ---------------------------------------------------------------------
      1          6           0       -1.957492    0.246273   -0.287464
      2          9           0       -3.140108    0.852631   -0.114698
      3          1           0       -2.988481   -1.141416    0.471822
      4          8           0       -2.090307   -0.963383    0.138353
 ---------------------------------------------------------------------
                    Distance matrix (angstroms):
                    1          2          3          4
     1  C    0.000000
     2  F    1.340186   0.000000
     3  H    1.888156   2.084039   0.000000
     4  O    1.289274   2.112824   0.974481   0.000000
 Stoichiometry    CHFO
 Framework group  C1[X(CHFO)]
 Deg. of freedom     6
 Full point group                 C1      NOp   1
 Largest Abelian subgroup         C1      NOp   1
 Largest concise Abelian subgroup C1      NOp   1
                         Standard orientation:                         
 ---------------------------------------------------------------------
 Center     Atomic      Atomic             Coordinates (Angstroms)
 Number     Number       Type             X           Y           Z
 ---------------------------------------------------------------------
      1          6           0       -0.010461    0.626862    0.000098
      2          9           0        1.047060   -0.196393   -0.000038
      3          1           0       -0.846920   -1.065908    0.000490
      4          8           0       -1.064232   -0.115966   -0.000092
 ---------------------------------------------------------------------
 Rotational constants (GHZ):          74.8305318          12.7513870          10.8948639

 **********************************************************************

            Population analysis using the SCF density.

 **********************************************************************

 Orbital symmetries:
 Alpha Orbitals:
       Occupied  (A) (A) (A) (A) (A) (A) (A) (A) (A) (A) (A) (A)
       Virtual   (A) (A) (A) (A) (A) (A) (A) (A) (A) (A) (A) (A)
                 (A) (A) (A) (A) (A) (A) (A) (A) (A) (A) (A) (A)
                 (A) (A) (A) (A) (A) (A) (A) (A) (A) (A) (A) (A)
                 (A) (A) (A) (A) (A) (A) (A) (A) (A) (A) (A) (A)
                 (A) (A) (A) (A) (A) (A) (A) (A) (A) (A) (A) (A)
                 (A) (A) (A) (A) (A) (A) (A) (A) (A) (A) (A) (A)
                 (A) (A) (A) (A) (A) (A)
 Beta  Orbitals:
       Occupied  (A) (A) (A) (A) (A) (A) (A) (A) (A) (A) (A) (A)
       Virtual   (A) (A) (A) (A) (A) (A) (A) (A) (A) (A) (A) (A)
                 (A) (A) (A) (A) (A) (A) (A) (A) (A) (A) (A) (A)
                 (A) (A) (A) (A) (A) (A) (A) (A) (A) (A) (A) (A)
                 (A) (A) (A) (A) (A) (A) (A) (A) (A) (A) (A) (A)
                 (A) (A) (A) (A) (A) (A) (A) (A) (A) (A) (A) (A)
                 (A) (A) (A) (A) (A) (A) (A) (A) (A) (A) (A) (A)
                 (A) (A) (A) (A) (A) (A)
 The electronic state is 1-A.
 Alpha  occ. eigenvalues --  -24.85960 -19.35321 -10.44520  -1.38656  -1.23650
 Alpha  occ. eigenvalues --   -0.79811  -0.70516  -0.61789  -0.61065  -0.51415
 Alpha  occ. eigenvalues --   -0.51278  -0.37194
 Alpha virt. eigenvalues --    0.02070   0.06251   0.10620   0.11741   0.11961
 Alpha virt. eigenvalues --    0.16653   0.22557   0.26010   0.26953   0.28662
 Alpha virt. eigenvalues --    0.30455   0.32640   0.35085   0.38101   0.40692
 Alpha virt. eigenvalues --    0.44431   0.51688   0.60363   0.62807   0.69135
 Alpha virt. eigenvalues --    0.71391   0.77291   0.83684   0.86107   0.91351
 Alpha virt. eigenvalues --    0.96539   1.05546   1.10096   1.17032   1.18040
 Alpha virt. eigenvalues --    1.33016   1.38144   1.38363   1.41418   1.50638
 Alpha virt. eigenvalues --    1.52137   1.79456   1.84961   1.92880   1.99194
 Alpha virt. eigenvalues --    2.11502   2.14458   2.28047   2.30724   2.34897
 Alpha virt. eigenvalues --    2.44936   2.73572   2.78914   2.88144   3.24198
 Alpha virt. eigenvalues --    3.33981   3.36435   3.37487   3.51480   3.52887
 Alpha virt. eigenvalues --    3.79108   4.00828   4.09186   4.16553   5.03669
 Alpha virt. eigenvalues --    5.47999   6.09176   6.35761   6.41746   6.69036
 Alpha virt. eigenvalues --    6.88854   6.96138   7.09203   7.19188   7.41490
 Alpha virt. eigenvalues --    9.11520   9.14721   9.28827   9.38308   9.73577
 Alpha virt. eigenvalues --   23.98581  49.96185  66.90390
  Beta  occ. eigenvalues --  -24.85960 -19.35321 -10.44520  -1.38656  -1.23650
  Beta  occ. eigenvalues --   -0.79811  -0.70516  -0.61789  -0.61065  -0.51415
  Beta  occ. eigenvalues --   -0.51278  -0.37194
  Beta virt. eigenvalues --    0.02070   0.06251   0.10620   0.11741   0.11961
  Beta virt. eigenvalues --    0.16653   0.22557   0.26010   0.26953   0.28662
  Beta virt. eigenvalues --    0.30455   0.32640   0.35085   0.38101   0.40692
  Beta virt. eigenvalues --    0.44431   0.51688   0.60363   0.62807   0.69135
  Beta virt. eigenvalues --    0.71391   0.77291   0.83684   0.86107   0.91351
  Beta virt. eigenvalues --    0.96539   1.05546   1.10096   1.17032   1.18040
  Beta virt. eigenvalues --    1.33016   1.38144   1.38363   1.41418   1.50638
  Beta virt. eigenvalues --    1.52137   1.79456   1.84961   1.92880   1.99194
  Beta virt. eigenvalues --    2.11502   2.14458   2.28047   2.30724   2.34897
  Beta virt. eigenvalues --    2.44936   2.73572   2.78914   2.88144   3.24198
  Beta virt. eigenvalues --    3.33981   3.36435   3.37487   3.51480   3.52887
  Beta virt. eigenvalues --    3.79108   4.00828   4.09186   4.16553   5.03669
  Beta virt. eigenvalues --    5.47999   6.09176   6.35761   6.41746   6.69036
  Beta virt. eigenvalues --    6.88854   6.96138   7.09203   7.19188   7.41490
  Beta virt. eigenvalues --    9.11520   9.14721   9.28827   9.38308   9.73577
  Beta virt. eigenvalues --   23.98581  49.96185  66.90390
          Condensed to atoms (all electrons):
               1          2          3          4
     1  C    5.827244  -0.031335   0.069117   0.008769
     2  F   -0.031335   9.243755  -0.014884   0.014970
     3  H    0.069117  -0.014884   0.529369   0.161000
     4  O    0.008769   0.014970   0.161000   7.984358
          Atomic-Atomic Spin Densities.
               1          2          3          4
     1  C    0.000000   0.000000   0.000000   0.000000
     2  F    0.000000   0.000000   0.000000   0.000000
     3  H    0.000000   0.000000   0.000000   0.000000
     4  O    0.000000   0.000000   0.000000   0.000000
 Mulliken charges and spin densities:
               1          2
     1  C    0.126205   0.000000
     2  F   -0.212506   0.000000
     3  H    0.255398   0.000000
     4  O   -0.169097   0.000000
 Sum of Mulliken charges =  -0.00000   0.00000
 Mulliken charges and spin densities with hydrogens summed into heavy atoms:
               1          2
     1  C    0.126205   0.000000
     2  F   -0.212506   0.000000
     4  O    0.086301   0.000000
 Electronic spatial extent (au):  <R**2>=            122.0684
 Charge=             -0.0000 electrons
 Dipole moment (field-independent basis, Debye):
    X=             -0.6849    Y=             -2.5332    Z=              0.0010  Tot=              2.6242
 Quadrupole moment (field-independent basis, Debye-Ang):
   XX=            -18.0796   YY=            -16.6291   ZZ=            -16.1493
   XY=              1.5746   XZ=             -0.0008   YZ=             -0.0016
 Traceless Quadrupole moment (field-independent basis, Debye-Ang):
   XX=             -1.1269   YY=              0.3236   ZZ=              0.8033
   XY=              1.5746   XZ=             -0.0008   YZ=             -0.0016
 Octapole moment (field-independent basis, Debye-Ang**2):
  XXX=              3.8454  YYY=            -12.2591  ZZZ=             -0.0004  XYY=             -1.3127
  XXY=             -2.8632  XXZ=              0.0004  XZZ=              1.2238  YZZ=             -1.8587
  YYZ=              0.0007  XYZ=              0.0012
 Hexadecapole moment (field-independent basis, Debye-Ang**3):
 XXXX=            -87.5318 YYYY=            -39.9437 ZZZZ=            -14.0126 XXXY=              0.8573
 XXXZ=             -0.0009 YYYX=              2.0305 YYYZ=             -0.0032 ZZZX=             -0.0005
 ZZZY=             -0.0011 XXYY=            -18.0678 XXZZ=            -16.6801 YYZZ=             -8.7888
 XXYZ=             -0.0013 YYXZ=             -0.0013 ZZXY=             -0.0167
 N-N= 6.736755773183D+01 E-N=-6.405996471087D+02  KE= 2.131574832563D+02
                          Isotropic Fermi Contact Couplings
        Atom                 a.u.       MegaHertz       Gauss      10(-4) cm-1
     1  C(13)              0.00000       0.00000       0.00000       0.00000
     2  F(19)              0.00000       0.00000       0.00000       0.00000
     3  H(1)               0.00000       0.00000       0.00000       0.00000
     4  O(17)              0.00000      -0.00000      -0.00000      -0.00000
 --------------------------------------------------------
       Center         ----  Spin Dipole Couplings  ----
                      3XX-RR        3YY-RR        3ZZ-RR
 --------------------------------------------------------
     1   Atom        0.000000      0.000000      0.000000
     2   Atom        0.000000      0.000000      0.000000
     3   Atom        0.000000      0.000000      0.000000
     4   Atom        0.000000      0.000000      0.000000
 --------------------------------------------------------
                        XY            XZ            YZ
 --------------------------------------------------------
     1   Atom        0.000000      0.000000      0.000000
     2   Atom        0.000000      0.000000      0.000000
     3   Atom        0.000000      0.000000      0.000000
     4   Atom        0.000000      0.000000      0.000000
 --------------------------------------------------------


 ---------------------------------------------------------------------------------
              Anisotropic Spin Dipole Couplings in Principal Axis System
 ---------------------------------------------------------------------------------

       Atom             a.u.   MegaHertz   Gauss  10(-4) cm-1        Axes

              Baa     0.0000     0.000     0.000     0.000  1.0000  0.0000  0.0000
     1 C(13)  Bbb     0.0000     0.000     0.000     0.000  0.0000  1.0000  0.0000
              Bcc     0.0000     0.000     0.000     0.000  0.0000  0.0000  1.0000
 
              Baa     0.0000     0.000     0.000     0.000  1.0000  0.0000  0.0000
     2 F(19)  Bbb     0.0000     0.000     0.000     0.000  0.0000  1.0000  0.0000
              Bcc     0.0000     0.000     0.000     0.000  0.0000  0.0000  1.0000
 
              Baa     0.0000     0.000     0.000     0.000  1.0000  0.0000  0.0000
     3 H(1)   Bbb     0.0000     0.000     0.000     0.000  0.0000  1.0000  0.0000
              Bcc     0.0000     0.000     0.000     0.000  0.0000  0.0000  1.0000
 
              Baa     0.0000    -0.000    -0.000    -0.000  1.0000  0.0000  0.0000
     4 O(17)  Bbb     0.0000    -0.000    -0.000    -0.000  0.0000  1.0000  0.0000
              Bcc     0.0000    -0.000    -0.000    -0.000  0.0000  0.0000  1.0000
 

 ---------------------------------------------------------------------------------

 1\1\GINC-CCLEARTI\FOpt\UwB97XD\6-311+G(2d,2p)\C1H1F1O1\RAPPE\17-Oct-20
 25\0\\# opt freq uwb97xd/6-311+g(2d,2p) geom=connectivity scf=xqc inte
 gral=grid=superfinegrid scf=(xqc,tight)\\Title Card Required\\0,1\C,-1
 .9574920494,0.2462728584,-0.2874636325\F,-3.140108408,0.852630656,-0.1
 14697659\H,-2.988481085,-1.1414162183,0.4718222025\O,-2.0903074575,-0.
 9633832961,0.138353089\\Version=EM64M-G16RevA.03\State=1-A\HF=-213.704
 3034\S2=0.\S2-1=0.\S2A=0.\RMSD=7.410e-09\RMSF=8.414e-05\Dipole=-0.7108
 233,-0.6219468,0.4169392\Quadrupole=-0.8778322,0.2393288,0.6385034,1.1
 169821,0.1014419,-0.2302015\PG=C01 [X(C1H1F1O1)]\\@


 TIME IS IN FACT THE HERO OF THE PLOT. THE TIME
 WITH WHICH WE HAVE TO DEAL IS OF THE ORDER OF TWO
 BILLION YEARS...GIVEN SO MUCH TIME, THE "IMPOSSIBLE"
 BECOMES POSSIBLE, THE POSSIBLE PROBABLE, THE PROBABLE
 VIRTUALLY CERTAIN.  ONE HAS ONLY TO WAIT, TIME
 ITSELF PERFORMS THE MIRACLES.
 "ORIGIN OF LIFE" LECTURES, GEORGE WALD, 1954
 Job cpu time:       0 days  0 hours 12 minutes 33.0 seconds.
 Elapsed time:       0 days  0 hours  0 minutes 32.5 seconds.
 File lengths (MBytes):  RWF=     10 Int=      0 D2E=      0 Chk=      2 Scr=      1
 Normal termination of Gaussian 16 at Fri Oct 17 02:46:32 2025.
 Link1:  Proceeding to internal job step number  2.
 ----------------------------------------------------------------------
 #N Geom=AllCheck Guess=TCheck SCRF=Check GenChk UwB97XD/6-311+G(2d,2p)
  Freq
 ----------------------------------------------------------------------
 1/10=4,29=7,30=1,38=1,40=1/1,3;
 2/12=2,40=1/2;
 3/5=4,6=6,7=212,11=2,14=-4,25=1,30=1,70=2,71=2,74=-58,75=-7,116=2,140=1/1,2,3;
 4/5=101/1;
 5/5=2,32=2,38=6,98=1/2;
 8/6=4,10=90,11=11/1;
 11/6=1,8=1,9=11,15=111,16=1/1,2,10;
 10/6=1/2;
 6/7=2,8=2,9=2,10=2,28=1/1;
 7/8=1,10=1,25=1/1,2,3,16;
 1/10=4,30=1/3;
 99//99;
 Structure from the checkpoint file:  "cfoh_cis.chk"
 -------------------
 Title Card Required
 -------------------
 Charge =  0 Multiplicity = 1
 Redundant internal coordinates found in file.  (old form).
 C,0,-1.9574920494,0.2462728584,-0.2874636325
 F,0,-3.140108408,0.852630656,-0.114697659
 H,0,-2.988481085,-1.1414162183,0.4718222025
 O,0,-2.0903074575,-0.9633832961,0.138353089
 Recover connectivity data from disk.

 GradGradGradGradGradGradGradGradGradGradGradGradGradGradGradGradGradGrad
 Berny optimization.
 Initialization pass.
                           ----------------------------
                           !    Initial Parameters    !
                           ! (Angstroms and Degrees)  !
 --------------------------                            --------------------------
 ! Name  Definition              Value          Derivative Info.                !
 --------------------------------------------------------------------------------
 ! R1    R(1,2)                  1.3402         calculate D2E/DX2 analytically  !
 ! R2    R(1,4)                  1.2893         calculate D2E/DX2 analytically  !
 ! R3    R(3,4)                  0.9745         calculate D2E/DX2 analytically  !
 ! A1    A(2,1,4)              106.9192         calculate D2E/DX2 analytically  !
 ! A2    A(1,4,3)              112.2955         calculate D2E/DX2 analytically  !
 ! D1    D(2,1,4,3)              0.0491         calculate D2E/DX2 analytically  !
 --------------------------------------------------------------------------------
 Trust Radius=3.00D-01 FncErr=1.00D-07 GrdErr=1.00D-07 EigMax=2.50D+02 EigMin=1.00D-04
 Number of steps in this run=      2 maximum allowed number of steps=      2.
 GradGradGradGradGradGradGradGradGradGradGradGradGradGradGradGradGradGrad

                          Input orientation:                          
 ---------------------------------------------------------------------
 Center     Atomic      Atomic             Coordinates (Angstroms)
 Number     Number       Type             X           Y           Z
 ---------------------------------------------------------------------
      1          6           0       -1.957492    0.246273   -0.287464
      2          9           0       -3.140108    0.852631   -0.114698
      3          1           0       -2.988481   -1.141416    0.471822
      4          8           0       -2.090307   -0.963383    0.138353
 ---------------------------------------------------------------------
                    Distance matrix (angstroms):
                    1          2          3          4
     1  C    0.000000
     2  F    1.340186   0.000000
     3  H    1.888156   2.084039   0.000000
     4  O    1.289274   2.112824   0.974481   0.000000
 Stoichiometry    CHFO
 Framework group  C1[X(CHFO)]
 Deg. of freedom     6
 Full point group                 C1      NOp   1
 Largest Abelian subgroup         C1      NOp   1
 Largest concise Abelian subgroup C1      NOp   1
                         Standard orientation:                         
 ---------------------------------------------------------------------
 Center     Atomic      Atomic             Coordinates (Angstroms)
 Number     Number       Type             X           Y           Z
 ---------------------------------------------------------------------
      1          6           0       -0.010461    0.626862    0.000098
      2          9           0        1.047060   -0.196393   -0.000038
      3          1           0       -0.846920   -1.065908    0.000490
      4          8           0       -1.064232   -0.115966   -0.000092
 ---------------------------------------------------------------------
 Rotational constants (GHZ):          74.8305318          12.7513870          10.8948639
 Standard basis: 6-311+G(2d,2p) (5D, 7F)
 There are    96 symmetry adapted cartesian basis functions of A   symmetry.
 There are    90 symmetry adapted basis functions of A   symmetry.
    90 basis functions,   137 primitive gaussians,    96 cartesian basis functions
    12 alpha electrons       12 beta electrons
       nuclear repulsion energy        67.3677066708 Hartrees.
 NAtoms=    4 NActive=    4 NUniq=    4 SFac= 1.00D+00 NAtFMM=   60 NAOKFM=F Big=F
 Integral buffers will be    131072 words long.
 Raffenetti 2 integral format.
 Two-electron integral symmetry is turned on.
 Nuclear repulsion after empirical dispersion term =       67.3675577318 Hartrees.
 One-electron integrals computed using PRISM.
 NBasis=    90 RedAO= T EigKep=  1.39D-03  NBF=    90
 NBsUse=    90 1.00D-06 EigRej= -1.00D+00 NBFU=    90
 Initial guess from the checkpoint file:  "cfoh_cis.chk"
 B after Tr=    -0.000000   -0.000000    0.000000
         Rot=    1.000000    0.000000    0.000000    0.000000 Ang=   0.00 deg.
 Initial guess <Sx>= 0.0000 <Sy>= 0.0000 <Sz>= 0.0000 <S**2>= 0.0000 S= 0.0000
 Keep R1 and R2 ints in memory in canonical form, NReq=55744224.
 Requested convergence on RMS density matrix=1.00D-08 within 128 cycles.
 Requested convergence on MAX density matrix=1.00D-06.
 Requested convergence on             energy=1.00D-06.
 No special actions if energy rises.
 SCF Done:  E(UwB97XD) =  -213.704303417     A.U. after    1 cycles
            NFock=  1  Conv=0.13D-08     -V/T= 2.0026
 <Sx>= 0.0000 <Sy>= 0.0000 <Sz>= 0.0000 <S**2>= 0.0000 S= 0.0000
 <L.S>= 0.000000000000E+00
 Annihilation of the first spin contaminant:
 S**2 before annihilation     0.0000,   after     0.0000
 DoSCS=F DFT=T ScalE2(SS,OS)=  1.000000  1.000000
 Range of M.O.s used for correlation:     1    90
 NBasis=    90 NAE=    12 NBE=    12 NFC=     0 NFV=     0
 NROrb=     90 NOA=    12 NOB=    12 NVA=    78 NVB=    78
 Symmetrizing basis deriv contribution to polar:
 IMax=3 JMax=2 DiffMx= 0.00D+00
 G2DrvN: will do     5 centers at a time, making    1 passes.
 Calling FoFCou, ICntrl=  3107 FMM=F I1Cent=   0 AccDes= 0.00D+00.
 End of G2Drv F.D. properties file   721 does not exist.
 End of G2Drv F.D. properties file   722 does not exist.
 End of G2Drv F.D. properties file   788 does not exist.
          IDoAtm=1111
          Differentiating once with respect to electric field.
                with respect to dipole field.
          Differentiating once with respect to nuclear coordinates.
 Keep R1 and R2 ints in memory in canonical form, NReq=55594610.
          There are    15 degrees of freedom in the 1st order CPHF.  IDoFFX=6 NUNeed=     3.
     12 vectors produced by pass  0 Test12= 1.25D-14 6.67D-09 XBig12= 1.67D+01 1.68D+00.
 AX will form    12 AO Fock derivatives at one time.
     12 vectors produced by pass  1 Test12= 1.25D-14 6.67D-09 XBig12= 3.33D+00 5.66D-01.
     12 vectors produced by pass  2 Test12= 1.25D-14 6.67D-09 XBig12= 1.08D-01 5.85D-02.
     12 vectors produced by pass  3 Test12= 1.25D-14 6.67D-09 XBig12= 2.02D-03 9.29D-03.
     12 vectors produced by pass  4 Test12= 1.25D-14 6.67D-09 XBig12= 3.27D-05 7.62D-04.
     12 vectors produced by pass  5 Test12= 1.25D-14 6.67D-09 XBig12= 2.29D-07 6.83D-05.
     12 vectors produced by pass  6 Test12= 1.25D-14 6.67D-09 XBig12= 1.65D-09 7.53D-06.
      5 vectors produced by pass  7 Test12= 1.25D-14 6.67D-09 XBig12= 8.59D-12 6.33D-07.
      3 vectors produced by pass  8 Test12= 1.25D-14 6.67D-09 XBig12= 6.14D-14 3.79D-08.
 InvSVY:  IOpt=1 It=  1 EMax= 1.78D-15
 Solved reduced A of dimension    92 with    12 vectors.
 Isotropic polarizability for W=    0.000000       19.72 Bohr**3.
 End of Minotr F.D. properties file   721 does not exist.
 End of Minotr F.D. properties file   722 does not exist.
 End of Minotr F.D. properties file   788 does not exist.

 **********************************************************************

            Population analysis using the SCF density.

 **********************************************************************

 Orbital symmetries:
 Alpha Orbitals:
       Occupied  (A) (A) (A) (A) (A) (A) (A) (A) (A) (A) (A) (A)
       Virtual   (A) (A) (A) (A) (A) (A) (A) (A) (A) (A) (A) (A)
                 (A) (A) (A) (A) (A) (A) (A) (A) (A) (A) (A) (A)
                 (A) (A) (A) (A) (A) (A) (A) (A) (A) (A) (A) (A)
                 (A) (A) (A) (A) (A) (A) (A) (A) (A) (A) (A) (A)
                 (A) (A) (A) (A) (A) (A) (A) (A) (A) (A) (A) (A)
                 (A) (A) (A) (A) (A) (A) (A) (A) (A) (A) (A) (A)
                 (A) (A) (A) (A) (A) (A)
 Beta  Orbitals:
       Occupied  (A) (A) (A) (A) (A) (A) (A) (A) (A) (A) (A) (A)
       Virtual   (A) (A) (A) (A) (A) (A) (A) (A) (A) (A) (A) (A)
                 (A) (A) (A) (A) (A) (A) (A) (A) (A) (A) (A) (A)
                 (A) (A) (A) (A) (A) (A) (A) (A) (A) (A) (A) (A)
                 (A) (A) (A) (A) (A) (A) (A) (A) (A) (A) (A) (A)
                 (A) (A) (A) (A) (A) (A) (A) (A) (A) (A) (A) (A)
                 (A) (A) (A) (A) (A) (A) (A) (A) (A) (A) (A) (A)
                 (A) (A) (A) (A) (A) (A)
 The electronic state is 1-A.
 Alpha  occ. eigenvalues --  -24.85960 -19.35321 -10.44520  -1.38656  -1.23650
 Alpha  occ. eigenvalues --   -0.79811  -0.70516  -0.61789  -0.61065  -0.51415
 Alpha  occ. eigenvalues --   -0.51278  -0.37194
 Alpha virt. eigenvalues --    0.02070   0.06251   0.10620   0.11741   0.11961
 Alpha virt. eigenvalues --    0.16653   0.22557   0.26010   0.26953   0.28662
 Alpha virt. eigenvalues --    0.30455   0.32640   0.35085   0.38101   0.40692
 Alpha virt. eigenvalues --    0.44431   0.51688   0.60363   0.62807   0.69135
 Alpha virt. eigenvalues --    0.71391   0.77291   0.83684   0.86107   0.91351
 Alpha virt. eigenvalues --    0.96539   1.05546   1.10096   1.17032   1.18040
 Alpha virt. eigenvalues --    1.33016   1.38144   1.38363   1.41418   1.50638
 Alpha virt. eigenvalues --    1.52137   1.79456   1.84961   1.92880   1.99194
 Alpha virt. eigenvalues --    2.11502   2.14458   2.28047   2.30724   2.34897
 Alpha virt. eigenvalues --    2.44936   2.73572   2.78914   2.88144   3.24198
 Alpha virt. eigenvalues --    3.33981   3.36435   3.37487   3.51480   3.52887
 Alpha virt. eigenvalues --    3.79108   4.00828   4.09186   4.16553   5.03669
 Alpha virt. eigenvalues --    5.47999   6.09176   6.35761   6.41746   6.69036
 Alpha virt. eigenvalues --    6.88854   6.96138   7.09203   7.19188   7.41490
 Alpha virt. eigenvalues --    9.11520   9.14721   9.28827   9.38308   9.73577
 Alpha virt. eigenvalues --   23.98581  49.96185  66.90390
  Beta  occ. eigenvalues --  -24.85960 -19.35321 -10.44520  -1.38656  -1.23650
  Beta  occ. eigenvalues --   -0.79811  -0.70516  -0.61789  -0.61065  -0.51415
  Beta  occ. eigenvalues --   -0.51278  -0.37194
  Beta virt. eigenvalues --    0.02070   0.06251   0.10620   0.11741   0.11961
  Beta virt. eigenvalues --    0.16653   0.22557   0.26010   0.26953   0.28662
  Beta virt. eigenvalues --    0.30455   0.32640   0.35085   0.38101   0.40692
  Beta virt. eigenvalues --    0.44431   0.51688   0.60363   0.62807   0.69135
  Beta virt. eigenvalues --    0.71391   0.77291   0.83684   0.86107   0.91351
  Beta virt. eigenvalues --    0.96539   1.05546   1.10096   1.17032   1.18040
  Beta virt. eigenvalues --    1.33016   1.38144   1.38363   1.41418   1.50638
  Beta virt. eigenvalues --    1.52137   1.79456   1.84961   1.92880   1.99194
  Beta virt. eigenvalues --    2.11502   2.14458   2.28047   2.30724   2.34897
  Beta virt. eigenvalues --    2.44936   2.73572   2.78914   2.88144   3.24198
  Beta virt. eigenvalues --    3.33981   3.36435   3.37487   3.51480   3.52887
  Beta virt. eigenvalues --    3.79108   4.00828   4.09186   4.16553   5.03669
  Beta virt. eigenvalues --    5.47999   6.09176   6.35761   6.41746   6.69036
  Beta virt. eigenvalues --    6.88854   6.96138   7.09203   7.19188   7.41490
  Beta virt. eigenvalues --    9.11520   9.14721   9.28827   9.38308   9.73577
  Beta virt. eigenvalues --   23.98581  49.96185  66.90390
          Condensed to atoms (all electrons):
               1          2          3          4
     1  C    5.827244  -0.031335   0.069117   0.008769
     2  F   -0.031335   9.243755  -0.014884   0.014970
     3  H    0.069117  -0.014884   0.529369   0.161000
     4  O    0.008769   0.014970   0.161000   7.984358
          Atomic-Atomic Spin Densities.
               1          2          3          4
     1  C    0.000000   0.000000   0.000000   0.000000
     2  F    0.000000   0.000000   0.000000   0.000000
     3  H    0.000000   0.000000   0.000000   0.000000
     4  O    0.000000   0.000000   0.000000   0.000000
 Mulliken charges and spin densities:
               1          2
     1  C    0.126205   0.000000
     2  F   -0.212506   0.000000
     3  H    0.255398   0.000000
     4  O   -0.169097   0.000000
 Sum of Mulliken charges =  -0.00000   0.00000
 Mulliken charges and spin densities with hydrogens summed into heavy atoms:
               1          2
     1  C    0.126205   0.000000
     2  F   -0.212506   0.000000
     4  O    0.086301   0.000000
 APT charges:
               1
     1  C    0.727815
     2  F   -0.507595
     3  H    0.284516
     4  O   -0.504736
 Sum of APT charges =   0.00000
 APT charges with hydrogens summed into heavy atoms:
               1
     1  C    0.727815
     2  F   -0.507595
     4  O   -0.220220
 Electronic spatial extent (au):  <R**2>=            122.0684
 Charge=             -0.0000 electrons
 Dipole moment (field-independent basis, Debye):
    X=             -0.6849    Y=             -2.5332    Z=              0.0010  Tot=              2.6242
 Quadrupole moment (field-independent basis, Debye-Ang):
   XX=            -18.0796   YY=            -16.6291   ZZ=            -16.1493
   XY=              1.5746   XZ=             -0.0008   YZ=             -0.0016
 Traceless Quadrupole moment (field-independent basis, Debye-Ang):
   XX=             -1.1269   YY=              0.3236   ZZ=              0.8033
   XY=              1.5746   XZ=             -0.0008   YZ=             -0.0016
 Octapole moment (field-independent basis, Debye-Ang**2):
  XXX=              3.8454  YYY=            -12.2591  ZZZ=             -0.0004  XYY=             -1.3127
  XXY=             -2.8632  XXZ=              0.0004  XZZ=              1.2238  YZZ=             -1.8587
  YYZ=              0.0007  XYZ=              0.0012
 Hexadecapole moment (field-independent basis, Debye-Ang**3):
 XXXX=            -87.5318 YYYY=            -39.9437 ZZZZ=            -14.0126 XXXY=              0.8573
 XXXZ=             -0.0009 YYYX=              2.0305 YYYZ=             -0.0032 ZZZX=             -0.0005
 ZZZY=             -0.0011 XXYY=            -18.0678 XXZZ=            -16.6801 YYZZ=             -8.7888
 XXYZ=             -0.0013 YYXZ=             -0.0013 ZZXY=             -0.0167
 N-N= 6.736755773183D+01 E-N=-6.405996471653D+02  KE= 2.131574832869D+02
  Exact polarizability:  21.986   1.215  21.348  -0.000  -0.001  15.823
 Approx polarizability:  23.282   0.812  20.722   0.000  -0.001  16.376
                          Isotropic Fermi Contact Couplings
        Atom                 a.u.       MegaHertz       Gauss      10(-4) cm-1
     1  C(13)              0.00000       0.00000       0.00000       0.00000
     2  F(19)              0.00000       0.00000       0.00000       0.00000
     3  H(1)               0.00000       0.00000       0.00000       0.00000
     4  O(17)              0.00000      -0.00000      -0.00000      -0.00000
 --------------------------------------------------------
       Center         ----  Spin Dipole Couplings  ----
                      3XX-RR        3YY-RR        3ZZ-RR
 --------------------------------------------------------
     1   Atom        0.000000      0.000000      0.000000
     2   Atom        0.000000      0.000000      0.000000
     3   Atom        0.000000      0.000000      0.000000
     4   Atom        0.000000      0.000000      0.000000
 --------------------------------------------------------
                        XY            XZ            YZ
 --------------------------------------------------------
     1   Atom        0.000000      0.000000      0.000000
     2   Atom        0.000000      0.000000      0.000000
     3   Atom        0.000000      0.000000      0.000000
     4   Atom        0.000000      0.000000      0.000000
 --------------------------------------------------------


 ---------------------------------------------------------------------------------
              Anisotropic Spin Dipole Couplings in Principal Axis System
 ---------------------------------------------------------------------------------

       Atom             a.u.   MegaHertz   Gauss  10(-4) cm-1        Axes

              Baa     0.0000     0.000     0.000     0.000  1.0000  0.0000  0.0000
     1 C(13)  Bbb     0.0000     0.000     0.000     0.000  0.0000  1.0000  0.0000
              Bcc     0.0000     0.000     0.000     0.000  0.0000  0.0000  1.0000
 
              Baa     0.0000     0.000     0.000     0.000  1.0000  0.0000  0.0000
     2 F(19)  Bbb     0.0000     0.000     0.000     0.000  0.0000  1.0000  0.0000
              Bcc     0.0000     0.000     0.000     0.000  0.0000  0.0000  1.0000
 
              Baa     0.0000     0.000     0.000     0.000  1.0000  0.0000  0.0000
     3 H(1)   Bbb     0.0000     0.000     0.000     0.000  0.0000  1.0000  0.0000
              Bcc     0.0000     0.000     0.000     0.000  0.0000  0.0000  1.0000
 
              Baa     0.0000    -0.000    -0.000    -0.000  1.0000  0.0000  0.0000
     4 O(17)  Bbb     0.0000    -0.000    -0.000    -0.000  0.0000  1.0000  0.0000
              Bcc     0.0000    -0.000    -0.000    -0.000  0.0000  0.0000  1.0000
 

 ---------------------------------------------------------------------------------

 Calling FoFJK, ICntrl=    100127 FMM=F ISym2X=0 I1Cent= 0 IOpClX= 1 NMat=1 NMatS=1 NMatT=0.
 Full mass-weighted force constant matrix:
 Low frequencies ---   -0.0017   -0.0011    0.0004    6.2036    6.6936   30.7707
 Low frequencies ---  651.8922  782.4556  989.9897
 Diagonal vibrational polarizability:
        8.7941051       2.3619216       5.4120090
 Harmonic frequencies (cm**-1), IR intensities (KM/Mole), Raman scattering
 activities (A**4/AMU), depolarization ratios for plane and unpolarized
 incident light, reduced masses (AMU), force constants (mDyne/A),
 and normal coordinates:
                      1                      2                      3
                      A                      A                      A
 Frequencies --    651.8922               782.4556               989.9897
 Red. masses --      3.9982                 1.2733                 5.5338
 Frc consts  --      1.0011                 0.4593                 3.1955
 IR Inten    --     26.2985               123.1246               135.3432
  Atom  AN      X      Y      Z        X      Y      Z        X      Y      Z
     1   6     0.00  -0.22   0.00     0.00   0.00   0.10     0.36  -0.28  -0.00
     2   9     0.26   0.08  -0.00    -0.00   0.00  -0.04    -0.27   0.20   0.00
     3   1    -0.89  -0.07   0.00    -0.00   0.00   0.99    -0.79  -0.21  -0.00
     4   8    -0.26   0.07  -0.00     0.00  -0.00  -0.09     0.10  -0.01   0.00
                      4                      5                      6
                      A                      A                      A
 Frequencies --   1315.4301              1382.7025              3651.6678
 Red. masses --      2.2223                 3.4159                 1.0622
 Frc consts  --      2.2656                 3.8478                 8.3456
 IR Inten    --    339.1286                31.9496                24.9688
  Atom  AN      X      Y      Z        X      Y      Z        X      Y      Z
     1   6     0.22  -0.01   0.00     0.18   0.35   0.00    -0.00  -0.01   0.00
     2   9    -0.01   0.03   0.00     0.01  -0.05  -0.00     0.00   0.00  -0.00
     3   1     0.93   0.20   0.00    -0.84  -0.30  -0.00    -0.20   0.98  -0.00
     4   8    -0.21  -0.04  -0.00    -0.09  -0.19   0.00     0.01  -0.06   0.00

 -------------------
 - Thermochemistry -
 -------------------
 Temperature   298.150 Kelvin.  Pressure   1.00000 Atm.
 Atom     1 has atomic number  6 and mass  12.00000
 Atom     2 has atomic number  9 and mass  18.99840
 Atom     3 has atomic number  1 and mass   1.00783
 Atom     4 has atomic number  8 and mass  15.99491
 Molecular mass:    48.00114 amu.
 Principal axes and moments of inertia in atomic units:
                           1         2         3
     Eigenvalues --    24.11771 141.53293 165.65064
           X            0.99940   0.03456  -0.00001
           Y           -0.03456   0.99940  -0.00008
           Z            0.00001   0.00008   1.00000
 This molecule is an asymmetric top.
 Rotational symmetry number  1.
 Rotational temperatures (Kelvin)      3.59130     0.61197     0.52287
 Rotational constants (GHZ):          74.83053    12.75139    10.89486
 Zero-point vibrational energy      52481.0 (Joules/Mol)
                                   12.54326 (Kcal/Mol)
 Vibrational temperatures:    937.93  1125.78  1424.37  1892.61  1989.40
          (Kelvin)           5253.94
 
 Zero-point correction=                           0.019989 (Hartree/Particle)
 Thermal correction to Energy=                    0.023095
 Thermal correction to Enthalpy=                  0.024040
 Thermal correction to Gibbs Free Energy=        -0.004101
 Sum of electronic and zero-point Energies=           -213.684314
 Sum of electronic and thermal Energies=              -213.681208
 Sum of electronic and thermal Enthalpies=            -213.680264
 Sum of electronic and thermal Free Energies=         -213.708404
 
                     E (Thermal)             CV                S
                      KCal/Mol        Cal/Mol-Kelvin    Cal/Mol-Kelvin
 Total                   14.493              8.207             59.227
 Electronic               0.000              0.000              0.000
 Translational            0.889              2.981             37.530
 Rotational               0.889              2.981             20.964
 Vibrational             12.715              2.245              0.733
                       Q            Log10(Q)             Ln(Q)
 Total Bot       0.769572D+02          1.886249          4.343250
 Total V=0       0.120371D+12         11.080523         25.513848
 Vib (Bot)       0.691639D-09         -9.160121        -21.091958
 Vib (V=0)       0.108181D+01          0.034153          0.078640
 Electronic      0.100000D+01          0.000000          0.000000
 Translational   0.130717D+08          7.116331         16.385958
 Rotational      0.851214D+04          3.930039          9.049249
 ***** Axes restored to original set *****
 -------------------------------------------------------------------
 Center     Atomic                   Forces (Hartrees/Bohr)
 Number     Number              X              Y              Z
 -------------------------------------------------------------------
      1        6          -0.000059758   -0.000191191    0.000114101
      2        9          -0.000009850    0.000064306   -0.000037758
      3        1           0.000042588    0.000003856    0.000014559
      4        8           0.000027020    0.000123028   -0.000090903
 -------------------------------------------------------------------
 Cartesian Forces:  Max     0.000191191 RMS     0.000084149
 FormGI is forming the generalized inverse of G from B-inverse, IUseBI=4.

 GradGradGradGradGradGradGradGradGradGradGradGradGradGradGradGradGradGrad
 Berny optimization.
 Internal  Forces:  Max     0.000165602 RMS     0.000095758
 Search for a local minimum.
 Step number   1 out of a maximum of    2
 All quantities printed in internal units (Hartrees-Bohrs-Radians)
 Second derivative matrix not updated -- analytic derivatives used.
 The second derivative matrix:
                          R1        R2        R3        A1        A2
           R1           0.32767
           R2           0.08631   0.50331
           R3          -0.00052   0.02739   0.48084
           A1           0.11730   0.07360  -0.02583   0.55226
           A2           0.00230   0.03567   0.02258  -0.02930   0.17640
           D1           0.00000  -0.00004   0.00001  -0.00001  -0.00002
                          D1
           D1           0.05260
 ITU=  0
     Eigenvalues ---    0.05260   0.16791   0.26537   0.42754   0.51183
     Eigenvalues ---    0.66784
 Angle between quadratic step and forces=  48.01 degrees.
 Linear search not attempted -- first point.
 Iteration  1 RMS(Cart)=  0.00039424 RMS(Int)=  0.00000019
 Iteration  2 RMS(Cart)=  0.00000019 RMS(Int)=  0.00000000
 Variable       Old X    -DE/DX   Delta X   Delta X   Delta X     New X
                                 (Linear)    (Quad)   (Total)
    R1        2.53259   0.00003   0.00000   0.00007   0.00007   2.53266
    R2        2.43638  -0.00015   0.00000  -0.00038  -0.00038   2.43600
    R3        1.84150  -0.00003   0.00000  -0.00004  -0.00004   1.84146
    A1        1.86609   0.00017   0.00000   0.00035   0.00035   1.86644
    A2        1.95993   0.00002   0.00000   0.00025   0.00025   1.96018
    D1        0.00086  -0.00005   0.00000  -0.00086  -0.00086   0.00000
         Item               Value     Threshold  Converged?
 Maximum Force            0.000166     0.000450     YES
 RMS     Force            0.000096     0.000300     YES
 Maximum Displacement     0.000430     0.001800     YES
 RMS     Displacement     0.000394     0.001200     YES
 Predicted change in Energy=-8.106228D-08
 Optimization completed.
    -- Stationary point found.
                           ----------------------------
                           !   Optimized Parameters   !
                           ! (Angstroms and Degrees)  !
 --------------------------                            --------------------------
 ! Name  Definition              Value          Derivative Info.                !
 --------------------------------------------------------------------------------
 ! R1    R(1,2)                  1.3402         -DE/DX =    0.0                 !
 ! R2    R(1,4)                  1.2893         -DE/DX =   -0.0002              !
 ! R3    R(3,4)                  0.9745         -DE/DX =    0.0                 !
 ! A1    A(2,1,4)              106.9192         -DE/DX =    0.0002              !
 ! A2    A(1,4,3)              112.2955         -DE/DX =    0.0                 !
 ! D1    D(2,1,4,3)              0.0491         -DE/DX =    0.0                 !
 --------------------------------------------------------------------------------
 GradGradGradGradGradGradGradGradGradGradGradGradGradGradGradGradGradGrad


 ----------------------------------------------------------------------

 Electric dipole moment (input orientation):
 (Debye = 10**-18 statcoulomb cm , SI units = C m)
                  (au)            (Debye)         (10**-30 SI)
   Tot        0.103244D+01      0.262419D+01      0.875337D+01
   x         -0.710823D+00     -0.180673D+01     -0.602661D+01
   y         -0.621947D+00     -0.158083D+01     -0.527309D+01
   z          0.416939D+00      0.105975D+01      0.353496D+01

 Dipole polarizability, Alpha (input orientation).
 (esu units = cm**3 , SI units = C**2 m**2 J**-1)
 Alpha(0;0):
               (au)            (10**-24 esu)      (10**-40 SI)
   iso        0.197193D+02      0.292210D+01      0.325127D+01
   aniso      0.623612D+01      0.924098D+00      0.102820D+01
   xx         0.200974D+02      0.297813D+01      0.331362D+01
   yx        -0.398841D-01     -0.591021D-02     -0.657600D-02
   yy         0.221939D+02      0.328879D+01      0.365928D+01
   zx        -0.130710D+01     -0.193692D+00     -0.215512D+00
   zy        -0.201262D+01     -0.298239D+00     -0.331836D+00
   zz         0.168665D+02      0.249936D+01      0.278092D+01

 ----------------------------------------------------------------------

 Dipole orientation:
     6         -2.96158214          1.11071280          2.04708281
     9         -4.55554713          2.81729076          3.02731461
     1         -2.48938667          0.60620232          5.54762940
     8         -1.89845347         -0.02540037          3.92189683

 Electric dipole moment (dipole orientation):
 (Debye = 10**-18 statcoulomb cm , SI units = C m)
                  (au)            (Debye)         (10**-30 SI)
   Tot        0.103244D+01      0.262419D+01      0.875337D+01
   x          0.000000D+00      0.000000D+00      0.000000D+00
   y          0.000000D+00      0.000000D+00      0.000000D+00
   z          0.103244D+01      0.262419D+01      0.875337D+01

 Dipole polarizability, Alpha (dipole orientation).
 (esu units = cm**3 , SI units = C**2 m**2 J**-1)
 Alpha(0;0):
               (au)            (10**-24 esu)      (10**-40 SI)
   iso        0.197193D+02      0.292210D+01      0.325127D+01
   aniso      0.623612D+01      0.924098D+00      0.102820D+01
   xx         0.183912D+02      0.272529D+01      0.303229D+01
   yx        -0.274728D+01     -0.407105D+00     -0.452965D+00
   yy         0.187624D+02      0.278029D+01      0.309350D+01
   zx         0.827434D+00      0.122613D+00      0.136425D+00
   zy        -0.883414D+00     -0.130909D+00     -0.145655D+00
   zz         0.220043D+02      0.326070D+01      0.362802D+01

 ----------------------------------------------------------------------
 1\1\GINC-CCLEARTI\Freq\UwB97XD\6-311+G(2d,2p)\C1H1F1O1\RAPPE\17-Oct-20
 25\0\\#N Geom=AllCheck Guess=TCheck SCRF=Check GenChk UwB97XD/6-311+G(
 2d,2p) Freq\\Title Card Required\\0,1\C,-1.9574920494,0.2462728584,-0.
 2874636325\F,-3.140108408,0.852630656,-0.114697659\H,-2.988481085,-1.1
 414162183,0.4718222025\O,-2.0903074575,-0.9633832961,0.138353089\\Vers
 ion=EM64M-G16RevA.03\State=1-A\HF=-213.7043034\S2=0.\S2-1=0.\S2A=0.\RM
 SD=1.273e-09\RMSF=8.415e-05\ZeroPoint=0.019989\Thermal=0.0230955\Dipol
 e=-0.7108233,-0.6219469,0.4169393\DipoleDeriv=0.8832202,-0.4924517,-0.
 1761701,-0.4010468,1.3246541,-0.3585988,-0.2051426,-0.3304099,-0.02442
 87,-0.9333515,0.7858269,0.0346565,0.227893,-0.5353584,0.0956535,0.2120
 335,-0.0767744,-0.0540745,0.1803467,-0.0638438,0.0897278,0.041286,0.30
 20035,0.0201737,0.0562521,0.0525152,0.3711977,-0.1302154,-0.2295314,0.
 0517858,0.1318678,-1.0912992,0.2427716,-0.0631431,0.3546691,-0.2926945
 \Polar=20.0974244,-0.0398841,22.1938714,-1.3071007,-2.0126173,16.86654
 44\Quadrupole=-0.877832,0.2393289,0.6385031,1.1169821,0.1014421,-0.230
 2014\PG=C01 [X(C1H1F1O1)]\NImag=0\\0.36325163,0.03532888,0.46203890,-0
 .11531420,-0.14941571,0.10961235,-0.23860113,0.06647611,0.04785429,0.2
 3730221,0.03923685,-0.08639064,0.01044521,-0.12937686,0.16436883,0.056
 52055,0.00201623,-0.03350086,-0.02943138,-0.00942646,0.02108109,-0.008
 33308,-0.02279565,0.01653425,0.00117026,0.00584302,-0.00614486,0.40759
 200,-0.04901232,-0.01722710,0.02751930,0.00282873,0.00497987,-0.006501
 25,0.07944195,0.06768577,0.02487523,0.01944318,0.00787371,-0.00518920,
 -0.00742674,-0.00875113,-0.14532485,-0.04025857,0.07571914,-0.11631742
 ,-0.07900933,0.05092566,0.00012866,0.08429699,-0.02094431,-0.40042919,
 -0.03325836,0.12563882,0.51661795,-0.02555341,-0.35842116,0.11145119,0
 .06007202,-0.08295807,0.01391148,-0.06248932,-0.05543855,0.02824213,0.
 02797071,0.49681778,0.03391842,0.12795630,-0.08398520,-0.01323371,0.00
 640799,0.02117090,0.13493546,0.01924052,-0.07484172,-0.15562017,-0.153
 60481,0.13765602\\0.00005976,0.00019119,-0.00011410,0.00000985,-0.0000
 6431,0.00003776,-0.00004259,-0.00000386,-0.00001456,-0.00002702,-0.000
 12303,0.00009090\\\@


 REPARTEE - WHAT YOU THINK OF AFTER YOU BECOME A DEPARTEE.
 Job cpu time:       0 days  0 hours 12 minutes 15.0 seconds.
 Elapsed time:       0 days  0 hours  0 minutes 31.1 seconds.
 File lengths (MBytes):  RWF=     12 Int=      0 D2E=      0 Chk=      2 Scr=      1
 Normal termination of Gaussian 16 at Fri Oct 17 02:47:04 2025.
