 Entering Gaussian System, Link 0=/applications/g16/g16/g16
 Initial command:
 /applications/g16/g16/l1.exe "/scratch/g98/Gau-28744.inp" -scrdir="/scratch/g98/"
 Entering Link 1 = /applications/g16/g16/l1.exe PID=     28745.
  
 Copyright (c) 1988,1990,1992,1993,1995,1998,2003,2009,2016,
            Gaussian, Inc.  All Rights Reserved.
  
 This is part of the Gaussian(R) 16 program.  It is based on
 the Gaussian(R) 09 system (copyright 2009, Gaussian, Inc.),
 the Gaussian(R) 03 system (copyright 2003, Gaussian, Inc.),
 the Gaussian(R) 98 system (copyright 1998, Gaussian, Inc.),
 the Gaussian(R) 94 system (copyright 1995, Gaussian, Inc.),
 the Gaussian 92(TM) system (copyright 1992, Gaussian, Inc.),
 the Gaussian 90(TM) system (copyright 1990, Gaussian, Inc.),
 the Gaussian 88(TM) system (copyright 1988, Gaussian, Inc.),
 the Gaussian 86(TM) system (copyright 1986, Carnegie Mellon
 University), and the Gaussian 82(TM) system (copyright 1983,
 Carnegie Mellon University). Gaussian is a federally registered
 trademark of Gaussian, Inc.
  
 This software contains proprietary and confidential information,
 including trade secrets, belonging to Gaussian, Inc.
  
 This software is provided under written license and may be
 used, copied, transmitted, or stored only in accord with that
 written license.
  
 The following legend is applicable only to US Government
 contracts under FAR:
  
                    RESTRICTED RIGHTS LEGEND
  
 Use, reproduction and disclosure by the US Government is
 subject to restrictions as set forth in subparagraphs (a)
 and (c) of the Commercial Computer Software - Restricted
 Rights clause in FAR 52.227-19.
  
 Gaussian, Inc.
 340 Quinnipiac St., Bldg. 40, Wallingford CT 06492
  
  
 ---------------------------------------------------------------
 Warning -- This program may not be used in any manner that
 competes with the business of Gaussian, Inc. or will provide
 assistance to any competitor of Gaussian, Inc.  The licensee
 of this program is prohibited from giving any competitor of
 Gaussian, Inc. access to this program.  By using this program,
 the user acknowledges that Gaussian, Inc. is engaged in the
 business of creating and licensing software in the field of
 computational chemistry and represents and warrants to the
 licensee that it is not a competitor of Gaussian, Inc. and that
 it will not use this program in any manner prohibited above.
 ---------------------------------------------------------------
  

 Cite this work as:
 Gaussian 16, Revision A.03,
 M. J. Frisch, G. W. Trucks, H. B. Schlegel, G. E. Scuseria, 
 M. A. Robb, J. R. Cheeseman, G. Scalmani, V. Barone, 
 G. A. Petersson, H. Nakatsuji, X. Li, M. Caricato, A. V. Marenich, 
 J. Bloino, B. G. Janesko, R. Gomperts, B. Mennucci, H. P. Hratchian, 
 J. V. Ortiz, A. F. Izmaylov, J. L. Sonnenberg, D. Williams-Young, 
 F. Ding, F. Lipparini, F. Egidi, J. Goings, B. Peng, A. Petrone, 
 T. Henderson, D. Ranasinghe, V. G. Zakrzewski, J. Gao, N. Rega, 
 G. Zheng, W. Liang, M. Hada, M. Ehara, K. Toyota, R. Fukuda, 
 J. Hasegawa, M. Ishida, T. Nakajima, Y. Honda, O. Kitao, H. Nakai, 
 T. Vreven, K. Throssell, J. A. Montgomery, Jr., J. E. Peralta, 
 F. Ogliaro, M. J. Bearpark, J. J. Heyd, E. N. Brothers, K. N. Kudin, 
 V. N. Staroverov, T. A. Keith, R. Kobayashi, J. Normand, 
 K. Raghavachari, A. P. Rendell, J. C. Burant, S. S. Iyengar, 
 J. Tomasi, M. Cossi, J. M. Millam, M. Klene, C. Adamo, R. Cammi, 
 J. W. Ochterski, R. L. Martin, K. Morokuma, O. Farkas, 
 J. B. Foresman, and D. J. Fox, Gaussian, Inc., Wallingford CT, 2016.
 
 ******************************************
 Gaussian 16:  EM64M-G16RevA.03 25-Dec-2016
                16-Oct-2025 
 ******************************************
 %mem=48GB
 %nprocshared=24
 Will use up to   24 processors via shared memory.
 %chk=cfoh.chk
 -----------------------------------------------------------
 # opt freq uwb97xd/6-311+g(2d,2p) geom=connectivity scf=xqc
 -----------------------------------------------------------
 1/18=20,19=15,26=3,38=1,57=2/1,3;
 2/9=110,12=2,17=6,18=5,40=1/2;
 3/5=4,6=6,7=212,11=2,25=1,30=1,71=1,74=-58,116=2/1,2,3;
 4//1;
 5/5=2,8=3,13=1,38=5/2,8;
 6/7=2,8=2,9=2,10=2,28=1/1;
 7//1,2,3,16;
 1/18=20,19=15,26=3/3(2);
 2/9=110/2;
 99//99;
 2/9=110/2;
 3/5=4,6=6,7=212,11=2,25=1,30=1,71=1,74=-58,116=2/1,2,3;
 4/5=5,16=3,69=1/1;
 5/5=2,8=3,13=1,38=5/2,8;
 7//1,2,3,16;
 1/18=20,19=15,26=3/3(-5);
 2/9=110/2;
 6/7=2,8=2,9=2,10=2,19=2,28=1/1;
 99/9=1/99;
 -------------------
 Title Card Required
 -------------------
 Symbolic Z-matrix:
 Charge =  0 Multiplicity = 1
 C                     1.57631  -0.04343  -0.47246 
 F                     2.14012  -1.09555   0.07336 
 H                     1.6544    1.76827  -0.20577 
 O                     2.06175   0.97973   0.16653 
 

 GradGradGradGradGradGradGradGradGradGradGradGradGradGradGradGradGradGrad
 Berny optimization.
 Initialization pass.
                           ----------------------------
                           !    Initial Parameters    !
                           ! (Angstroms and Degrees)  !
 --------------------------                            --------------------------
 ! Name  Definition              Value          Derivative Info.                !
 --------------------------------------------------------------------------------
 ! R1    R(1,2)                  1.3125         estimate D2E/DX2                !
 ! R2    R(1,4)                  1.3003         estimate D2E/DX2                !
 ! R3    R(3,4)                  0.9625         estimate D2E/DX2                !
 ! A1    A(2,1,4)              105.4277         estimate D2E/DX2                !
 ! A2    A(1,4,3)              107.252          estimate D2E/DX2                !
 ! D1    D(2,1,4,3)           -179.1939         estimate D2E/DX2                !
 --------------------------------------------------------------------------------
 Trust Radius=3.00D-01 FncErr=1.00D-07 GrdErr=1.00D-06 EigMax=2.50D+02 EigMin=1.00D-04
 Number of steps in this run=     20 maximum allowed number of steps=    100.
 GradGradGradGradGradGradGradGradGradGradGradGradGradGradGradGradGradGrad

                          Input orientation:                          
 ---------------------------------------------------------------------
 Center     Atomic      Atomic             Coordinates (Angstroms)
 Number     Number       Type             X           Y           Z
 ---------------------------------------------------------------------
      1          6           0        1.576309   -0.043429   -0.472456
      2          9           0        2.140120   -1.095554    0.073356
      3          1           0        1.654404    1.768269   -0.205765
      4          8           0        2.061753    0.979726    0.166531
 ---------------------------------------------------------------------
                    Distance matrix (angstroms):
                    1          2          3          4
     1  C    0.000000
     2  F    1.312540   0.000000
     3  H    1.832886   2.918101   0.000000
     4  O    1.300310   2.078848   0.962464   0.000000
 Stoichiometry    CHFO
 Framework group  C1[X(CHFO)]
 Deg. of freedom     6
 Full point group                 C1      NOp   1
 Largest Abelian subgroup         C1      NOp   1
 Largest concise Abelian subgroup C1      NOp   1
                         Standard orientation:                         
 ---------------------------------------------------------------------
 Center     Atomic      Atomic             Coordinates (Angstroms)
 Number     Number       Type             X           Y           Z
 ---------------------------------------------------------------------
      1          6           0       -0.000708    0.571044   -0.001189
      2          9           0       -1.083120   -0.171345    0.000821
      3          1           0        1.804124    0.251789    0.010167
      4          8           0        0.993526   -0.266993   -0.001302
 ---------------------------------------------------------------------
 Rotational constants (GHZ):          89.1463672          12.2703793          10.7858584
 Standard basis: 6-311+G(2d,2p) (5D, 7F)
 There are    96 symmetry adapted cartesian basis functions of A   symmetry.
 There are    90 symmetry adapted basis functions of A   symmetry.
    90 basis functions,   137 primitive gaussians,    96 cartesian basis functions
    12 alpha electrons       12 beta electrons
       nuclear repulsion energy        67.3960965154 Hartrees.
 NAtoms=    4 NActive=    4 NUniq=    4 SFac= 1.00D+00 NAtFMM=   60 NAOKFM=F Big=F
 Integral buffers will be    131072 words long.
 Raffenetti 2 integral format.
 Two-electron integral symmetry is turned on.
 Nuclear repulsion after empirical dispersion term =       67.3958826792 Hartrees.
 One-electron integrals computed using PRISM.
 NBasis=    90 RedAO= T EigKep=  1.40D-03  NBF=    90
 NBsUse=    90 1.00D-06 EigRej= -1.00D+00 NBFU=    90
 ExpMin= 4.38D-02 ExpMax= 1.14D+04 ExpMxC= 1.72D+03 IAcc=3 IRadAn=         5 AccDes= 0.00D+00
 Harris functional with IExCor= 4639 and IRadAn=       5 diagonalized for initial guess.
 HarFok:  IExCor= 4639 AccDes= 0.00D+00 IRadAn=         5 IDoV= 1 UseB2=F ITyADJ=14
 ICtDFT=  3500011 ScaDFX=  1.000000  1.000000  1.000000  1.000000
 FoFCou: FMM=F IPFlag=           0 FMFlag=      100000 FMFlg1=           0
         NFxFlg=           0 DoJE=T BraDBF=F KetDBF=T FulRan=T
         wScrn=  0.000000 ICntrl=       500 IOpCl=  0 I1Cent=   200000004 NGrid=           0
         NMat0=    1 NMatS0=      1 NMatT0=    0 NMatD0=    1 NMtDS0=    0 NMtDT0=    0
 Petite list used in FoFCou.
 Initial guess <Sx>= 0.0000 <Sy>= 0.0000 <Sz>= 0.0000 <S**2>= 0.0000 S= 0.0000
 Keep R1 and R2 ints in memory in canonical form, NReq=55649328.
 Requested convergence on RMS density matrix=1.00D-08 within  32 cycles.
 Requested convergence on MAX density matrix=1.00D-06.
 Requested convergence on             energy=1.00D-06.
 No special actions if energy rises.
 SCF Done:  E(UwB97XD) =  -213.706803451     A.U. after   13 cycles
            NFock= 13  Conv=0.21D-08     -V/T= 2.0026
 <Sx>= 0.0000 <Sy>= 0.0000 <Sz>= 0.0000 <S**2>=-0.0000 S=-0.0000
 <L.S>= 0.000000000000E+00
 Annihilation of the first spin contaminant:
 S**2 before annihilation    -0.0000,   after    -0.0000
 QCSCF skips out because SCF is already converged.

 **********************************************************************

            Population analysis using the SCF density.

 **********************************************************************

 Orbital symmetries:
 Alpha Orbitals:
       Occupied  (A) (A) (A) (A) (A) (A) (A) (A) (A) (A) (A) (A)
       Virtual   (A) (A) (A) (A) (A) (A) (A) (A) (A) (A) (A) (A)
                 (A) (A) (A) (A) (A) (A) (A) (A) (A) (A) (A) (A)
                 (A) (A) (A) (A) (A) (A) (A) (A) (A) (A) (A) (A)
                 (A) (A) (A) (A) (A) (A) (A) (A) (A) (A) (A) (A)
                 (A) (A) (A) (A) (A) (A) (A) (A) (A) (A) (A) (A)
                 (A) (A) (A) (A) (A) (A) (A) (A) (A) (A) (A) (A)
                 (A) (A) (A) (A) (A) (A)
 Beta  Orbitals:
       Occupied  (A) (A) (A) (A) (A) (A) (A) (A) (A) (A) (A) (A)
       Virtual   (A) (A) (A) (A) (A) (A) (A) (A) (A) (A) (A) (A)
                 (A) (A) (A) (A) (A) (A) (A) (A) (A) (A) (A) (A)
                 (A) (A) (A) (A) (A) (A) (A) (A) (A) (A) (A) (A)
                 (A) (A) (A) (A) (A) (A) (A) (A) (A) (A) (A) (A)
                 (A) (A) (A) (A) (A) (A) (A) (A) (A) (A) (A) (A)
                 (A) (A) (A) (A) (A) (A) (A) (A) (A) (A) (A) (A)
                 (A) (A) (A) (A) (A) (A)
 The electronic state is 1-A.
 Alpha  occ. eigenvalues --  -24.85496 -19.34842 -10.44029  -1.38655  -1.23492
 Alpha  occ. eigenvalues --   -0.80024  -0.67324  -0.61487  -0.60789  -0.54253
 Alpha  occ. eigenvalues --   -0.50740  -0.35934
 Alpha virt. eigenvalues --    0.02434   0.06219   0.10368   0.11830   0.11853
 Alpha virt. eigenvalues --    0.18618   0.22424   0.26075   0.27602   0.28716
 Alpha virt. eigenvalues --    0.31356   0.33858   0.34155   0.39437   0.41091
 Alpha virt. eigenvalues --    0.47171   0.52959   0.58966   0.60470   0.66175
 Alpha virt. eigenvalues --    0.70898   0.84954   0.85320   0.87337   0.91308
 Alpha virt. eigenvalues --    0.92588   1.01919   1.10469   1.16800   1.26815
 Alpha virt. eigenvalues --    1.28782   1.39726   1.40371   1.44606   1.50454
 Alpha virt. eigenvalues --    1.53957   1.80041   1.84583   1.90385   2.00059
 Alpha virt. eigenvalues --    2.13581   2.15353   2.26249   2.30822   2.34552
 Alpha virt. eigenvalues --    2.47464   2.77789   2.80036   2.88717   3.20319
 Alpha virt. eigenvalues --    3.34428   3.38009   3.41070   3.46562   3.59222
 Alpha virt. eigenvalues --    3.79446   4.01640   4.07908   4.19265   5.04043
 Alpha virt. eigenvalues --    5.55014   6.06650   6.36590   6.41731   6.73406
 Alpha virt. eigenvalues --    6.88976   6.95987   7.07241   7.20023   7.43807
 Alpha virt. eigenvalues --    9.12124   9.14910   9.30551   9.40107   9.75043
 Alpha virt. eigenvalues --   23.99767  49.96633  66.90410
  Beta  occ. eigenvalues --  -24.85496 -19.34842 -10.44029  -1.38655  -1.23492
  Beta  occ. eigenvalues --   -0.80024  -0.67324  -0.61487  -0.60789  -0.54253
  Beta  occ. eigenvalues --   -0.50740  -0.35934
  Beta virt. eigenvalues --    0.02434   0.06219   0.10368   0.11830   0.11853
  Beta virt. eigenvalues --    0.18618   0.22424   0.26075   0.27602   0.28716
  Beta virt. eigenvalues --    0.31356   0.33858   0.34155   0.39437   0.41091
  Beta virt. eigenvalues --    0.47171   0.52959   0.58966   0.60470   0.66175
  Beta virt. eigenvalues --    0.70898   0.84954   0.85320   0.87337   0.91308
  Beta virt. eigenvalues --    0.92588   1.01919   1.10469   1.16800   1.26815
  Beta virt. eigenvalues --    1.28782   1.39726   1.40371   1.44606   1.50454
  Beta virt. eigenvalues --    1.53957   1.80041   1.84583   1.90385   2.00059
  Beta virt. eigenvalues --    2.13581   2.15353   2.26249   2.30822   2.34552
  Beta virt. eigenvalues --    2.47464   2.77789   2.80036   2.88717   3.20319
  Beta virt. eigenvalues --    3.34428   3.38009   3.41070   3.46562   3.59222
  Beta virt. eigenvalues --    3.79446   4.01640   4.07908   4.19265   5.04043
  Beta virt. eigenvalues --    5.55014   6.06650   6.36590   6.41731   6.73406
  Beta virt. eigenvalues --    6.88976   6.95987   7.07241   7.20023   7.43807
  Beta virt. eigenvalues --    9.12124   9.14910   9.30551   9.40107   9.75043
  Beta virt. eigenvalues --   23.99767  49.96633  66.90410
          Condensed to atoms (all electrons):
               1          2          3          4
     1  C    5.903512   0.005493  -0.021220   0.039290
     2  F    0.005493   9.150658   0.007027   0.004708
     3  H   -0.021220   0.007027   0.483381   0.243556
     4  O    0.039290   0.004708   0.243556   7.904742
          Atomic-Atomic Spin Densities.
               1          2          3          4
     1  C    0.000000   0.000000   0.000000   0.000000
     2  F    0.000000   0.000000   0.000000   0.000000
     3  H    0.000000   0.000000   0.000000   0.000000
     4  O    0.000000   0.000000   0.000000   0.000000
 Mulliken charges and spin densities:
               1          2
     1  C    0.072925   0.000000
     2  F   -0.167886   0.000000
     3  H    0.287256   0.000000
     4  O   -0.192296   0.000000
 Sum of Mulliken charges =  -0.00000   0.00000
 Mulliken charges and spin densities with hydrogens summed into heavy atoms:
               1          2
     1  C    0.072925   0.000000
     2  F   -0.167886   0.000000
     4  O    0.094960   0.000000
 Electronic spatial extent (au):  <R**2>=            123.3195
 Charge=             -0.0000 electrons
 Dipole moment (field-independent basis, Debye):
    X=              2.3416    Y=             -0.1755    Z=              0.0168  Tot=              2.3482
 Quadrupole moment (field-independent basis, Debye-Ang):
   XX=            -12.1878   YY=            -19.4576   ZZ=            -16.2350
   XY=              1.3904   XZ=              0.0445   YZ=              0.0087
 Traceless Quadrupole moment (field-independent basis, Debye-Ang):
   XX=              3.7723   YY=             -3.4975   ZZ=             -0.2748
   XY=              1.3904   XZ=              0.0445   YZ=              0.0087
 Octapole moment (field-independent basis, Debye-Ang**2):
  XXX=              9.1444  YYY=             -8.6348  ZZZ=              0.0111  XYY=             -1.1546
  XXY=              1.0965  XXZ=              0.0900  XZZ=             -1.2183  YZZ=             -1.6178
  YYZ=              0.0070  XYZ=              0.0129
 Hexadecapole moment (field-independent basis, Debye-Ang**3):
 XXXX=            -64.5766 YYYY=            -40.8190 ZZZZ=            -14.4600 XXXY=              5.4786
 XXXZ=              0.1685 YYYX=              1.1839 YYYZ=              0.0122 ZZZX=              0.0153
 ZZZY=              0.0066 XXYY=            -19.9136 XXZZ=            -17.1565 YYZZ=             -8.5858
 XXYZ=              0.0242 YYXZ=              0.0073 ZZXY=              0.3730
 N-N= 6.739588267919D+01 E-N=-6.407429506837D+02  KE= 2.131607708919D+02
                          Isotropic Fermi Contact Couplings
        Atom                 a.u.       MegaHertz       Gauss      10(-4) cm-1
     1  C(13)              0.00000       0.00000       0.00000       0.00000
     2  F(19)              0.00000       0.00000       0.00000       0.00000
     3  H(1)               0.00000       0.00000       0.00000       0.00000
     4  O(17)              0.00000      -0.00000      -0.00000      -0.00000
 --------------------------------------------------------
       Center         ----  Spin Dipole Couplings  ----
                      3XX-RR        3YY-RR        3ZZ-RR
 --------------------------------------------------------
     1   Atom        0.000000      0.000000      0.000000
     2   Atom        0.000000      0.000000      0.000000
     3   Atom        0.000000      0.000000      0.000000
     4   Atom        0.000000      0.000000      0.000000
 --------------------------------------------------------
                        XY            XZ            YZ
 --------------------------------------------------------
     1   Atom        0.000000      0.000000      0.000000
     2   Atom        0.000000      0.000000      0.000000
     3   Atom        0.000000      0.000000      0.000000
     4   Atom        0.000000      0.000000      0.000000
 --------------------------------------------------------


 ---------------------------------------------------------------------------------
              Anisotropic Spin Dipole Couplings in Principal Axis System
 ---------------------------------------------------------------------------------

       Atom             a.u.   MegaHertz   Gauss  10(-4) cm-1        Axes

              Baa     0.0000     0.000     0.000     0.000  1.0000  0.0000  0.0000
     1 C(13)  Bbb     0.0000     0.000     0.000     0.000  0.0000  1.0000  0.0000
              Bcc     0.0000     0.000     0.000     0.000  0.0000  0.0000  1.0000
 
              Baa     0.0000     0.000     0.000     0.000  1.0000  0.0000  0.0000
     2 F(19)  Bbb     0.0000     0.000     0.000     0.000  0.0000  1.0000  0.0000
              Bcc     0.0000     0.000     0.000     0.000  0.0000  0.0000  1.0000
 
              Baa     0.0000     0.000     0.000     0.000  1.0000  0.0000  0.0000
     3 H(1)   Bbb     0.0000     0.000     0.000     0.000  0.0000  1.0000  0.0000
              Bcc     0.0000     0.000     0.000     0.000  0.0000  0.0000  1.0000
 
              Baa     0.0000    -0.000    -0.000    -0.000  1.0000  0.0000  0.0000
     4 O(17)  Bbb     0.0000    -0.000    -0.000    -0.000  0.0000  1.0000  0.0000
              Bcc     0.0000    -0.000    -0.000    -0.000  0.0000  0.0000  1.0000
 

 ---------------------------------------------------------------------------------

 Calling FoFJK, ICntrl=      2127 FMM=F ISym2X=0 I1Cent= 0 IOpClX= 1 NMat=1 NMatS=1 NMatT=0.
 ***** Axes restored to original set *****
 -------------------------------------------------------------------
 Center     Atomic                   Forces (Hartrees/Bohr)
 Number     Number              X              Y              Z
 -------------------------------------------------------------------
      1        6          -0.003636863    0.001481000   -0.003486194
      2        9           0.002001613    0.000737825    0.001825679
      3        1           0.000338222   -0.001245694   -0.000433333
      4        8           0.001297028   -0.000973131    0.002093847
 -------------------------------------------------------------------
 Cartesian Forces:  Max     0.003636863 RMS     0.001921913

 GradGradGradGradGradGradGradGradGradGradGradGradGradGradGradGradGradGrad
 Berny optimization.
 FormGI is forming the generalized inverse of G from B-inverse, IUseBI=4.
 Internal  Forces:  Max     0.006416587 RMS     0.002771533
 Search for a local minimum.
 Step number   1 out of a maximum of   20
 All quantities printed in internal units (Hartrees-Bohrs-Radians)
 Mixed Optimization -- RFO/linear search
 Second derivative matrix not updated -- first step.
 The second derivative matrix:
                          R1        R2        R3        A1        A2
           R1           0.63828
           R2           0.00000   0.67107
           R3           0.00000   0.00000   0.54947
           A1           0.00000   0.00000   0.00000   0.25000
           A2           0.00000   0.00000   0.00000   0.00000   0.16000
           D1           0.00000   0.00000   0.00000   0.00000   0.00000
                          D1
           D1           0.03010
 ITU=  0
     Eigenvalues ---    0.03010   0.16000   0.25000   0.54947   0.63828
     Eigenvalues ---    0.67107
 RFO step:  Lambda=-2.02359145D-04 EMin= 3.01048634D-02
 Linear search not attempted -- first point.
 Iteration  1 RMS(Cart)=  0.01879423 RMS(Int)=  0.00019074
 Iteration  2 RMS(Cart)=  0.00018944 RMS(Int)=  0.00000001
 Iteration  3 RMS(Cart)=  0.00000001 RMS(Int)=  0.00000000
 Variable       Old X    -DE/DX   Delta X   Delta X   Delta X     New X
                                 (Linear)    (Quad)   (Total)
    R1        2.48034   0.00103   0.00000   0.00161   0.00161   2.48195
    R2        2.45723  -0.00032   0.00000  -0.00047  -0.00047   2.45676
    R3        1.81879  -0.00100   0.00000  -0.00182  -0.00182   1.81698
    A1        1.84006  -0.00642   0.00000  -0.02565  -0.02565   1.81441
    A2        1.87190  -0.00146   0.00000  -0.00912  -0.00912   1.86278
    D1       -3.12752  -0.00080   0.00000  -0.02624  -0.02624   3.12943
         Item               Value     Threshold  Converged?
 Maximum Force            0.006417     0.000450     NO 
 RMS     Force            0.002772     0.000300     NO 
 Maximum Displacement     0.024289     0.001800     NO 
 RMS     Displacement     0.018907     0.001200     NO 
 Predicted change in Energy=-1.013250D-04
 GradGradGradGradGradGradGradGradGradGradGradGradGradGradGradGradGradGrad

                          Input orientation:                          
 ---------------------------------------------------------------------
 Center     Atomic      Atomic             Coordinates (Angstroms)
 Number     Number       Type             X           Y           Z
 ---------------------------------------------------------------------
      1          6           0        1.565405   -0.041864   -0.476357
      2          9           0        2.147348   -1.082701    0.074090
      3          1           0        1.662953    1.761766   -0.208612
      4          8           0        2.056880    0.971811    0.172546
 ---------------------------------------------------------------------
                    Distance matrix (angstroms):
                    1          2          3          4
     1  C    0.000000
     2  F    1.313390   0.000000
     3  H    1.826002   2.899232   0.000000
     4  O    1.300061   2.058858   0.961503   0.000000
 Stoichiometry    CHFO
 Framework group  C1[X(CHFO)]
 Deg. of freedom     6
 Full point group                 C1      NOp   1
 Largest Abelian subgroup         C1      NOp   1
 Largest concise Abelian subgroup C1      NOp   1
                         Standard orientation:                         
 ---------------------------------------------------------------------
 Center     Atomic      Atomic             Coordinates (Angstroms)
 Number     Number       Type             X           Y           Z
 ---------------------------------------------------------------------
      1          6           0        0.000613    0.581249    0.001007
      2          9           0       -1.073639   -0.174378   -0.000708
      3          1           0        1.795209    0.244186   -0.008817
      4          8           0        0.982983   -0.270284    0.001143
 ---------------------------------------------------------------------
 Rotational constants (GHZ):          86.3176838          12.4986397          10.9178199
 Standard basis: 6-311+G(2d,2p) (5D, 7F)
 There are    96 symmetry adapted cartesian basis functions of A   symmetry.
 There are    90 symmetry adapted basis functions of A   symmetry.
    90 basis functions,   137 primitive gaussians,    96 cartesian basis functions
    12 alpha electrons       12 beta electrons
       nuclear repulsion energy        67.5852501656 Hartrees.
 NAtoms=    4 NActive=    4 NUniq=    4 SFac= 1.00D+00 NAtFMM=   60 NAOKFM=F Big=F
 Integral buffers will be    131072 words long.
 Raffenetti 2 integral format.
 Two-electron integral symmetry is turned on.
 Nuclear repulsion after empirical dispersion term =       67.5850357998 Hartrees.
 One-electron integrals computed using PRISM.
 NBasis=    90 RedAO= T EigKep=  1.39D-03  NBF=    90
 NBsUse=    90 1.00D-06 EigRej= -1.00D+00 NBFU=    90
 Initial guess from the checkpoint file:  "cfoh.chk"
 B after Tr=    -0.000000    0.000000    0.000000
         Rot=    1.000000   -0.000003   -0.000000    0.000420 Ang=  -0.05 deg.
 Initial guess <Sx>= 0.0000 <Sy>= 0.0000 <Sz>= 0.0000 <S**2>= 0.0000 S= 0.0000
 ExpMin= 4.38D-02 ExpMax= 1.14D+04 ExpMxC= 1.72D+03 IAcc=2 IRadAn=         4 AccDes= 0.00D+00
 Harris functional with IExCor= 4639 and IRadAn=       4 diagonalized for initial guess.
 HarFok:  IExCor= 4639 AccDes= 0.00D+00 IRadAn=         4 IDoV= 1 UseB2=F ITyADJ=14
 ICtDFT=  3500011 ScaDFX=  1.000000  1.000000  1.000000  1.000000
 FoFCou: FMM=F IPFlag=           0 FMFlag=      100000 FMFlg1=           0
         NFxFlg=           0 DoJE=T BraDBF=F KetDBF=T FulRan=T
         wScrn=  0.000000 ICntrl=       500 IOpCl=  0 I1Cent=   200000004 NGrid=           0
         NMat0=    1 NMatS0=      1 NMatT0=    0 NMatD0=    1 NMtDS0=    0 NMtDT0=    0
 Petite list used in FoFCou.
 Keep R1 and R2 ints in memory in canonical form, NReq=55649328.
 Requested convergence on RMS density matrix=1.00D-08 within  32 cycles.
 Requested convergence on MAX density matrix=1.00D-06.
 Requested convergence on             energy=1.00D-06.
 No special actions if energy rises.
 SCF Done:  E(UwB97XD) =  -213.706789589     A.U. after   10 cycles
            NFock= 10  Conv=0.38D-08     -V/T= 2.0025
 <Sx>= 0.0000 <Sy>= 0.0000 <Sz>= 0.0000 <S**2>= 0.0000 S= 0.0000
 <L.S>= 0.000000000000E+00
 Annihilation of the first spin contaminant:
 S**2 before annihilation     0.0000,   after    -0.0000
 QCSCF skips out because SCF is already converged.
 Calling FoFJK, ICntrl=      2127 FMM=F ISym2X=0 I1Cent= 0 IOpClX= 1 NMat=1 NMatS=1 NMatT=0.
 ***** Axes restored to original set *****
 -------------------------------------------------------------------
 Center     Atomic                   Forces (Hartrees/Bohr)
 Number     Number              X              Y              Z
 -------------------------------------------------------------------
      1        6           0.001568472    0.000025755    0.001353549
      2        9          -0.000463670   -0.004419570   -0.000511240
      3        1          -0.000178959    0.000901130    0.000483869
      4        8          -0.000925844    0.003492685   -0.001326177
 -------------------------------------------------------------------
 Cartesian Forces:  Max     0.004419570 RMS     0.001830182

 GradGradGradGradGradGradGradGradGradGradGradGradGradGradGradGradGradGrad
 Berny optimization.
 Using GEDIIS/GDIIS optimizer.
 FormGI is forming the generalized inverse of G from B-inverse, IUseBI=4.
 Internal  Forces:  Max     0.008024539 RMS     0.003724801
 Search for a local minimum.
 Step number   2 out of a maximum of   20
 All quantities printed in internal units (Hartrees-Bohrs-Radians)
 Mixed Optimization -- RFO/linear search
 Update second derivatives using D2CorX and points    2    1
 DE=  1.39D-05 DEPred=-1.01D-04 R=-1.37D-01
 Trust test=-1.37D-01 RLast= 3.79D-02 DXMaxT set to 1.50D-01
 The second derivative matrix:
                          R1        R2        R3        A1        A2
           R1           0.64276
           R2           0.01530   0.68996
           R3           0.01269   0.00923   0.55054
           A1           0.10058   0.08628   0.02192   0.52485
           A2           0.02057   0.01634   0.00315   0.04619   0.16735
           D1           0.01105   0.00873   0.00164   0.02443   0.00387
                          D1
           D1           0.03214
 ITU= -1  0
 Use linear search instead of GDIIS.
     Eigenvalues ---    0.03082   0.16129   0.44926   0.54860   0.65169
     Eigenvalues ---    0.76595
 RFO step:  Lambda=-9.24728924D-06 EMin= 3.08213016D-02
 Quartic linear search produced a step of -0.52975.
 Iteration  1 RMS(Cart)=  0.00963690 RMS(Int)=  0.00004184
 Iteration  2 RMS(Cart)=  0.00003495 RMS(Int)=  0.00000000
 Iteration  3 RMS(Cart)=  0.00000000 RMS(Int)=  0.00000000
 Variable       Old X    -DE/DX   Delta X   Delta X   Delta X     New X
                                 (Linear)    (Quad)   (Total)
    R1        2.48195   0.00308  -0.00085   0.00320   0.00235   2.48429
    R2        2.45676   0.00259   0.00025   0.00154   0.00179   2.45855
    R3        1.81698   0.00062   0.00096  -0.00052   0.00044   1.81742
    A1        1.81441   0.00802   0.01359   0.00018   0.01376   1.82818
    A2        1.86278   0.00133   0.00483  -0.00143   0.00340   1.86618
    D1        3.12943   0.00070   0.01390  -0.00586   0.00804   3.13747
         Item               Value     Threshold  Converged?
 Maximum Force            0.008025     0.000450     NO 
 RMS     Force            0.003725     0.000300     NO 
 Maximum Displacement     0.015206     0.001800     NO 
 RMS     Displacement     0.009623     0.001200     NO 
 Predicted change in Energy=-5.305624D-05
 GradGradGradGradGradGradGradGradGradGradGradGradGradGradGradGradGradGrad

                          Input orientation:                          
 ---------------------------------------------------------------------
 Center     Atomic      Atomic             Coordinates (Angstroms)
 Number     Number       Type             X           Y           Z
 ---------------------------------------------------------------------
      1          6           0        1.570036   -0.042335   -0.473737
      2          9           0        2.144667   -1.090748    0.072966
      3          1           0        1.659513    1.765341   -0.208508
      4          8           0        2.058370    0.976754    0.170945
 ---------------------------------------------------------------------
                    Distance matrix (angstroms):
                    1          2          3          4
     1  C    0.000000
     2  F    1.314631   0.000000
     3  H    1.829220   2.910643   0.000000
     4  O    1.301011   2.071621   0.961738   0.000000
 Stoichiometry    CHFO
 Framework group  C1[X(CHFO)]
 Deg. of freedom     6
 Full point group                 C1      NOp   1
 Largest Abelian subgroup         C1      NOp   1
 Largest concise Abelian subgroup C1      NOp   1
                         Standard orientation:                         
 ---------------------------------------------------------------------
 Center     Atomic      Atomic             Coordinates (Angstroms)
 Number     Number       Type             X           Y           Z
 ---------------------------------------------------------------------
      1          6           0        0.000446    0.576300    0.000346
      2          9           0       -1.079875   -0.172806   -0.000240
      3          1           0        1.800086    0.248689   -0.002986
      4          8           0        0.989515   -0.268905    0.000384
 ---------------------------------------------------------------------
 Rotational constants (GHZ):          87.6507566          12.3527354          10.8268939
 Standard basis: 6-311+G(2d,2p) (5D, 7F)
 There are    96 symmetry adapted cartesian basis functions of A   symmetry.
 There are    90 symmetry adapted basis functions of A   symmetry.
    90 basis functions,   137 primitive gaussians,    96 cartesian basis functions
    12 alpha electrons       12 beta electrons
       nuclear repulsion energy        67.4258721661 Hartrees.
 NAtoms=    4 NActive=    4 NUniq=    4 SFac= 1.00D+00 NAtFMM=   60 NAOKFM=F Big=F
 Integral buffers will be    131072 words long.
 Raffenetti 2 integral format.
 Two-electron integral symmetry is turned on.
 Nuclear repulsion after empirical dispersion term =       67.4256581118 Hartrees.
 One-electron integrals computed using PRISM.
 NBasis=    90 RedAO= T EigKep=  1.40D-03  NBF=    90
 NBsUse=    90 1.00D-06 EigRej= -1.00D+00 NBFU=    90
 Lowest energy guess from the checkpoint file:  "cfoh.chk"
 B after Tr=    -0.000000    0.000000    0.000000
         Rot=    1.000000   -0.000007   -0.000000    0.000266 Ang=  -0.03 deg.
 B after Tr=    -0.000000   -0.000000   -0.000000
         Rot=    1.000000   -0.000015   -0.000002   -0.000153 Ang=  -0.02 deg.
 Initial guess <Sx>= 0.0000 <Sy>= 0.0000 <Sz>= 0.0000 <S**2>=-0.0000 S=-0.0000
 Keep R1 and R2 ints in memory in canonical form, NReq=55649328.
 Requested convergence on RMS density matrix=1.00D-08 within  32 cycles.
 Requested convergence on MAX density matrix=1.00D-06.
 Requested convergence on             energy=1.00D-06.
 No special actions if energy rises.
 SCF Done:  E(UwB97XD) =  -213.706855757     A.U. after    9 cycles
            NFock=  9  Conv=0.26D-08     -V/T= 2.0026
 <Sx>= 0.0000 <Sy>= 0.0000 <Sz>= 0.0000 <S**2>= 0.0000 S= 0.0000
 <L.S>= 0.000000000000E+00
 Annihilation of the first spin contaminant:
 S**2 before annihilation     0.0000,   after    -0.0000
 QCSCF skips out because SCF is already converged.
 Calling FoFJK, ICntrl=      2127 FMM=F ISym2X=0 I1Cent= 0 IOpClX= 1 NMat=1 NMatS=1 NMatT=0.
 ***** Axes restored to original set *****
 -------------------------------------------------------------------
 Center     Atomic                   Forces (Hartrees/Bohr)
 Number     Number              X              Y              Z
 -------------------------------------------------------------------
      1        6          -0.000269415    0.000415373   -0.000404985
      2        9           0.000211548   -0.000386748    0.000348653
      3        1          -0.000138135    0.000058413    0.000052944
      4        8           0.000196002   -0.000087038    0.000003389
 -------------------------------------------------------------------
 Cartesian Forces:  Max     0.000415373 RMS     0.000257604

 GradGradGradGradGradGradGradGradGradGradGradGradGradGradGradGradGradGrad
 Berny optimization.
 Using GEDIIS/GDIIS optimizer.
 FormGI is forming the generalized inverse of G from B-inverse, IUseBI=4.
 Internal  Forces:  Max     0.000543533 RMS     0.000259446
 Search for a local minimum.
 Step number   3 out of a maximum of   20
 All quantities printed in internal units (Hartrees-Bohrs-Radians)
 Mixed Optimization -- En-DIIS/RFO-DIIS
 Update second derivatives using D2CorX and points    2    1    3
 DE= -5.23D-05 DEPred=-5.31D-05 R= 9.86D-01
 TightC=F SS=  1.41D+00  RLast= 2.29D-02 DXNew= 2.5227D-01 6.8692D-02
 Trust test= 9.86D-01 RLast= 2.29D-02 DXMaxT set to 1.50D-01
 The second derivative matrix:
                          R1        R2        R3        A1        A2
           R1           0.60283
           R2           0.00623   0.68869
           R3           0.01594   0.00831   0.55278
           A1           0.13104   0.08940   0.02351   0.50419
           A2           0.02820   0.01666   0.00444   0.04289   0.16726
           D1           0.00922   0.00627   0.00500   0.03129   0.00669
                          D1
           D1           0.03613
 ITU=  1 -1  0
 Use linear search instead of GDIIS.
     Eigenvalues ---    0.03391   0.16151   0.39782   0.54868   0.64760
     Eigenvalues ---    0.76237
 RFO step:  Lambda=-2.52291888D-06 EMin= 3.39149290D-02
 Quartic linear search produced a step of  0.00334.
 Iteration  1 RMS(Cart)=  0.00299632 RMS(Int)=  0.00000874
 Iteration  2 RMS(Cart)=  0.00000751 RMS(Int)=  0.00000000
 Iteration  3 RMS(Cart)=  0.00000000 RMS(Int)=  0.00000000
 Variable       Old X    -DE/DX   Delta X   Delta X   Delta X     New X
                                 (Linear)    (Quad)   (Total)
    R1        2.48429   0.00054   0.00001   0.00103   0.00105   2.48534
    R2        2.45855   0.00003   0.00000   0.00012   0.00012   2.45868
    R3        1.81742   0.00008  -0.00000   0.00011   0.00010   1.81752
    A1        1.82818  -0.00021  -0.00004  -0.00112  -0.00116   1.82702
    A2        1.86618  -0.00000  -0.00002  -0.00017  -0.00018   1.86599
    D1        3.13747   0.00023  -0.00006   0.00729   0.00723  -3.13849
         Item               Value     Threshold  Converged?
 Maximum Force            0.000544     0.000450     NO 
 RMS     Force            0.000259     0.000300     YES
 Maximum Displacement     0.003141     0.001800     NO 
 RMS     Displacement     0.002997     0.001200     NO 
 Predicted change in Energy=-1.261665D-06
 GradGradGradGradGradGradGradGradGradGradGradGradGradGradGradGradGradGrad

                          Input orientation:                          
 ---------------------------------------------------------------------
 Center     Atomic      Atomic             Coordinates (Angstroms)
 Number     Number       Type             X           Y           Z
 ---------------------------------------------------------------------
      1          6           0        1.570760   -0.042132   -0.475175
      2          9           0        2.143760   -1.090673    0.074319
      3          1           0        1.658033    1.765180   -0.206915
      4          8           0        2.060032    0.976636    0.169436
 ---------------------------------------------------------------------
                    Distance matrix (angstroms):
                    1          2          3          4
     1  C    0.000000
     2  F    1.315185   0.000000
     3  H    1.829195   2.910484   0.000000
     4  O    1.301076   2.071189   0.961792   0.000000
 Stoichiometry    CHFO
 Framework group  C1[X(CHFO)]
 Deg. of freedom     6
 Full point group                 C1      NOp   1
 Largest Abelian subgroup         C1      NOp   1
 Largest concise Abelian subgroup C1      NOp   1
                         Standard orientation:                         
 ---------------------------------------------------------------------
 Center     Atomic      Atomic             Coordinates (Angstroms)
 Number     Number       Type             X           Y           Z
 ---------------------------------------------------------------------
      1          6           0        0.000719    0.576895   -0.000260
      2          9           0       -1.079768   -0.172944    0.000180
      3          1           0        1.800108    0.248036    0.002245
      4          8           0        0.989187   -0.269114   -0.000289
 ---------------------------------------------------------------------
 Rotational constants (GHZ):          87.4894782          12.3571775          10.8278373
 Standard basis: 6-311+G(2d,2p) (5D, 7F)
 There are    96 symmetry adapted cartesian basis functions of A   symmetry.
 There are    90 symmetry adapted basis functions of A   symmetry.
    90 basis functions,   137 primitive gaussians,    96 cartesian basis functions
    12 alpha electrons       12 beta electrons
       nuclear repulsion energy        67.4194333673 Hartrees.
 NAtoms=    4 NActive=    4 NUniq=    4 SFac= 1.00D+00 NAtFMM=   60 NAOKFM=F Big=F
 Integral buffers will be    131072 words long.
 Raffenetti 2 integral format.
 Two-electron integral symmetry is turned on.
 Nuclear repulsion after empirical dispersion term =       67.4192193245 Hartrees.
 One-electron integrals computed using PRISM.
 NBasis=    90 RedAO= T EigKep=  1.40D-03  NBF=    90
 NBsUse=    90 1.00D-06 EigRej= -1.00D+00 NBFU=    90
 Initial guess from the checkpoint file:  "cfoh.chk"
 B after Tr=     0.000000    0.000000    0.000000
         Rot=    1.000000    0.000000    0.000000    0.000061 Ang=   0.01 deg.
 Initial guess <Sx>= 0.0000 <Sy>= 0.0000 <Sz>= 0.0000 <S**2>=-0.0000 S=-0.0000
 Keep R1 and R2 ints in memory in canonical form, NReq=55649328.
 Requested convergence on RMS density matrix=1.00D-08 within  32 cycles.
 Requested convergence on MAX density matrix=1.00D-06.
 Requested convergence on             energy=1.00D-06.
 No special actions if energy rises.
 SCF Done:  E(UwB97XD) =  -213.706856316     A.U. after    8 cycles
            NFock=  8  Conv=0.54D-08     -V/T= 2.0026
 <Sx>= 0.0000 <Sy>= 0.0000 <Sz>= 0.0000 <S**2>= 0.0000 S= 0.0000
 <L.S>= 0.000000000000E+00
 Annihilation of the first spin contaminant:
 S**2 before annihilation     0.0000,   after     0.0000
 QCSCF skips out because SCF is already converged.
 Calling FoFJK, ICntrl=      2127 FMM=F ISym2X=0 I1Cent= 0 IOpClX= 1 NMat=1 NMatS=1 NMatT=0.
 ***** Axes restored to original set *****
 -------------------------------------------------------------------
 Center     Atomic                   Forces (Hartrees/Bohr)
 Number     Number              X              Y              Z
 -------------------------------------------------------------------
      1        6          -0.000006163    0.000173344    0.000115140
      2        9           0.000100675   -0.000261332   -0.000021460
      3        1           0.000067504    0.000072430   -0.000070026
      4        8          -0.000162017    0.000015558   -0.000023654
 -------------------------------------------------------------------
 Cartesian Forces:  Max     0.000261332 RMS     0.000116901

 GradGradGradGradGradGradGradGradGradGradGradGradGradGradGradGradGradGrad
 Berny optimization.
 Using GEDIIS/GDIIS optimizer.
 FormGI is forming the generalized inverse of G from B-inverse, IUseBI=4.
 Internal  Forces:  Max     0.000310259 RMS     0.000179352
 Search for a local minimum.
 Step number   4 out of a maximum of   20
 All quantities printed in internal units (Hartrees-Bohrs-Radians)
 Mixed Optimization -- En-DIIS/RFO-DIIS
 Swapping is turned off.
 Update second derivatives using D2CorX and points    2    1    3    4
 DE= -5.59D-07 DEPred=-1.26D-06 R= 4.43D-01
 Trust test= 4.43D-01 RLast= 7.40D-03 DXMaxT set to 1.50D-01
 The second derivative matrix:
                          R1        R2        R3        A1        A2
           R1           0.47665
           R2          -0.00510   0.68907
           R3           0.00188   0.00466   0.55300
           A1           0.14552   0.08041   0.03101   0.55606
           A2           0.02670   0.01399   0.00601   0.05399   0.16971
           D1          -0.00317   0.00769   0.00054  -0.00512  -0.00038
                          D1
           D1           0.05636
 ITU=  0  1 -1  0
     Eigenvalues ---    0.05619   0.16210   0.35591   0.54901   0.62661
     Eigenvalues ---    0.75105
 En-DIIS/RFO-DIIS/Sim-DIIS IScMMF=       -3 using points:     4    3
 RFO step:  Lambda=-7.72046890D-07.
 DidBck=T Rises=F RFO-DIIS coefs:    0.59204    0.40796
 Iteration  1 RMS(Cart)=  0.00128798 RMS(Int)=  0.00000156
 Iteration  2 RMS(Cart)=  0.00000130 RMS(Int)=  0.00000000
 Iteration  3 RMS(Cart)=  0.00000000 RMS(Int)=  0.00000000
 Variable       Old X    -DE/DX   Delta X   Delta X   Delta X     New X
                                 (Linear)    (Quad)   (Total)
    R1        2.48534   0.00024  -0.00043   0.00077   0.00035   2.48568
    R2        2.45868  -0.00001  -0.00005   0.00002  -0.00003   2.45865
    R3        1.81752   0.00006  -0.00004   0.00012   0.00008   1.81760
    A1        1.82702   0.00031   0.00047  -0.00005   0.00042   1.82744
    A2        1.86599   0.00007   0.00008   0.00012   0.00019   1.86619
    D1       -3.13849  -0.00018  -0.00295  -0.00012  -0.00307  -3.14156
         Item               Value     Threshold  Converged?
 Maximum Force            0.000310     0.000450     YES
 RMS     Force            0.000179     0.000300     YES
 Maximum Displacement     0.001409     0.001800     YES
 RMS     Displacement     0.001288     0.001200     NO 
 Predicted change in Energy=-3.860234D-07
 GradGradGradGradGradGradGradGradGradGradGradGradGradGradGradGradGradGrad

                          Input orientation:                          
 ---------------------------------------------------------------------
 Center     Atomic      Atomic             Coordinates (Angstroms)
 Number     Number       Type             X           Y           Z
 ---------------------------------------------------------------------
      1          6           0        1.570369   -0.042156   -0.474654
      2          9           0        2.144252   -1.090966    0.073841
      3          1           0        1.658679    1.765422   -0.207556
      4          8           0        2.059286    0.976712    0.170035
 ---------------------------------------------------------------------
                    Distance matrix (angstroms):
                    1          2          3          4
     1  C    0.000000
     2  F    1.315367   0.000000
     3  H    1.829339   2.910999   0.000000
     4  O    1.301060   2.071658   0.961833   0.000000
 Stoichiometry    CHFO
 Framework group  C1[X(CHFO)]
 Deg. of freedom     6
 Full point group                 C1      NOp   1
 Largest Abelian subgroup         C1      NOp   1
 Largest concise Abelian subgroup C1      NOp   1
                         Standard orientation:                         
 ---------------------------------------------------------------------
 Center     Atomic      Atomic             Coordinates (Angstroms)
 Number     Number       Type             X           Y           Z
 ---------------------------------------------------------------------
      1          6           0        0.000807    0.576765   -0.000003
      2          9           0       -1.080035   -0.172883    0.000002
      3          1           0        1.800370    0.248051    0.000024
      4          8           0        0.989388   -0.269087   -0.000003
 ---------------------------------------------------------------------
 Rotational constants (GHZ):          87.5262233          12.3516859          10.8241795
 Standard basis: 6-311+G(2d,2p) (5D, 7F)
 There are    96 symmetry adapted cartesian basis functions of A   symmetry.
 There are    90 symmetry adapted basis functions of A   symmetry.
    90 basis functions,   137 primitive gaussians,    96 cartesian basis functions
    12 alpha electrons       12 beta electrons
       nuclear repulsion energy        67.4118763336 Hartrees.
 NAtoms=    4 NActive=    4 NUniq=    4 SFac= 1.00D+00 NAtFMM=   60 NAOKFM=F Big=F
 Integral buffers will be    131072 words long.
 Raffenetti 2 integral format.
 Two-electron integral symmetry is turned on.
 Nuclear repulsion after empirical dispersion term =       67.4116623143 Hartrees.
 One-electron integrals computed using PRISM.
 NBasis=    90 RedAO= T EigKep=  1.40D-03  NBF=    90
 NBsUse=    90 1.00D-06 EigRej= -1.00D+00 NBFU=    90
 Initial guess from the checkpoint file:  "cfoh.chk"
 B after Tr=    -0.000000    0.000000   -0.000000
         Rot=    1.000000    0.000000    0.000000    0.000014 Ang=   0.00 deg.
 Initial guess <Sx>= 0.0000 <Sy>= 0.0000 <Sz>= 0.0000 <S**2>=-0.0000 S=-0.0000
 Keep R1 and R2 ints in memory in canonical form, NReq=55649328.
 Requested convergence on RMS density matrix=1.00D-08 within  32 cycles.
 Requested convergence on MAX density matrix=1.00D-06.
 Requested convergence on             energy=1.00D-06.
 No special actions if energy rises.
 SCF Done:  E(UwB97XD) =  -213.706856726     A.U. after    7 cycles
            NFock=  7  Conv=0.90D-08     -V/T= 2.0026
 <Sx>= 0.0000 <Sy>= 0.0000 <Sz>= 0.0000 <S**2>=-0.0000 S=-0.0000
 <L.S>= 0.000000000000E+00
 Annihilation of the first spin contaminant:
 S**2 before annihilation    -0.0000,   after    -0.0000
 QCSCF skips out because SCF is already converged.
 Calling FoFJK, ICntrl=      2127 FMM=F ISym2X=0 I1Cent= 0 IOpClX= 1 NMat=1 NMatS=1 NMatT=0.
 ***** Axes restored to original set *****
 -------------------------------------------------------------------
 Center     Atomic                   Forces (Hartrees/Bohr)
 Number     Number              X              Y              Z
 -------------------------------------------------------------------
      1        6           0.000018078    0.000106037    0.000031361
      2        9           0.000025321   -0.000060619    0.000021631
      3        1          -0.000002009    0.000006824   -0.000003277
      4        8          -0.000041390   -0.000052242   -0.000049715
 -------------------------------------------------------------------
 Cartesian Forces:  Max     0.000106037 RMS     0.000045012

 GradGradGradGradGradGradGradGradGradGradGradGradGradGradGradGradGradGrad
 Berny optimization.
 Using GEDIIS/GDIIS optimizer.
 FormGI is forming the generalized inverse of G from B-inverse, IUseBI=4.
 Internal  Forces:  Max     0.000074060 RMS     0.000043655
 Search for a local minimum.
 Step number   5 out of a maximum of   20
 All quantities printed in internal units (Hartrees-Bohrs-Radians)
 Mixed Optimization -- En-DIIS/RFO-DIIS
 Swapping is turned off.
 Update second derivatives using D2CorX and points    2    1    3    4    5
 DE= -4.10D-07 DEPred=-3.86D-07 R= 1.06D+00
 Trust test= 1.06D+00 RLast= 3.12D-03 DXMaxT set to 1.50D-01
 The second derivative matrix:
                          R1        R2        R3        A1        A2
           R1           0.40453
           R2           0.03678   0.70477
           R3          -0.00851   0.01091   0.55264
           A1           0.09480   0.10819   0.02305   0.54195
           A2           0.01421   0.01955   0.00460   0.04805   0.16818
           D1           0.00183  -0.00758  -0.00010  -0.00114   0.00039
                          D1
           D1           0.05702
 ITU=  0  0  1 -1  0
     Eigenvalues ---    0.05692   0.16201   0.35408   0.52205   0.55462
     Eigenvalues ---    0.77942
 En-DIIS/RFO-DIIS/Sim-DIIS IScMMF=       -3 using points:     5    4    3
 RFO step:  Lambda=-2.27355717D-08.
 DidBck=F Rises=F RFO-DIIS coefs:    1.19315   -0.12024   -0.07291
 Iteration  1 RMS(Cart)=  0.00007525 RMS(Int)=  0.00000000
 Iteration  2 RMS(Cart)=  0.00000000 RMS(Int)=  0.00000000
 Variable       Old X    -DE/DX   Delta X   Delta X   Delta X     New X
                                 (Linear)    (Quad)   (Total)
    R1        2.48568   0.00007   0.00014   0.00002   0.00016   2.48585
    R2        2.45865  -0.00007   0.00000  -0.00014  -0.00014   2.45851
    R3        1.81760   0.00001   0.00002  -0.00001   0.00001   1.81761
    A1        1.82744   0.00004  -0.00000   0.00007   0.00006   1.82750
    A2        1.86619   0.00001   0.00002   0.00002   0.00004   1.86623
    D1       -3.14156  -0.00000  -0.00007   0.00001  -0.00005   3.14157
         Item               Value     Threshold  Converged?
 Maximum Force            0.000074     0.000450     YES
 RMS     Force            0.000044     0.000300     YES
 Maximum Displacement     0.000125     0.001800     YES
 RMS     Displacement     0.000075     0.001200     YES
 Predicted change in Energy=-1.132568D-08
 Optimization completed.
    -- Stationary point found.
                           ----------------------------
                           !   Optimized Parameters   !
                           ! (Angstroms and Degrees)  !
 --------------------------                            --------------------------
 ! Name  Definition              Value          Derivative Info.                !
 --------------------------------------------------------------------------------
 ! R1    R(1,2)                  1.3154         -DE/DX =    0.0001              !
 ! R2    R(1,4)                  1.3011         -DE/DX =   -0.0001              !
 ! R3    R(3,4)                  0.9618         -DE/DX =    0.0                 !
 ! A1    A(2,1,4)              104.7047         -DE/DX =    0.0                 !
 ! A2    A(1,4,3)              106.9246         -DE/DX =    0.0                 !
 ! D1    D(2,1,4,3)            180.0019         -DE/DX =    0.0                 !
 --------------------------------------------------------------------------------
 GradGradGradGradGradGradGradGradGradGradGradGradGradGradGradGradGradGrad

                          Input orientation:                          
 ---------------------------------------------------------------------
 Center     Atomic      Atomic             Coordinates (Angstroms)
 Number     Number       Type             X           Y           Z
 ---------------------------------------------------------------------
      1          6           0        1.570369   -0.042156   -0.474654
      2          9           0        2.144252   -1.090966    0.073841
      3          1           0        1.658679    1.765422   -0.207556
      4          8           0        2.059286    0.976712    0.170035
 ---------------------------------------------------------------------
                    Distance matrix (angstroms):
                    1          2          3          4
     1  C    0.000000
     2  F    1.315367   0.000000
     3  H    1.829339   2.910999   0.000000
     4  O    1.301060   2.071658   0.961833   0.000000
 Stoichiometry    CHFO
 Framework group  C1[X(CHFO)]
 Deg. of freedom     6
 Full point group                 C1      NOp   1
 Largest Abelian subgroup         C1      NOp   1
 Largest concise Abelian subgroup C1      NOp   1
                         Standard orientation:                         
 ---------------------------------------------------------------------
 Center     Atomic      Atomic             Coordinates (Angstroms)
 Number     Number       Type             X           Y           Z
 ---------------------------------------------------------------------
      1          6           0        0.000807    0.576765   -0.000003
      2          9           0       -1.080035   -0.172883    0.000002
      3          1           0        1.800370    0.248051    0.000024
      4          8           0        0.989388   -0.269087   -0.000003
 ---------------------------------------------------------------------
 Rotational constants (GHZ):          87.5262233          12.3516859          10.8241795

 **********************************************************************

            Population analysis using the SCF density.

 **********************************************************************

 Orbital symmetries:
 Alpha Orbitals:
       Occupied  (A) (A) (A) (A) (A) (A) (A) (A) (A) (A) (A) (A)
       Virtual   (A) (A) (A) (A) (A) (A) (A) (A) (A) (A) (A) (A)
                 (A) (A) (A) (A) (A) (A) (A) (A) (A) (A) (A) (A)
                 (A) (A) (A) (A) (A) (A) (A) (A) (A) (A) (A) (A)
                 (A) (A) (A) (A) (A) (A) (A) (A) (A) (A) (A) (A)
                 (A) (A) (A) (A) (A) (A) (A) (A) (A) (A) (A) (A)
                 (A) (A) (A) (A) (A) (A) (A) (A) (A) (A) (A) (A)
                 (A) (A) (A) (A) (A) (A)
 Beta  Orbitals:
       Occupied  (A) (A) (A) (A) (A) (A) (A) (A) (A) (A) (A) (A)
       Virtual   (A) (A) (A) (A) (A) (A) (A) (A) (A) (A) (A) (A)
                 (A) (A) (A) (A) (A) (A) (A) (A) (A) (A) (A) (A)
                 (A) (A) (A) (A) (A) (A) (A) (A) (A) (A) (A) (A)
                 (A) (A) (A) (A) (A) (A) (A) (A) (A) (A) (A) (A)
                 (A) (A) (A) (A) (A) (A) (A) (A) (A) (A) (A) (A)
                 (A) (A) (A) (A) (A) (A) (A) (A) (A) (A) (A) (A)
                 (A) (A) (A) (A) (A) (A)
 The electronic state is 1-A.
 Alpha  occ. eigenvalues --  -24.85376 -19.34845 -10.44088  -1.38513  -1.23470
 Alpha  occ. eigenvalues --   -0.79972  -0.67162  -0.61515  -0.60702  -0.54093
 Alpha  occ. eigenvalues --   -0.50688  -0.36135
 Alpha virt. eigenvalues --    0.02353   0.06228   0.10374   0.11829   0.11834
 Alpha virt. eigenvalues --    0.18652   0.22424   0.26080   0.27577   0.28437
 Alpha virt. eigenvalues --    0.31393   0.33858   0.34150   0.39449   0.41078
 Alpha virt. eigenvalues --    0.47258   0.52980   0.58938   0.60389   0.66146
 Alpha virt. eigenvalues --    0.70937   0.84968   0.85031   0.87284   0.91524
 Alpha virt. eigenvalues --    0.92589   1.01891   1.10458   1.16733   1.26618
 Alpha virt. eigenvalues --    1.28990   1.39755   1.40493   1.44616   1.50364
 Alpha virt. eigenvalues --    1.53989   1.80062   1.84748   1.90164   2.00073
 Alpha virt. eigenvalues --    2.13510   2.15126   2.26451   2.30695   2.34178
 Alpha virt. eigenvalues --    2.47428   2.77843   2.79914   2.88710   3.20344
 Alpha virt. eigenvalues --    3.34377   3.37847   3.40821   3.46509   3.58760
 Alpha virt. eigenvalues --    3.79396   4.01598   4.07765   4.19437   5.04035
 Alpha virt. eigenvalues --    5.55341   6.06675   6.36669   6.41958   6.72484
 Alpha virt. eigenvalues --    6.88977   6.95936   7.07403   7.19797   7.43871
 Alpha virt. eigenvalues --    9.12163   9.15118   9.30501   9.39992   9.75059
 Alpha virt. eigenvalues --   23.99386  49.96681  66.90546
  Beta  occ. eigenvalues --  -24.85376 -19.34845 -10.44088  -1.38513  -1.23470
  Beta  occ. eigenvalues --   -0.79972  -0.67162  -0.61515  -0.60702  -0.54093
  Beta  occ. eigenvalues --   -0.50688  -0.36135
  Beta virt. eigenvalues --    0.02353   0.06228   0.10374   0.11829   0.11834
  Beta virt. eigenvalues --    0.18652   0.22424   0.26080   0.27577   0.28437
  Beta virt. eigenvalues --    0.31393   0.33858   0.34150   0.39449   0.41078
  Beta virt. eigenvalues --    0.47258   0.52980   0.58938   0.60389   0.66146
  Beta virt. eigenvalues --    0.70937   0.84968   0.85031   0.87284   0.91524
  Beta virt. eigenvalues --    0.92589   1.01891   1.10458   1.16733   1.26618
  Beta virt. eigenvalues --    1.28990   1.39755   1.40493   1.44616   1.50364
  Beta virt. eigenvalues --    1.53989   1.80062   1.84748   1.90164   2.00073
  Beta virt. eigenvalues --    2.13510   2.15126   2.26451   2.30695   2.34178
  Beta virt. eigenvalues --    2.47428   2.77843   2.79914   2.88710   3.20344
  Beta virt. eigenvalues --    3.34377   3.37847   3.40821   3.46509   3.58760
  Beta virt. eigenvalues --    3.79396   4.01598   4.07765   4.19437   5.04035
  Beta virt. eigenvalues --    5.55341   6.06675   6.36669   6.41958   6.72484
  Beta virt. eigenvalues --    6.88977   6.95936   7.07403   7.19797   7.43871
  Beta virt. eigenvalues --    9.12163   9.15118   9.30501   9.39992   9.75059
  Beta virt. eigenvalues --   23.99386  49.96681  66.90546
          Condensed to atoms (all electrons):
               1          2          3          4
     1  C    5.894838   0.009738  -0.019819   0.041100
     2  F    0.009738   9.150876   0.007373   0.001317
     3  H   -0.019819   0.007373   0.484834   0.241700
     4  O    0.041100   0.001317   0.241700   7.906633
          Atomic-Atomic Spin Densities.
               1          2          3          4
     1  C    0.000000   0.000000   0.000000   0.000000
     2  F    0.000000   0.000000   0.000000   0.000000
     3  H    0.000000   0.000000   0.000000   0.000000
     4  O    0.000000   0.000000   0.000000   0.000000
 Mulliken charges and spin densities:
               1          2
     1  C    0.074143   0.000000
     2  F   -0.169304   0.000000
     3  H    0.285911   0.000000
     4  O   -0.190750   0.000000
 Sum of Mulliken charges =  -0.00000   0.00000
 Mulliken charges and spin densities with hydrogens summed into heavy atoms:
               1          2
     1  C    0.074143   0.000000
     2  F   -0.169304   0.000000
     4  O    0.095161   0.000000
 Electronic spatial extent (au):  <R**2>=            123.0139
 Charge=              0.0000 electrons
 Dipole moment (field-independent basis, Debye):
    X=              2.3480    Y=             -0.1574    Z=              0.0000  Tot=              2.3533
 Quadrupole moment (field-independent basis, Debye-Ang):
   XX=            -12.2270   YY=            -19.4374   ZZ=            -16.2281
   XY=              1.3626   XZ=              0.0001   YZ=              0.0000
 Traceless Quadrupole moment (field-independent basis, Debye-Ang):
   XX=              3.7372   YY=             -3.4732   ZZ=             -0.2640
   XY=              1.3626   XZ=              0.0001   YZ=              0.0000
 Octapole moment (field-independent basis, Debye-Ang**2):
  XXX=              9.0955  YYY=             -8.6515  ZZZ=              0.0000  XYY=             -1.1637
  XXY=              1.0407  XXZ=              0.0002  XZZ=             -1.2102  YZZ=             -1.6127
  YYZ=              0.0000  XYZ=              0.0000
 Hexadecapole moment (field-independent basis, Debye-Ang**3):
 XXXX=            -64.3995 YYYY=            -41.0221 ZZZZ=            -14.4159 XXXY=              5.3697
 XXXZ=              0.0004 YYYX=              1.1472 YYYZ=              0.0000 ZZZX=              0.0000
 ZZZY=              0.0000 XXYY=            -19.8717 XXZZ=            -17.0760 YYZZ=             -8.6019
 XXYZ=              0.0001 YYXZ=              0.0000 ZZXY=              0.3655
 N-N= 6.741166231432D+01 E-N=-6.407850680272D+02  KE= 2.131607911410D+02
                          Isotropic Fermi Contact Couplings
        Atom                 a.u.       MegaHertz       Gauss      10(-4) cm-1
     1  C(13)              0.00000       0.00000       0.00000       0.00000
     2  F(19)              0.00000       0.00000       0.00000       0.00000
     3  H(1)               0.00000       0.00000       0.00000       0.00000
     4  O(17)              0.00000      -0.00000      -0.00000      -0.00000
 --------------------------------------------------------
       Center         ----  Spin Dipole Couplings  ----
                      3XX-RR        3YY-RR        3ZZ-RR
 --------------------------------------------------------
     1   Atom        0.000000      0.000000      0.000000
     2   Atom        0.000000      0.000000      0.000000
     3   Atom        0.000000      0.000000      0.000000
     4   Atom        0.000000      0.000000      0.000000
 --------------------------------------------------------
                        XY            XZ            YZ
 --------------------------------------------------------
     1   Atom        0.000000      0.000000      0.000000
     2   Atom        0.000000      0.000000      0.000000
     3   Atom        0.000000      0.000000      0.000000
     4   Atom        0.000000      0.000000      0.000000
 --------------------------------------------------------


 ---------------------------------------------------------------------------------
              Anisotropic Spin Dipole Couplings in Principal Axis System
 ---------------------------------------------------------------------------------

       Atom             a.u.   MegaHertz   Gauss  10(-4) cm-1        Axes

              Baa     0.0000     0.000     0.000     0.000  1.0000  0.0000  0.0000
     1 C(13)  Bbb     0.0000     0.000     0.000     0.000  0.0000  1.0000  0.0000
              Bcc     0.0000     0.000     0.000     0.000  0.0000  0.0000  1.0000
 
              Baa     0.0000     0.000     0.000     0.000  1.0000  0.0000  0.0000
     2 F(19)  Bbb     0.0000     0.000     0.000     0.000  0.0000  1.0000  0.0000
              Bcc     0.0000     0.000     0.000     0.000  0.0000  0.0000  1.0000
 
              Baa     0.0000     0.000     0.000     0.000  1.0000  0.0000  0.0000
     3 H(1)   Bbb     0.0000     0.000     0.000     0.000  0.0000  1.0000  0.0000
              Bcc     0.0000     0.000     0.000     0.000  0.0000  0.0000  1.0000
 
              Baa     0.0000    -0.000    -0.000    -0.000  1.0000  0.0000  0.0000
     4 O(17)  Bbb     0.0000    -0.000    -0.000    -0.000  0.0000  1.0000  0.0000
              Bcc     0.0000    -0.000    -0.000    -0.000  0.0000  0.0000  1.0000
 

 ---------------------------------------------------------------------------------

 1\1\GINC-CCLEARTI\FOpt\UwB97XD\6-311+G(2d,2p)\C1H1F1O1\RAPPE\16-Oct-20
 25\0\\# opt freq uwb97xd/6-311+g(2d,2p) geom=connectivity scf=xqc\\Tit
 le Card Required\\0,1\C,1.5703687923,-0.0421564385,-0.4746541771\F,2.1
 442523993,-1.090965876,0.0738414119\H,1.6586786493,1.7654218971,-0.207
 5557792\O,2.0592861591,0.9767124173,0.1700345444\\Version=EM64M-G16Rev
 A.03\State=1-A\HF=-213.7068567\S2=0.\S2-1=0.\S2A=0.\RMSD=8.973e-09\RMS
 F=4.501e-05\Dipole=-0.0253758,0.923731,0.0571601\Quadrupole=-1.1301009
 ,2.6805136,-1.5504126,-0.9406395,-1.1381216,-0.7915014\PG=C01 [X(C1H1F
 1O1)]\\@


 AND ALL THIS SCIENCE I DON'T UNDERSTAND
 IT'S JUST MY JOB FIVE DAYS A WEEK

                           -- ELTON JOHN, "ROCKET MAN"
 Job cpu time:       0 days  0 hours  8 minutes 36.9 seconds.
 Elapsed time:       0 days  0 hours  0 minutes 22.7 seconds.
 File lengths (MBytes):  RWF=     10 Int=      0 D2E=      0 Chk=      2 Scr=      1
 Normal termination of Gaussian 16 at Thu Oct 16 20:03:20 2025.
 Link1:  Proceeding to internal job step number  2.
 ----------------------------------------------------------------------
 #N Geom=AllCheck Guess=TCheck SCRF=Check GenChk UwB97XD/6-311+G(2d,2p)
  Freq
 ----------------------------------------------------------------------
 1/10=4,29=7,30=1,38=1,40=1/1,3;
 2/12=2,40=1/2;
 3/5=4,6=6,7=212,11=2,14=-4,25=1,30=1,70=2,71=2,74=-58,116=2,140=1/1,2,3;
 4/5=101/1;
 5/5=2,8=3,13=1,38=6,98=1/2,8;
 8/6=4,10=90,11=11/1;
 11/6=1,8=1,9=11,15=111,16=1/1,2,10;
 10/6=1/2;
 6/7=2,8=2,9=2,10=2,28=1/1;
 7/8=1,10=1,25=1/1,2,3,16;
 1/10=4,30=1/3;
 99//99;
 Structure from the checkpoint file:  "cfoh.chk"
 -------------------
 Title Card Required
 -------------------
 Charge =  0 Multiplicity = 1
 Redundant internal coordinates found in file.  (old form).
 C,0,1.5703687923,-0.0421564385,-0.4746541771
 F,0,2.1442523993,-1.090965876,0.0738414119
 H,0,1.6586786493,1.7654218971,-0.2075557792
 O,0,2.0592861591,0.9767124173,0.1700345444
 Recover connectivity data from disk.

 GradGradGradGradGradGradGradGradGradGradGradGradGradGradGradGradGradGrad
 Berny optimization.
 Initialization pass.
                           ----------------------------
                           !    Initial Parameters    !
                           ! (Angstroms and Degrees)  !
 --------------------------                            --------------------------
 ! Name  Definition              Value          Derivative Info.                !
 --------------------------------------------------------------------------------
 ! R1    R(1,2)                  1.3154         calculate D2E/DX2 analytically  !
 ! R2    R(1,4)                  1.3011         calculate D2E/DX2 analytically  !
 ! R3    R(3,4)                  0.9618         calculate D2E/DX2 analytically  !
 ! A1    A(2,1,4)              104.7047         calculate D2E/DX2 analytically  !
 ! A2    A(1,4,3)              106.9246         calculate D2E/DX2 analytically  !
 ! D1    D(2,1,4,3)           -179.9981         calculate D2E/DX2 analytically  !
 --------------------------------------------------------------------------------
 Trust Radius=3.00D-01 FncErr=1.00D-07 GrdErr=1.00D-07 EigMax=2.50D+02 EigMin=1.00D-04
 Number of steps in this run=      2 maximum allowed number of steps=      2.
 GradGradGradGradGradGradGradGradGradGradGradGradGradGradGradGradGradGrad

                          Input orientation:                          
 ---------------------------------------------------------------------
 Center     Atomic      Atomic             Coordinates (Angstroms)
 Number     Number       Type             X           Y           Z
 ---------------------------------------------------------------------
      1          6           0        1.570369   -0.042156   -0.474654
      2          9           0        2.144252   -1.090966    0.073841
      3          1           0        1.658679    1.765422   -0.207556
      4          8           0        2.059286    0.976712    0.170035
 ---------------------------------------------------------------------
                    Distance matrix (angstroms):
                    1          2          3          4
     1  C    0.000000
     2  F    1.315367   0.000000
     3  H    1.829339   2.910999   0.000000
     4  O    1.301060   2.071658   0.961833   0.000000
 Stoichiometry    CHFO
 Framework group  C1[X(CHFO)]
 Deg. of freedom     6
 Full point group                 C1      NOp   1
 Largest Abelian subgroup         C1      NOp   1
 Largest concise Abelian subgroup C1      NOp   1
                         Standard orientation:                         
 ---------------------------------------------------------------------
 Center     Atomic      Atomic             Coordinates (Angstroms)
 Number     Number       Type             X           Y           Z
 ---------------------------------------------------------------------
      1          6           0        0.000807    0.576765   -0.000003
      2          9           0       -1.080035   -0.172883    0.000002
      3          1           0        1.800370    0.248051    0.000024
      4          8           0        0.989388   -0.269087   -0.000003
 ---------------------------------------------------------------------
 Rotational constants (GHZ):          87.5262233          12.3516859          10.8241795
 Standard basis: 6-311+G(2d,2p) (5D, 7F)
 There are    96 symmetry adapted cartesian basis functions of A   symmetry.
 There are    90 symmetry adapted basis functions of A   symmetry.
    90 basis functions,   137 primitive gaussians,    96 cartesian basis functions
    12 alpha electrons       12 beta electrons
       nuclear repulsion energy        67.4118763336 Hartrees.
 NAtoms=    4 NActive=    4 NUniq=    4 SFac= 1.00D+00 NAtFMM=   60 NAOKFM=F Big=F
 Integral buffers will be    131072 words long.
 Raffenetti 2 integral format.
 Two-electron integral symmetry is turned on.
 Nuclear repulsion after empirical dispersion term =       67.4116623143 Hartrees.
 One-electron integrals computed using PRISM.
 NBasis=    90 RedAO= T EigKep=  1.40D-03  NBF=    90
 NBsUse=    90 1.00D-06 EigRej= -1.00D+00 NBFU=    90
 Initial guess from the checkpoint file:  "cfoh.chk"
 B after Tr=    -0.000000    0.000000    0.000000
         Rot=    1.000000   -0.000000    0.000000    0.000000 Ang=   0.00 deg.
 Initial guess <Sx>= 0.0000 <Sy>= 0.0000 <Sz>= 0.0000 <S**2>= 0.0000 S= 0.0000
 Keep R1 and R2 ints in memory in canonical form, NReq=55649328.
 Requested convergence on RMS density matrix=1.00D-08 within  32 cycles.
 Requested convergence on MAX density matrix=1.00D-06.
 Requested convergence on             energy=1.00D-06.
 No special actions if energy rises.
 SCF Done:  E(UwB97XD) =  -213.706856726     A.U. after    1 cycles
            NFock=  1  Conv=0.25D-08     -V/T= 2.0026
 <Sx>= 0.0000 <Sy>= 0.0000 <Sz>= 0.0000 <S**2>= 0.0000 S= 0.0000
 <L.S>= 0.000000000000E+00
 Annihilation of the first spin contaminant:
 S**2 before annihilation     0.0000,   after    -0.0000
 QCSCF skips out because SCF is already converged.
 DoSCS=F DFT=T ScalE2(SS,OS)=  1.000000  1.000000
 Range of M.O.s used for correlation:     1    90
 NBasis=    90 NAE=    12 NBE=    12 NFC=     0 NFV=     0
 NROrb=     90 NOA=    12 NOB=    12 NVA=    78 NVB=    78
 Symmetrizing basis deriv contribution to polar:
 IMax=3 JMax=2 DiffMx= 0.00D+00
 G2DrvN: will do     5 centers at a time, making    1 passes.
 Calling FoFCou, ICntrl=  3107 FMM=F I1Cent=   0 AccDes= 0.00D+00.
 End of G2Drv F.D. properties file   721 does not exist.
 End of G2Drv F.D. properties file   722 does not exist.
 End of G2Drv F.D. properties file   788 does not exist.
          IDoAtm=1111
          Differentiating once with respect to electric field.
                with respect to dipole field.
          Differentiating once with respect to nuclear coordinates.
 Keep R1 and R2 ints in memory in canonical form, NReq=55569079.
          There are    15 degrees of freedom in the 1st order CPHF.  IDoFFX=6 NUNeed=     3.
     12 vectors produced by pass  0 Test12= 1.25D-14 6.67D-09 XBig12= 1.79D+01 1.61D+00.
 AX will form    12 AO Fock derivatives at one time.
     12 vectors produced by pass  1 Test12= 1.25D-14 6.67D-09 XBig12= 2.78D+00 5.46D-01.
     12 vectors produced by pass  2 Test12= 1.25D-14 6.67D-09 XBig12= 9.37D-02 5.61D-02.
     12 vectors produced by pass  3 Test12= 1.25D-14 6.67D-09 XBig12= 2.08D-03 7.62D-03.
     12 vectors produced by pass  4 Test12= 1.25D-14 6.67D-09 XBig12= 2.47D-05 9.70D-04.
     12 vectors produced by pass  5 Test12= 1.25D-14 6.67D-09 XBig12= 2.99D-07 1.13D-04.
     12 vectors produced by pass  6 Test12= 1.25D-14 6.67D-09 XBig12= 2.57D-09 8.08D-06.
      5 vectors produced by pass  7 Test12= 1.25D-14 6.67D-09 XBig12= 1.44D-11 5.72D-07.
      3 vectors produced by pass  8 Test12= 1.25D-14 6.67D-09 XBig12= 8.56D-14 3.96D-08.
 InvSVY:  IOpt=1 It=  1 EMax= 1.33D-15
 Solved reduced A of dimension    92 with    12 vectors.
 Isotropic polarizability for W=    0.000000       19.42 Bohr**3.
 End of Minotr F.D. properties file   721 does not exist.
 End of Minotr F.D. properties file   722 does not exist.
 End of Minotr F.D. properties file   788 does not exist.

 **********************************************************************

            Population analysis using the SCF density.

 **********************************************************************

 Orbital symmetries:
 Alpha Orbitals:
       Occupied  (A) (A) (A) (A) (A) (A) (A) (A) (A) (A) (A) (A)
       Virtual   (A) (A) (A) (A) (A) (A) (A) (A) (A) (A) (A) (A)
                 (A) (A) (A) (A) (A) (A) (A) (A) (A) (A) (A) (A)
                 (A) (A) (A) (A) (A) (A) (A) (A) (A) (A) (A) (A)
                 (A) (A) (A) (A) (A) (A) (A) (A) (A) (A) (A) (A)
                 (A) (A) (A) (A) (A) (A) (A) (A) (A) (A) (A) (A)
                 (A) (A) (A) (A) (A) (A) (A) (A) (A) (A) (A) (A)
                 (A) (A) (A) (A) (A) (A)
 Beta  Orbitals:
       Occupied  (A) (A) (A) (A) (A) (A) (A) (A) (A) (A) (A) (A)
       Virtual   (A) (A) (A) (A) (A) (A) (A) (A) (A) (A) (A) (A)
                 (A) (A) (A) (A) (A) (A) (A) (A) (A) (A) (A) (A)
                 (A) (A) (A) (A) (A) (A) (A) (A) (A) (A) (A) (A)
                 (A) (A) (A) (A) (A) (A) (A) (A) (A) (A) (A) (A)
                 (A) (A) (A) (A) (A) (A) (A) (A) (A) (A) (A) (A)
                 (A) (A) (A) (A) (A) (A) (A) (A) (A) (A) (A) (A)
                 (A) (A) (A) (A) (A) (A)
 The electronic state is 1-A.
 Alpha  occ. eigenvalues --  -24.85376 -19.34845 -10.44088  -1.38513  -1.23470
 Alpha  occ. eigenvalues --   -0.79972  -0.67162  -0.61515  -0.60702  -0.54093
 Alpha  occ. eigenvalues --   -0.50688  -0.36135
 Alpha virt. eigenvalues --    0.02353   0.06228   0.10374   0.11829   0.11834
 Alpha virt. eigenvalues --    0.18652   0.22424   0.26080   0.27577   0.28437
 Alpha virt. eigenvalues --    0.31393   0.33858   0.34150   0.39449   0.41078
 Alpha virt. eigenvalues --    0.47258   0.52980   0.58938   0.60389   0.66146
 Alpha virt. eigenvalues --    0.70937   0.84968   0.85031   0.87284   0.91524
 Alpha virt. eigenvalues --    0.92589   1.01891   1.10458   1.16733   1.26618
 Alpha virt. eigenvalues --    1.28990   1.39755   1.40493   1.44616   1.50364
 Alpha virt. eigenvalues --    1.53989   1.80062   1.84748   1.90164   2.00073
 Alpha virt. eigenvalues --    2.13510   2.15126   2.26451   2.30695   2.34178
 Alpha virt. eigenvalues --    2.47428   2.77843   2.79914   2.88710   3.20344
 Alpha virt. eigenvalues --    3.34377   3.37847   3.40821   3.46509   3.58760
 Alpha virt. eigenvalues --    3.79396   4.01598   4.07765   4.19437   5.04035
 Alpha virt. eigenvalues --    5.55341   6.06675   6.36669   6.41958   6.72484
 Alpha virt. eigenvalues --    6.88977   6.95936   7.07403   7.19797   7.43871
 Alpha virt. eigenvalues --    9.12163   9.15118   9.30501   9.39992   9.75059
 Alpha virt. eigenvalues --   23.99386  49.96681  66.90546
  Beta  occ. eigenvalues --  -24.85376 -19.34845 -10.44088  -1.38513  -1.23470
  Beta  occ. eigenvalues --   -0.79972  -0.67162  -0.61515  -0.60702  -0.54093
  Beta  occ. eigenvalues --   -0.50688  -0.36135
  Beta virt. eigenvalues --    0.02353   0.06228   0.10374   0.11829   0.11834
  Beta virt. eigenvalues --    0.18652   0.22424   0.26080   0.27577   0.28437
  Beta virt. eigenvalues --    0.31393   0.33858   0.34150   0.39449   0.41078
  Beta virt. eigenvalues --    0.47258   0.52980   0.58938   0.60389   0.66146
  Beta virt. eigenvalues --    0.70937   0.84968   0.85031   0.87284   0.91524
  Beta virt. eigenvalues --    0.92589   1.01891   1.10458   1.16733   1.26618
  Beta virt. eigenvalues --    1.28990   1.39755   1.40493   1.44616   1.50364
  Beta virt. eigenvalues --    1.53989   1.80062   1.84748   1.90164   2.00073
  Beta virt. eigenvalues --    2.13510   2.15126   2.26451   2.30695   2.34178
  Beta virt. eigenvalues --    2.47428   2.77843   2.79914   2.88710   3.20344
  Beta virt. eigenvalues --    3.34377   3.37847   3.40821   3.46509   3.58760
  Beta virt. eigenvalues --    3.79396   4.01598   4.07765   4.19437   5.04035
  Beta virt. eigenvalues --    5.55341   6.06675   6.36669   6.41958   6.72484
  Beta virt. eigenvalues --    6.88977   6.95936   7.07403   7.19797   7.43871
  Beta virt. eigenvalues --    9.12163   9.15118   9.30501   9.39992   9.75059
  Beta virt. eigenvalues --   23.99386  49.96681  66.90546
          Condensed to atoms (all electrons):
               1          2          3          4
     1  C    5.894838   0.009738  -0.019819   0.041100
     2  F    0.009738   9.150876   0.007373   0.001317
     3  H   -0.019819   0.007373   0.484834   0.241700
     4  O    0.041100   0.001317   0.241700   7.906633
          Atomic-Atomic Spin Densities.
               1          2          3          4
     1  C    0.000000   0.000000   0.000000   0.000000
     2  F    0.000000   0.000000   0.000000   0.000000
     3  H    0.000000   0.000000   0.000000   0.000000
     4  O    0.000000   0.000000   0.000000   0.000000
 Mulliken charges and spin densities:
               1          2
     1  C    0.074143   0.000000
     2  F   -0.169304   0.000000
     3  H    0.285911   0.000000
     4  O   -0.190750   0.000000
 Sum of Mulliken charges =   0.00000   0.00000
 Mulliken charges and spin densities with hydrogens summed into heavy atoms:
               1          2
     1  C    0.074143   0.000000
     2  F   -0.169304   0.000000
     4  O    0.095161   0.000000
 APT charges:
               1
     1  C    0.745112
     2  F   -0.507589
     3  H    0.340722
     4  O   -0.578245
 Sum of APT charges =  -0.00000
 APT charges with hydrogens summed into heavy atoms:
               1
     1  C    0.745112
     2  F   -0.507589
     4  O   -0.237523
 Electronic spatial extent (au):  <R**2>=            123.0139
 Charge=              0.0000 electrons
 Dipole moment (field-independent basis, Debye):
    X=              2.3480    Y=             -0.1574    Z=              0.0000  Tot=              2.3533
 Quadrupole moment (field-independent basis, Debye-Ang):
   XX=            -12.2270   YY=            -19.4374   ZZ=            -16.2281
   XY=              1.3626   XZ=              0.0001   YZ=              0.0000
 Traceless Quadrupole moment (field-independent basis, Debye-Ang):
   XX=              3.7372   YY=             -3.4732   ZZ=             -0.2640
   XY=              1.3626   XZ=              0.0001   YZ=              0.0000
 Octapole moment (field-independent basis, Debye-Ang**2):
  XXX=              9.0955  YYY=             -8.6515  ZZZ=              0.0000  XYY=             -1.1637
  XXY=              1.0407  XXZ=              0.0002  XZZ=             -1.2102  YZZ=             -1.6127
  YYZ=              0.0000  XYZ=              0.0000
 Hexadecapole moment (field-independent basis, Debye-Ang**3):
 XXXX=            -64.3995 YYYY=            -41.0221 ZZZZ=            -14.4159 XXXY=              5.3697
 XXXZ=              0.0004 YYYX=              1.1472 YYYZ=              0.0000 ZZZX=              0.0000
 ZZZY=              0.0000 XXYY=            -19.8717 XXZZ=            -17.0759 YYZZ=             -8.6019
 XXYZ=              0.0001 YYXZ=              0.0000 ZZXY=              0.3655
 N-N= 6.741166231432D+01 E-N=-6.407850731674D+02  KE= 2.131607937759D+02
  Exact polarizability:  23.872  -0.064  18.257   0.000   0.000  16.139
 Approx polarizability:  24.900   0.132  17.586   0.000   0.000  16.449
                          Isotropic Fermi Contact Couplings
        Atom                 a.u.       MegaHertz       Gauss      10(-4) cm-1
     1  C(13)              0.00000       0.00000       0.00000       0.00000
     2  F(19)              0.00000       0.00000       0.00000       0.00000
     3  H(1)               0.00000       0.00000       0.00000       0.00000
     4  O(17)              0.00000      -0.00000      -0.00000      -0.00000
 --------------------------------------------------------
       Center         ----  Spin Dipole Couplings  ----
                      3XX-RR        3YY-RR        3ZZ-RR
 --------------------------------------------------------
     1   Atom        0.000000      0.000000      0.000000
     2   Atom        0.000000      0.000000      0.000000
     3   Atom        0.000000      0.000000      0.000000
     4   Atom        0.000000      0.000000      0.000000
 --------------------------------------------------------
                        XY            XZ            YZ
 --------------------------------------------------------
     1   Atom        0.000000      0.000000      0.000000
     2   Atom        0.000000      0.000000      0.000000
     3   Atom        0.000000      0.000000      0.000000
     4   Atom        0.000000      0.000000      0.000000
 --------------------------------------------------------


 ---------------------------------------------------------------------------------
              Anisotropic Spin Dipole Couplings in Principal Axis System
 ---------------------------------------------------------------------------------

       Atom             a.u.   MegaHertz   Gauss  10(-4) cm-1        Axes

              Baa     0.0000     0.000     0.000     0.000  1.0000  0.0000  0.0000
     1 C(13)  Bbb     0.0000     0.000     0.000     0.000  0.0000  1.0000  0.0000
              Bcc     0.0000     0.000     0.000     0.000  0.0000  0.0000  1.0000
 
              Baa     0.0000     0.000     0.000     0.000  1.0000  0.0000  0.0000
     2 F(19)  Bbb     0.0000     0.000     0.000     0.000  0.0000  1.0000  0.0000
              Bcc     0.0000     0.000     0.000     0.000  0.0000  0.0000  1.0000
 
              Baa     0.0000     0.000     0.000     0.000  1.0000  0.0000  0.0000
     3 H(1)   Bbb     0.0000     0.000     0.000     0.000  0.0000  1.0000  0.0000
              Bcc     0.0000     0.000     0.000     0.000  0.0000  0.0000  1.0000
 
              Baa     0.0000    -0.000    -0.000    -0.000  1.0000  0.0000  0.0000
     4 O(17)  Bbb     0.0000    -0.000    -0.000    -0.000  0.0000  1.0000  0.0000
              Bcc     0.0000    -0.000    -0.000    -0.000  0.0000  0.0000  1.0000
 

 ---------------------------------------------------------------------------------

 Calling FoFJK, ICntrl=    100127 FMM=F ISym2X=0 I1Cent= 0 IOpClX= 1 NMat=1 NMatS=1 NMatT=0.
 Full mass-weighted force constant matrix:
 Low frequencies ---  -33.6228   -9.8528   -7.0307    0.0012    0.0016    0.0017
 Low frequencies ---  670.4406  747.8409 1072.1355
 Diagonal vibrational polarizability:
        9.6353225       2.1889997       4.3479318
 Harmonic frequencies (cm**-1), IR intensities (KM/Mole), Raman scattering
 activities (A**4/AMU), depolarization ratios for plane and unpolarized
 incident light, reduced masses (AMU), force constants (mDyne/A),
 and normal coordinates:
                      1                      2                      3
                      A                      A                      A
 Frequencies --    670.4406               747.8407              1072.1355
 Red. masses --      7.3384                 1.1335                 2.9952
 Frc consts  --      1.9434                 0.3735                 2.0285
 IR Inten    --      2.4471                90.3582               278.0552
  Atom  AN      X      Y      Z        X      Y      Z        X      Y      Z
     1   6     0.02  -0.31   0.00    -0.00   0.00  -0.06    -0.22  -0.19   0.00
     2   9    -0.36   0.12   0.00     0.00  -0.00   0.04     0.19   0.13  -0.00
     3   1    -0.03   0.76   0.00    -0.00  -0.00   1.00    -0.54   0.75   0.00
     4   8     0.42   0.04  -0.00     0.00   0.00  -0.06    -0.03  -0.06  -0.00
                      4                      5                      6
                      A                      A                      A
 Frequencies --   1301.9052              1381.0091              3878.1626
 Red. masses --      3.5974                 2.5154                 1.0658
 Frc consts  --      3.5925                 2.8265                 9.4444
 IR Inten    --    135.9851               193.5390               155.4085
  Atom  AN      X      Y      Z        X      Y      Z        X      Y      Z
     1   6     0.37  -0.15   0.00     0.02   0.28   0.00    -0.00  -0.00   0.00
     2   9    -0.03  -0.03   0.00    -0.04  -0.07   0.00     0.00   0.00  -0.00
     3   1    -0.56   0.69   0.00    -0.51   0.79   0.00     0.85   0.52   0.00
     4   8    -0.21   0.10  -0.00     0.06  -0.18  -0.00    -0.05  -0.03  -0.00

 -------------------
 - Thermochemistry -
 -------------------
 Temperature   298.150 Kelvin.  Pressure   1.00000 Atm.
 Atom     1 has atomic number  6 and mass  12.00000
 Atom     2 has atomic number  9 and mass  18.99840
 Atom     3 has atomic number  1 and mass   1.00783
 Atom     4 has atomic number  8 and mass  15.99491
 Molecular mass:    48.00114 amu.
 Principal axes and moments of inertia in atomic units:
                           1         2         3
     Eigenvalues --    20.61943 146.11295 166.73238
           X            0.99997   0.00798   0.00000
           Y           -0.00798   0.99997   0.00000
           Z           -0.00000  -0.00000   1.00000
 This molecule is an asymmetric top.
 Rotational symmetry number  1.
 Rotational temperatures (Kelvin)      4.20060     0.59279     0.51948
 Rotational constants (GHZ):          87.52622    12.35169    10.82418
 Zero-point vibrational energy      54140.0 (Joules/Mol)
                                   12.93976 (Kcal/Mol)
 Vibrational temperatures:    964.61  1075.98  1542.56  1873.15  1986.96
          (Kelvin)           5579.81
 
 Zero-point correction=                           0.020621 (Hartree/Particle)
 Thermal correction to Energy=                    0.023720
 Thermal correction to Enthalpy=                  0.024664
 Thermal correction to Gibbs Free Energy=        -0.003411
 Sum of electronic and zero-point Energies=           -213.686236
 Sum of electronic and thermal Energies=              -213.683136
 Sum of electronic and thermal Enthalpies=            -213.682192
 Sum of electronic and thermal Free Energies=         -213.710268
 
                     E (Thermal)             CV                S
                      KCal/Mol        Cal/Mol-Kelvin    Cal/Mol-Kelvin
 Total                   14.885              8.154             59.090
 Electronic               0.000              0.000              0.000
 Translational            0.889              2.981             37.530
 Rotational               0.889              2.981             20.846
 Vibrational             13.107              2.192              0.714
                       Q            Log10(Q)             Ln(Q)
 Total Bot       0.370638D+02          1.568950          3.612641
 Total V=0       0.113204D+12         11.053860         25.452454
 Vib (Bot)       0.353411D-09         -9.451719        -21.763388
 Vib (V=0)       0.107942D+01          0.033191          0.076425
 Electronic      0.100000D+01          0.000000          0.000000
 Translational   0.130717D+08          7.116331         16.385958
 Rotational      0.802303D+04          3.904338          8.990071
 ***** Axes restored to original set *****
 -------------------------------------------------------------------
 Center     Atomic                   Forces (Hartrees/Bohr)
 Number     Number              X              Y              Z
 -------------------------------------------------------------------
      1        6           0.000018062    0.000106084    0.000031331
      2        9           0.000025337   -0.000060653    0.000021669
      3        1          -0.000001989    0.000006790   -0.000003264
      4        8          -0.000041410   -0.000052222   -0.000049736
 -------------------------------------------------------------------
 Cartesian Forces:  Max     0.000106084 RMS     0.000045026
 FormGI is forming the generalized inverse of G from B-inverse, IUseBI=4.

 GradGradGradGradGradGradGradGradGradGradGradGradGradGradGradGradGradGrad
 Berny optimization.
 Internal  Forces:  Max     0.000074072 RMS     0.000043667
 Search for a local minimum.
 Step number   1 out of a maximum of    2
 All quantities printed in internal units (Hartrees-Bohrs-Radians)
 Second derivative matrix not updated -- analytic derivatives used.
 The second derivative matrix:
                          R1        R2        R3        A1        A2
           R1           0.38931
           R2           0.08980   0.48637
           R3          -0.00717   0.00623   0.54066
           A1           0.09953   0.09153   0.01564   0.54778
           A2           0.00855   0.04784   0.02417   0.04400   0.17678
           D1          -0.00000  -0.00000  -0.00000  -0.00000  -0.00000
                          D1
           D1           0.05692
 ITU=  0
     Eigenvalues ---    0.05692   0.16517   0.32692   0.42234   0.54169
     Eigenvalues ---    0.68478
 Angle between quadratic step and forces=  15.15 degrees.
 Linear search not attempted -- first point.
 Iteration  1 RMS(Cart)=  0.00009072 RMS(Int)=  0.00000001
 Iteration  2 RMS(Cart)=  0.00000000 RMS(Int)=  0.00000000
 Variable       Old X    -DE/DX   Delta X   Delta X   Delta X     New X
                                 (Linear)    (Quad)   (Total)
    R1        2.48568   0.00007   0.00000   0.00020   0.00020   2.48588
    R2        2.45865  -0.00007   0.00000  -0.00021  -0.00021   2.45844
    R3        1.81760   0.00001   0.00000   0.00001   0.00001   1.81761
    A1        1.82744   0.00004   0.00000   0.00006   0.00006   1.82750
    A2        1.86619   0.00001   0.00000   0.00009   0.00009   1.86627
    D1       -3.14156  -0.00000   0.00000  -0.00003  -0.00003   3.14159
         Item               Value     Threshold  Converged?
 Maximum Force            0.000074     0.000450     YES
 RMS     Force            0.000044     0.000300     YES
 Maximum Displacement     0.000127     0.001800     YES
 RMS     Displacement     0.000091     0.001200     YES
 Predicted change in Energy=-1.602839D-08
 Optimization completed.
    -- Stationary point found.
                           ----------------------------
                           !   Optimized Parameters   !
                           ! (Angstroms and Degrees)  !
 --------------------------                            --------------------------
 ! Name  Definition              Value          Derivative Info.                !
 --------------------------------------------------------------------------------
 ! R1    R(1,2)                  1.3154         -DE/DX =    0.0001              !
 ! R2    R(1,4)                  1.3011         -DE/DX =   -0.0001              !
 ! R3    R(3,4)                  0.9618         -DE/DX =    0.0                 !
 ! A1    A(2,1,4)              104.7047         -DE/DX =    0.0                 !
 ! A2    A(1,4,3)              106.9246         -DE/DX =    0.0                 !
 ! D1    D(2,1,4,3)            180.0019         -DE/DX =    0.0                 !
 --------------------------------------------------------------------------------
 GradGradGradGradGradGradGradGradGradGradGradGradGradGradGradGradGradGrad


 ----------------------------------------------------------------------

 Electric dipole moment (input orientation):
 (Debye = 10**-18 statcoulomb cm , SI units = C m)
                  (au)            (Debye)         (10**-30 SI)
   Tot        0.925846D+00      0.235327D+01      0.784965D+01
   x         -0.253761D-01     -0.644996D-01     -0.215148D+00
   y          0.923732D+00      0.234789D+01      0.783172D+01
   z          0.571602D-01      0.145287D+00      0.484624D+00

 Dipole polarizability, Alpha (input orientation).
 (esu units = cm**3 , SI units = C**2 m**2 J**-1)
 Alpha(0;0):
               (au)            (10**-24 esu)      (10**-40 SI)
   iso        0.194224D+02      0.287810D+01      0.320231D+01
   aniso      0.692257D+01      0.102582D+01      0.114138D+01
   xx         0.171006D+02      0.253405D+01      0.281951D+01
   yx        -0.457697D+00     -0.678237D-01     -0.754640D-01
   yy         0.238390D+02      0.353258D+01      0.393052D+01
   zx         0.104004D+01      0.154118D+00      0.171480D+00
   zy         0.199352D+00      0.295410D-01      0.328688D-01
   zz         0.173274D+02      0.256766D+01      0.285691D+01

 ----------------------------------------------------------------------

 Dipole orientation:
     6          2.93883088          0.96637514         -0.21619604
     9          3.99990846         -0.16359746         -2.15936373
     1          3.20740598          0.68038758          3.21841809
     8          3.94507834         -0.10509890          1.75468096

 Electric dipole moment (dipole orientation):
 (Debye = 10**-18 statcoulomb cm , SI units = C m)
                  (au)            (Debye)         (10**-30 SI)
   Tot        0.925846D+00      0.235327D+01      0.784965D+01
   x          0.000000D+00      0.000000D+00      0.000000D+00
   y          0.000000D+00      0.000000D+00      0.000000D+00
   z          0.925846D+00      0.235327D+01      0.784965D+01

 Dipole polarizability, Alpha (dipole orientation).
 (esu units = cm**3 , SI units = C**2 m**2 J**-1)
 Alpha(0;0):
               (au)            (10**-24 esu)      (10**-40 SI)
   iso        0.194224D+02      0.287810D+01      0.320231D+01
   aniso      0.692257D+01      0.102582D+01      0.114138D+01
   xx         0.171389D+02      0.253973D+01      0.282583D+01
   yx        -0.106521D+01     -0.157848D+00     -0.175630D+00
   yy         0.172729D+02      0.255958D+01      0.284792D+01
   zx        -0.213312D+00     -0.316096D-01     -0.351704D-01
   zy         0.227295D+00      0.336816D-01      0.374758D-01
   zz         0.238552D+02      0.353498D+01      0.393319D+01

 ----------------------------------------------------------------------
 1\1\GINC-CCLEARTI\Freq\UwB97XD\6-311+G(2d,2p)\C1H1F1O1\RAPPE\16-Oct-20
 25\0\\#N Geom=AllCheck Guess=TCheck SCRF=Check GenChk UwB97XD/6-311+G(
 2d,2p) Freq\\Title Card Required\\0,1\C,1.5703687923,-0.0421564385,-0.
 4746541771\F,2.1442523993,-1.090965876,0.0738414119\H,1.6586786493,1.7
 654218971,-0.2075557792\O,2.0592861591,0.9767124173,0.1700345444\\Vers
 ion=EM64M-G16RevA.03\State=1-A\HF=-213.7068567\S2=0.\S2-1=0.\S2A=0.\RM
 SD=2.531e-09\RMSF=4.503e-05\ZeroPoint=0.0206208\Thermal=0.0237203\Dipo
 le=-0.0253761,0.9237316,0.0571602\DipoleDeriv=0.2357207,-0.0771383,0.5
 129594,-0.0848549,1.6416513,0.0778057,0.5122455,0.0864914,0.3579632,-0
 .2687668,0.5472925,-0.2432952,0.2108058,-0.98636,0.1464091,-0.2745111,
 0.525053,-0.2676403,0.2889398,0.0014562,-0.0211957,0.0122926,0.4467027
 ,0.0267161,-0.0201908,0.0145143,0.2865248,-0.2558937,-0.4716104,-0.248
 4685,-0.1382435,-1.101994,-0.250931,-0.2175436,-0.6260587,-0.3768477\P
 olar=17.1006091,-0.4576969,23.8390246,1.0400428,0.1993524,17.3274492\Q
 uadrupole=-1.1301008,2.6805138,-1.550413,-0.9406397,-1.1381215,-0.7915
 012\PG=C01 [X(C1H1F1O1)]\NImag=0\\0.21765594,-0.00262010,0.46044424,0.
 23493723,0.03896173,0.27664530,-0.10811750,0.10476799,-0.10146301,0.08
 438595,0.08666831,-0.18679238,0.08106374,-0.10263409,0.31784685,-0.103
 14202,0.10143141,-0.11596960,0.07441167,-0.08691705,0.08547049,-0.0021
 7013,-0.01519041,0.01080464,0.00873509,-0.00518221,-0.00598382,0.11293
 621,0.02138356,-0.03752445,0.02178951,-0.00614185,-0.00382019,-0.00853
 034,-0.16546939,0.39335523,0.01419891,-0.01936575,0.00115591,-0.006073
 38,-0.00744913,0.00610069,0.09058526,-0.15143542,0.10666532,-0.1073683
 1,-0.08695748,-0.14427886,0.01499647,0.02114799,0.03471417,-0.11950116
 ,0.15022768,-0.09871079,0.21187300,-0.10543178,-0.23612741,-0.14181498
 ,0.00400795,-0.12723428,-0.00598403,0.18584201,-0.35201058,0.17825029,
 -0.08441818,0.71537227,-0.14599411,-0.12102740,-0.16183162,0.03312471,
 0.01330244,0.02439842,-0.09540608,0.13817624,-0.11392192,0.20827548,-0
 .03045128,0.25135512\\-0.00001806,-0.00010608,-0.00003133,-0.00002534,
 0.00006065,-0.00002167,0.00000199,-0.00000679,0.00000326,0.00004141,0.
 00005222,0.00004974\\\@


 SUCCESS-- IF YOU HAVE TRIED TO DO SOMETHING AND FAILED
           YOU ARE BETTER OFF THAN IF YOU HAD TRIED TO DO
           NOTHING AND SUCCEEDED.

                   -- FROM THE BACK OF A SUGAR PACKET
 Job cpu time:       0 days  0 hours  6 minutes 18.1 seconds.
 Elapsed time:       0 days  0 hours  0 minutes 16.1 seconds.
 File lengths (MBytes):  RWF=     12 Int=      0 D2E=      0 Chk=      2 Scr=      1
 Normal termination of Gaussian 16 at Thu Oct 16 20:03:36 2025.
