 Entering Gaussian System, Link 0=/applications/g16/g16/g16
 Initial command:
 /applications/g16/g16/l1.exe "/scratch/g98/Gau-97472.inp" -scrdir="/scratch/g98/"
 Entering Link 1 = /applications/g16/g16/l1.exe PID=     97473.
  
 Copyright (c) 1988,1990,1992,1993,1995,1998,2003,2009,2016,
            Gaussian, Inc.  All Rights Reserved.
  
 This is part of the Gaussian(R) 16 program.  It is based on
 the Gaussian(R) 09 system (copyright 2009, Gaussian, Inc.),
 the Gaussian(R) 03 system (copyright 2003, Gaussian, Inc.),
 the Gaussian(R) 98 system (copyright 1998, Gaussian, Inc.),
 the Gaussian(R) 94 system (copyright 1995, Gaussian, Inc.),
 the Gaussian 92(TM) system (copyright 1992, Gaussian, Inc.),
 the Gaussian 90(TM) system (copyright 1990, Gaussian, Inc.),
 the Gaussian 88(TM) system (copyright 1988, Gaussian, Inc.),
 the Gaussian 86(TM) system (copyright 1986, Carnegie Mellon
 University), and the Gaussian 82(TM) system (copyright 1983,
 Carnegie Mellon University). Gaussian is a federally registered
 trademark of Gaussian, Inc.
  
 This software contains proprietary and confidential information,
 including trade secrets, belonging to Gaussian, Inc.
  
 This software is provided under written license and may be
 used, copied, transmitted, or stored only in accord with that
 written license.
  
 The following legend is applicable only to US Government
 contracts under FAR:
  
                    RESTRICTED RIGHTS LEGEND
  
 Use, reproduction and disclosure by the US Government is
 subject to restrictions as set forth in subparagraphs (a)
 and (c) of the Commercial Computer Software - Restricted
 Rights clause in FAR 52.227-19.
  
 Gaussian, Inc.
 340 Quinnipiac St., Bldg. 40, Wallingford CT 06492
  
  
 ---------------------------------------------------------------
 Warning -- This program may not be used in any manner that
 competes with the business of Gaussian, Inc. or will provide
 assistance to any competitor of Gaussian, Inc.  The licensee
 of this program is prohibited from giving any competitor of
 Gaussian, Inc. access to this program.  By using this program,
 the user acknowledges that Gaussian, Inc. is engaged in the
 business of creating and licensing software in the field of
 computational chemistry and represents and warrants to the
 licensee that it is not a competitor of Gaussian, Inc. and that
 it will not use this program in any manner prohibited above.
 ---------------------------------------------------------------
  

 Cite this work as:
 Gaussian 16, Revision A.03,
 M. J. Frisch, G. W. Trucks, H. B. Schlegel, G. E. Scuseria, 
 M. A. Robb, J. R. Cheeseman, G. Scalmani, V. Barone, 
 G. A. Petersson, H. Nakatsuji, X. Li, M. Caricato, A. V. Marenich, 
 J. Bloino, B. G. Janesko, R. Gomperts, B. Mennucci, H. P. Hratchian, 
 J. V. Ortiz, A. F. Izmaylov, J. L. Sonnenberg, D. Williams-Young, 
 F. Ding, F. Lipparini, F. Egidi, J. Goings, B. Peng, A. Petrone, 
 T. Henderson, D. Ranasinghe, V. G. Zakrzewski, J. Gao, N. Rega, 
 G. Zheng, W. Liang, M. Hada, M. Ehara, K. Toyota, R. Fukuda, 
 J. Hasegawa, M. Ishida, T. Nakajima, Y. Honda, O. Kitao, H. Nakai, 
 T. Vreven, K. Throssell, J. A. Montgomery, Jr., J. E. Peralta, 
 F. Ogliaro, M. J. Bearpark, J. J. Heyd, E. N. Brothers, K. N. Kudin, 
 V. N. Staroverov, T. A. Keith, R. Kobayashi, J. Normand, 
 K. Raghavachari, A. P. Rendell, J. C. Burant, S. S. Iyengar, 
 J. Tomasi, M. Cossi, J. M. Millam, M. Klene, C. Adamo, R. Cammi, 
 J. W. Ochterski, R. L. Martin, K. Morokuma, O. Farkas, 
 J. B. Foresman, and D. J. Fox, Gaussian, Inc., Wallingford CT, 2016.
 
 ******************************************
 Gaussian 16:  EM64M-G16RevA.03 25-Dec-2016
                 4-Dec-2024 
 ******************************************
 %mem=48GB
 %nprocshared=24
 Will use up to   24 processors via shared memory.
 %chk=ch2F.chk
 ----------------------------------------------------------------------
 # opt freq uwb97xd/6-311+g(2d,2p) geom=connectivity integral=grid=supe
 rfinegrid scf=(xqc,tight)
 ----------------------------------------------------------------------
 1/18=20,19=15,26=5,38=1,57=2/1,3;
 2/9=110,12=2,17=6,18=5,40=1/2;
 3/5=4,6=6,7=212,11=2,25=1,30=1,71=1,74=-58,75=-7,116=2/1,2,3;
 4//1;
 5/5=2,8=3,13=1,32=2,38=5/2,8;
 6/7=2,8=2,9=2,10=2,28=1/1;
 7//1,2,3,16;
 1/18=20,19=15,26=5/3(2);
 2/9=110/2;
 99//99;
 2/9=110/2;
 3/5=4,6=6,7=212,11=2,25=1,30=1,71=1,74=-58,75=-7,116=2/1,2,3;
 4/5=5,16=3,69=1/1;
 5/5=2,8=3,13=1,32=2,38=5/2,8;
 7//1,2,3,16;
 1/18=20,19=15,26=5/3(-5);
 2/9=110/2;
 6/7=2,8=2,9=2,10=2,19=2,28=1/1;
 99/9=1/99;
 -------------------
 Title Card Required
 -------------------
 Symbolic Z-matrix:
 Charge =  0 Multiplicity = 2
 C                    -2.19971   0.67764   0. 
 H                    -2.1841    1.18206  -0.95473 
 H                    -2.18411   1.18205   0.95474 
 F                    -2.82872  -0.49556  0. 
 

 GradGradGradGradGradGradGradGradGradGradGradGradGradGradGradGradGradGrad
 Berny optimization.
 Initialization pass.
                           ----------------------------
                           !    Initial Parameters    !
                           ! (Angstroms and Degrees)  !
 --------------------------                            --------------------------
 ! Name  Definition              Value          Derivative Info.                !
 --------------------------------------------------------------------------------
 ! R1    R(1,2)                  1.0799         estimate D2E/DX2                !
 ! R2    R(1,3)                  1.0799         estimate D2E/DX2                !
 ! R3    R(1,4)                  1.3312         estimate D2E/DX2                !
 ! A1    A(2,1,3)              124.2795         estimate D2E/DX2                !
 ! A2    A(2,1,4)              114.7389         estimate D2E/DX2                !
 ! A3    A(3,1,4)              114.7389         estimate D2E/DX2                !
 ! D1    D(2,1,4,3)           -153.524          estimate D2E/DX2                !
 --------------------------------------------------------------------------------
 Trust Radius=3.00D-01 FncErr=1.00D-07 GrdErr=1.00D-07 EigMax=2.50D+02 EigMin=1.00D-04
 Number of steps in this run=     20 maximum allowed number of steps=    100.
 GradGradGradGradGradGradGradGradGradGradGradGradGradGradGradGradGradGrad

                          Input orientation:                          
 ---------------------------------------------------------------------
 Center     Atomic      Atomic             Coordinates (Angstroms)
 Number     Number       Type             X           Y           Z
 ---------------------------------------------------------------------
      1          6           0       -2.199705    0.677640    0.000004
      2          1           0       -2.184104    1.182061   -0.954727
      3          1           0       -2.184105    1.182051    0.954739
      4          9           0       -2.828718   -0.495558   -0.000002
 ---------------------------------------------------------------------
                    Distance matrix (angstroms):
                    1          2          3          4
     1  C    0.000000
     2  H    1.079905   0.000000
     3  H    1.079904   1.909466   0.000000
     4  F    1.331184   2.035051   2.035050   0.000000
 Stoichiometry    CH2F(2)
 Framework group  C1[X(CH2F)]
 Deg. of freedom     6
 Full point group                 C1      NOp   1
 Largest Abelian subgroup         C1      NOp   1
 Largest concise Abelian subgroup C1      NOp   1
                         Standard orientation:                         
 ---------------------------------------------------------------------
 Center     Atomic      Atomic             Coordinates (Angstroms)
 Number     Number       Type             X           Y           Z
 ---------------------------------------------------------------------
      1          6           0        0.649167   -0.000000   -0.061911
      2          1           0        1.112665    0.954733    0.137712
      3          1           0        1.112663   -0.954733    0.137712
      4          9           0       -0.680037    0.000000    0.010671
 ---------------------------------------------------------------------
 Rotational constants (GHZ):         263.9589565          31.2539178          28.1860990
 Standard basis: 6-311+G(2d,2p) (5D, 7F)
 There are    76 symmetry adapted cartesian basis functions of A   symmetry.
 There are    72 symmetry adapted basis functions of A   symmetry.
    72 basis functions,   106 primitive gaussians,    76 cartesian basis functions
     9 alpha electrons        8 beta electrons
       nuclear repulsion energy        32.3042469408 Hartrees.
 NAtoms=    4 NActive=    4 NUniq=    4 SFac= 1.00D+00 NAtFMM=   60 NAOKFM=F Big=F
 Integral buffers will be    131072 words long.
 Raffenetti 2 integral format.
 Two-electron integral symmetry is turned on.
 Nuclear repulsion after empirical dispersion term =       32.3040112159 Hartrees.
 One-electron integrals computed using PRISM.
 NBasis=    72 RedAO= T EigKep=  2.02D-03  NBF=    72
 NBsUse=    72 1.00D-06 EigRej= -1.00D+00 NBFU=    72
 ExpMin= 4.38D-02 ExpMax= 1.14D+04 ExpMxC= 1.72D+03 IAcc=3 IRadAn=         7 AccDes= 0.00D+00
 Harris functional with IExCor= 4639 and IRadAn=       7 diagonalized for initial guess.
 HarFok:  IExCor= 4639 AccDes= 0.00D+00 IRadAn=         7 IDoV= 1 UseB2=F ITyADJ=14
 ICtDFT=  3500011 ScaDFX=  1.000000  1.000000  1.000000  1.000000
 FoFCou: FMM=F IPFlag=           0 FMFlag=      100000 FMFlg1=           0
         NFxFlg=           0 DoJE=T BraDBF=F KetDBF=T FulRan=T
         wScrn=  0.000000 ICntrl=       500 IOpCl=  0 I1Cent=   200000004 NGrid=           0
         NMat0=    1 NMatS0=      1 NMatT0=    0 NMatD0=    1 NMtDS0=    0 NMtDT0=    0
 Petite list used in FoFCou.
 Initial guess <Sx>= 0.0000 <Sy>= 0.0000 <Sz>= 0.5000 <S**2>= 0.7500 S= 0.5000
 Keep R1 and R2 ints in memory in canonical form, NReq=35519536.
 Requested convergence on RMS density matrix=1.00D-08 within  32 cycles.
 Requested convergence on MAX density matrix=1.00D-06.
 Requested convergence on             energy=1.00D-06.
 No special actions if energy rises.
 SCF Done:  E(UwB97XD) =  -139.076367766     A.U. after   12 cycles
            NFock= 12  Conv=0.29D-08     -V/T= 2.0028
 <Sx>= 0.0000 <Sy>= 0.0000 <Sz>= 0.5000 <S**2>= 0.7538 S= 0.5019
 <L.S>= 0.000000000000E+00
 Annihilation of the first spin contaminant:
 S**2 before annihilation     0.7538,   after     0.7500
 QCSCF skips out because SCF is already converged.

 **********************************************************************

            Population analysis using the SCF density.

 **********************************************************************

 Orbital symmetries:
 Alpha Orbitals:
       Occupied  (A) (A) (A) (A) (A) (A) (A) (A) (A)
       Virtual   (A) (A) (A) (A) (A) (A) (A) (A) (A) (A) (A) (A)
                 (A) (A) (A) (A) (A) (A) (A) (A) (A) (A) (A) (A)
                 (A) (A) (A) (A) (A) (A) (A) (A) (A) (A) (A) (A)
                 (A) (A) (A) (A) (A) (A) (A) (A) (A) (A) (A) (A)
                 (A) (A) (A) (A) (A) (A) (A) (A) (A) (A) (A) (A)
                 (A) (A) (A)
 Beta  Orbitals:
       Occupied  (A) (A) (A) (A) (A) (A) (A) (A)
       Virtual   (A) (A) (A) (A) (A) (A) (A) (A) (A) (A) (A) (A)
                 (A) (A) (A) (A) (A) (A) (A) (A) (A) (A) (A) (A)
                 (A) (A) (A) (A) (A) (A) (A) (A) (A) (A) (A) (A)
                 (A) (A) (A) (A) (A) (A) (A) (A) (A) (A) (A) (A)
                 (A) (A) (A) (A) (A) (A) (A) (A) (A) (A) (A) (A)
                 (A) (A) (A) (A)
 The electronic state is 2-A.
 Alpha  occ. eigenvalues --  -24.83106 -10.37025  -1.34651  -0.79617  -0.61409
 Alpha  occ. eigenvalues --   -0.61292  -0.57547  -0.46576  -0.30623
 Alpha virt. eigenvalues --    0.07556   0.09163   0.09831   0.11487   0.20303
 Alpha virt. eigenvalues --    0.24911   0.25945   0.31657   0.34428   0.35106
 Alpha virt. eigenvalues --    0.41700   0.50069   0.52724   0.58353   0.59219
 Alpha virt. eigenvalues --    0.59629   0.66598   0.76615   0.80834   0.93495
 Alpha virt. eigenvalues --    0.97331   1.03919   1.11186   1.19546   1.23146
 Alpha virt. eigenvalues --    1.28750   1.40083   1.41270   1.45082   1.48239
 Alpha virt. eigenvalues --    1.54033   1.94901   2.16918   2.18919   2.32259
 Alpha virt. eigenvalues --    2.52699   2.66045   2.72115   2.77622   2.85755
 Alpha virt. eigenvalues --    3.22323   3.24882   3.27564   3.32639   3.34694
 Alpha virt. eigenvalues --    3.61920   3.97391   3.98802   4.03528   4.04629
 Alpha virt. eigenvalues --    4.10536   4.79295   5.01746   6.38264   6.40326
 Alpha virt. eigenvalues --    6.72097   9.16327   9.17659   9.31855   9.44625
 Alpha virt. eigenvalues --    9.76001  24.02919  66.92293
  Beta  occ. eigenvalues --  -24.82724 -10.35811  -1.33596  -0.76143  -0.60455
  Beta  occ. eigenvalues --   -0.60004  -0.53986  -0.45865
  Beta virt. eigenvalues --    0.00818   0.08779   0.09748   0.10601   0.15205
  Beta virt. eigenvalues --    0.21736   0.25637   0.27838   0.31917   0.34854
  Beta virt. eigenvalues --    0.35403   0.42089   0.51735   0.53563   0.59948
  Beta virt. eigenvalues --    0.60137   0.63938   0.68005   0.78074   0.83038
  Beta virt. eigenvalues --    0.93588   0.98657   1.04590   1.12253   1.20628
  Beta virt. eigenvalues --    1.23802   1.29006   1.40985   1.41518   1.45538
  Beta virt. eigenvalues --    1.48856   1.55156   1.95212   2.17836   2.19801
  Beta virt. eigenvalues --    2.33949   2.52602   2.67025   2.72580   2.79407
  Beta virt. eigenvalues --    2.92197   3.24338   3.27966   3.30875   3.37003
  Beta virt. eigenvalues --    3.40661   3.63777   3.97490   3.99520   4.05622
  Beta virt. eigenvalues --    4.06252   4.10883   4.80827   5.03111   6.39863
  Beta virt. eigenvalues --    6.40657   6.72691   9.17774   9.19118   9.33274
  Beta virt. eigenvalues --    9.44922   9.76565  24.05292  66.92576
          Condensed to atoms (all electrons):
               1          2          3          4
     1  C    5.038331   0.429231   0.429231   0.064083
     2  H    0.429231   0.544872  -0.036466  -0.037635
     3  H    0.429231  -0.036466   0.544872  -0.037635
     4  F    0.064083  -0.037635  -0.037635   9.250307
          Atomic-Atomic Spin Densities.
               1          2          3          4
     1  C    1.154948  -0.000382  -0.000382  -0.140615
     2  H   -0.000382  -0.038630   0.007129   0.001953
     3  H   -0.000382   0.007129  -0.038630   0.001953
     4  F   -0.140615   0.001953   0.001953   0.183002
 Mulliken charges and spin densities:
               1          2
     1  C    0.039124   1.013568
     2  H    0.099998  -0.029931
     3  H    0.099998  -0.029931
     4  F   -0.239120   0.046294
 Sum of Mulliken charges =  -0.00000   1.00000
 Mulliken charges and spin densities with hydrogens summed into heavy atoms:
               1          2
     1  C    0.239120   0.953706
     4  F   -0.239120   0.046294
 Electronic spatial extent (au):  <R**2>=             65.2395
 Charge=             -0.0000 electrons
 Dipole moment (field-independent basis, Debye):
    X=              1.3276    Y=             -0.0000    Z=              0.3481  Tot=              1.3724
 Quadrupole moment (field-independent basis, Debye-Ang):
   XX=            -11.5456   YY=            -10.5449   ZZ=            -12.5759
   XY=              0.0000   XZ=              0.4202   YZ=             -0.0000
 Traceless Quadrupole moment (field-independent basis, Debye-Ang):
   XX=              0.0098   YY=              1.0106   ZZ=             -1.0204
   XY=              0.0000   XZ=              0.4202   YZ=             -0.0000
 Octapole moment (field-independent basis, Debye-Ang**2):
  XXX=             -4.4331  YYY=             -0.0000  ZZZ=              0.8205  XYY=             -0.3320
  XXY=              0.0000  XXZ=              0.6171  XZZ=             -2.7388  YZZ=             -0.0000
  YYZ=              0.4964  XYZ=             -0.0000
 Hexadecapole moment (field-independent basis, Debye-Ang**3):
 XXXX=            -46.5423 YYYY=            -15.7612 ZZZZ=            -13.2552 XXXY=              0.0000
 XXXZ=              0.7878 YYYX=              0.0000 YYYZ=             -0.0000 ZZZX=              0.6016
 ZZZY=             -0.0000 XXYY=             -9.3168 XXZZ=            -11.1508 YYZZ=             -5.2481
 XXYZ=             -0.0000 YYXZ=              0.5147 ZZXY=             -0.0000
 N-N= 3.230401121586D+01 E-N=-3.941578112883D+02  KE= 1.386887934723D+02
                          Isotropic Fermi Contact Couplings
        Atom                 a.u.       MegaHertz       Gauss      10(-4) cm-1
     1  C(13)              0.12988     146.00552      52.09840      48.70220
     2  H(1)              -0.01158     -51.75079     -18.46597     -17.26221
     3  H(1)              -0.01158     -51.75077     -18.46596     -17.26220
     4  F(19)              0.03779     158.97796      56.72729      53.02934
 --------------------------------------------------------
       Center         ----  Spin Dipole Couplings  ----
                      3XX-RR        3YY-RR        3ZZ-RR
 --------------------------------------------------------
     1   Atom       -0.583571     -0.566198      1.149768
     2   Atom       -0.047201      0.047540     -0.000339
     3   Atom       -0.047201      0.047540     -0.000339
     4   Atom       -0.544239     -0.445692      0.989931
 --------------------------------------------------------
                        XY            XZ            YZ
 --------------------------------------------------------
     1   Atom        0.000000     -0.076183      0.000000
     2   Atom        0.056618      0.006467      0.016056
     3   Atom       -0.056618      0.006467     -0.016056
     4   Atom        0.000000     -0.096270      0.000000
 --------------------------------------------------------


 ---------------------------------------------------------------------------------
              Anisotropic Spin Dipole Couplings in Principal Axis System
 ---------------------------------------------------------------------------------

       Atom             a.u.   MegaHertz   Gauss  10(-4) cm-1        Axes

              Baa    -0.5869   -78.758   -28.103   -26.271  0.9990 -0.0000  0.0438
     1 C(13)  Bbb    -0.5662   -75.978   -27.111   -25.344  0.0000  1.0000 -0.0000
              Bcc     1.1531   154.736    55.214    51.614 -0.0438  0.0000  0.9990
 
              Baa    -0.0737   -39.304   -14.025   -13.110  0.9053 -0.4246  0.0131
     2 H(1)   Bbb    -0.0041    -2.214    -0.790    -0.739 -0.1033 -0.1901  0.9763
              Bcc     0.0778    41.518    14.815    13.849  0.4121  0.8852  0.2160
 
              Baa    -0.0737   -39.304   -14.025   -13.110  0.9053  0.4246  0.0131
     3 H(1)   Bbb    -0.0041    -2.214    -0.790    -0.739 -0.1033  0.1901  0.9763
              Bcc     0.0778    41.518    14.815    13.849 -0.4121  0.8852 -0.2160
 
              Baa    -0.5503  -276.353   -98.610   -92.181  0.9981 -0.0000  0.0624
     4 F(19)  Bbb    -0.4457  -223.838   -79.871   -74.664  0.0000  1.0000 -0.0000
              Bcc     0.9959   500.191   178.481   166.846 -0.0624  0.0000  0.9981
 

 ---------------------------------------------------------------------------------

 Calling FoFJK, ICntrl=      2127 FMM=F ISym2X=0 I1Cent= 0 IOpClX= 1 NMat=1 NMatS=1 NMatT=0.
 ***** Axes restored to original set *****
 -------------------------------------------------------------------
 Center     Atomic                   Forces (Hartrees/Bohr)
 Number     Number              X              Y              Z
 -------------------------------------------------------------------
      1        6           0.001092471    0.003342316   -0.000000659
      2        1           0.000215743   -0.000075328   -0.000198333
      3        1           0.000215768   -0.000074937    0.000199029
      4        9          -0.001523981   -0.003192050   -0.000000037
 -------------------------------------------------------------------
 Cartesian Forces:  Max     0.003342316 RMS     0.001445095

 GradGradGradGradGradGradGradGradGradGradGradGradGradGradGradGradGradGrad
 Berny optimization.
 FormGI is forming the generalized inverse of G from B-inverse, IUseBI=4.
 Internal  Forces:  Max     0.003533324 RMS     0.001348905
 Search for a local minimum.
 Step number   1 out of a maximum of   20
 All quantities printed in internal units (Hartrees-Bohrs-Radians)
 Mixed Optimization -- RFO/linear search
 Second derivative matrix not updated -- first step.
 The second derivative matrix:
                          R1        R2        R3        A1        A2
           R1           0.36006
           R2           0.00000   0.36006
           R3           0.00000   0.00000   0.59227
           A1           0.00000   0.00000   0.00000   0.16000
           A2           0.00000   0.00000   0.00000   0.00000   0.16000
           A3           0.00000   0.00000   0.00000   0.00000   0.00000
           D1           0.00000   0.00000   0.00000   0.00000   0.00000
                          A3        D1
           A3           0.16000
           D1           0.00000   0.02337
 ITU=  0
     Eigenvalues ---    0.03333   0.16000   0.16000   0.36006   0.36006
     Eigenvalues ---    0.59227
 RFO step:  Lambda=-2.74715395D-05 EMin= 3.33313964D-02
 Linear search not attempted -- first point.
 Iteration  1 RMS(Cart)=  0.00398220 RMS(Int)=  0.00002473
 Iteration  2 RMS(Cart)=  0.00001251 RMS(Int)=  0.00002087
 Iteration  3 RMS(Cart)=  0.00000000 RMS(Int)=  0.00002087
 Variable       Old X    -DE/DX   Delta X   Delta X   Delta X     New X
                                 (Linear)    (Quad)   (Total)
    R1        2.04073   0.00014   0.00000   0.00040   0.00040   2.04112
    R2        2.04072   0.00014   0.00000   0.00040   0.00040   2.04112
    R3        2.51557   0.00353   0.00000   0.00597   0.00597   2.52154
    A1        2.16909   0.00012   0.00000   0.00257   0.00253   2.17162
    A2        2.00257   0.00005   0.00000   0.00189   0.00187   2.00444
    A3        2.00257   0.00005   0.00000   0.00189   0.00187   2.00444
    D1       -2.67950  -0.00044   0.00000  -0.01319  -0.01320  -2.69270
         Item               Value     Threshold  Converged?
 Maximum Force            0.003533     0.000450     NO 
 RMS     Force            0.001349     0.000300     NO 
 Maximum Displacement     0.005984     0.001800     NO 
 RMS     Displacement     0.003977     0.001200     NO 
 Predicted change in Energy=-1.376239D-05
 GradGradGradGradGradGradGradGradGradGradGradGradGradGradGradGradGradGrad

                          Input orientation:                          
 ---------------------------------------------------------------------
 Center     Atomic      Atomic             Coordinates (Angstroms)
 Number     Number       Type             X           Y           Z
 ---------------------------------------------------------------------
      1          6           0       -2.202784    0.679550    0.000004
      2          1           0       -2.182428    1.182689   -0.955552
      3          1           0       -2.182429    1.182680    0.955564
      4          9           0       -2.828991   -0.498725   -0.000002
 ---------------------------------------------------------------------
                    Distance matrix (angstroms):
                    1          2          3          4
     1  C    0.000000
     2  H    1.080116   0.000000
     3  H    1.080116   1.911116   0.000000
     4  F    1.334341   2.039184   2.039184   0.000000
 Stoichiometry    CH2F(2)
 Framework group  C1[X(CH2F)]
 Deg. of freedom     6
 Full point group                 C1      NOp   1
 Largest Abelian subgroup         C1      NOp   1
 Largest concise Abelian subgroup C1      NOp   1
                         Standard orientation:                         
 ---------------------------------------------------------------------
 Center     Atomic      Atomic             Coordinates (Angstroms)
 Number     Number       Type             X           Y           Z
 ---------------------------------------------------------------------
      1          6           0        0.650755    0.000000   -0.060127
      2          1           0        1.115486    0.955558    0.133738
      3          1           0        1.115486   -0.955558    0.133738
      4          9           0       -0.681722   -0.000000    0.010365
 ---------------------------------------------------------------------
 Rotational constants (GHZ):         264.1265417          31.1096415          28.0569080
 Standard basis: 6-311+G(2d,2p) (5D, 7F)
 There are    76 symmetry adapted cartesian basis functions of A   symmetry.
 There are    72 symmetry adapted basis functions of A   symmetry.
    72 basis functions,   106 primitive gaussians,    76 cartesian basis functions
     9 alpha electrons        8 beta electrons
       nuclear repulsion energy        32.2425856224 Hartrees.
 NAtoms=    4 NActive=    4 NUniq=    4 SFac= 1.00D+00 NAtFMM=   60 NAOKFM=F Big=F
 Integral buffers will be    131072 words long.
 Raffenetti 2 integral format.
 Two-electron integral symmetry is turned on.
 Nuclear repulsion after empirical dispersion term =       32.2423479174 Hartrees.
 One-electron integrals computed using PRISM.
 NBasis=    72 RedAO= T EigKep=  2.04D-03  NBF=    72
 NBsUse=    72 1.00D-06 EigRej= -1.00D+00 NBFU=    72
 Initial guess from the checkpoint file:  "ch2F.chk"
 B after Tr=    -0.000000   -0.000000    0.000000
         Rot=    1.000000   -0.000000   -0.000003   -0.000000 Ang=  -0.00 deg.
 Initial guess <Sx>= 0.0000 <Sy>= 0.0000 <Sz>= 0.5000 <S**2>= 0.7539 S= 0.5019
 Keep R1 and R2 ints in memory in canonical form, NReq=35519536.
 Requested convergence on RMS density matrix=1.00D-08 within  32 cycles.
 Requested convergence on MAX density matrix=1.00D-06.
 Requested convergence on             energy=1.00D-06.
 No special actions if energy rises.
 SCF Done:  E(UwB97XD) =  -139.076384580     A.U. after   10 cycles
            NFock= 10  Conv=0.33D-08     -V/T= 2.0029
 <Sx>= 0.0000 <Sy>= 0.0000 <Sz>= 0.5000 <S**2>= 0.7539 S= 0.5019
 <L.S>= 0.000000000000E+00
 Annihilation of the first spin contaminant:
 S**2 before annihilation     0.7539,   after     0.7500
 QCSCF skips out because SCF is already converged.
 Calling FoFJK, ICntrl=      2127 FMM=F ISym2X=0 I1Cent= 0 IOpClX= 1 NMat=1 NMatS=1 NMatT=0.
 ***** Axes restored to original set *****
 -------------------------------------------------------------------
 Center     Atomic                   Forces (Hartrees/Bohr)
 Number     Number              X              Y              Z
 -------------------------------------------------------------------
      1        6           0.000343309    0.001409809    0.000000004
      2        1          -0.000001811   -0.000374744    0.000012885
      3        1          -0.000001817   -0.000374759   -0.000012895
      4        9          -0.000339681   -0.000660306    0.000000006
 -------------------------------------------------------------------
 Cartesian Forces:  Max     0.001409809 RMS     0.000494808

 GradGradGradGradGradGradGradGradGradGradGradGradGradGradGradGradGradGrad
 Berny optimization.
 Using GEDIIS/GDIIS optimizer.
 FormGI is forming the generalized inverse of G from B-inverse, IUseBI=4.
 Internal  Forces:  Max     0.000742479 RMS     0.000357410
 Search for a local minimum.
 Step number   2 out of a maximum of   20
 All quantities printed in internal units (Hartrees-Bohrs-Radians)
 Mixed Optimization -- En-DIIS/RFO-DIIS
 Update second derivatives using D2CorX and points    1    2
 DE= -1.68D-05 DEPred=-1.38D-05 R= 1.22D+00
 TightC=F SS=  1.41D+00  RLast= 1.50D-02 DXNew= 5.0454D-01 4.4858D-02
 Trust test= 1.22D+00 RLast= 1.50D-02 DXMaxT set to 3.00D-01
 The second derivative matrix:
                          R1        R2        R3        A1        A2
           R1           0.36443
           R2           0.00438   0.36444
           R3           0.02489   0.02490   0.50432
           A1          -0.00679  -0.00681  -0.09181   0.15827
           A2           0.00234   0.00234  -0.00543  -0.00797   0.15972
           A3           0.00234   0.00234  -0.00543  -0.00797  -0.00028
           D1          -0.00322  -0.00322  -0.00116   0.00897  -0.00032
                          A3        D1
           A3           0.15972
           D1          -0.00032   0.02446
 ITU=  1  0
 Use linear search instead of GDIIS.
     Eigenvalues ---    0.02895   0.15773   0.16000   0.36006   0.36050
     Eigenvalues ---    0.52596
 RFO step:  Lambda=-3.12100498D-06 EMin= 2.89526584D-02
 Quartic linear search produced a step of  0.30232.
 Iteration  1 RMS(Cart)=  0.00187331 RMS(Int)=  0.00001065
 Iteration  2 RMS(Cart)=  0.00000451 RMS(Int)=  0.00000926
 Iteration  3 RMS(Cart)=  0.00000000 RMS(Int)=  0.00000926
 Variable       Old X    -DE/DX   Delta X   Delta X   Delta X     New X
                                 (Linear)    (Quad)   (Total)
    R1        2.04112  -0.00019   0.00012  -0.00075  -0.00063   2.04050
    R2        2.04112  -0.00019   0.00012  -0.00075  -0.00063   2.04050
    R3        2.52154   0.00074   0.00180   0.00051   0.00231   2.52385
    A1        2.17162   0.00042   0.00077   0.00364   0.00439   2.17601
    A2        2.00444  -0.00020   0.00056  -0.00138  -0.00083   2.00361
    A3        2.00444  -0.00020   0.00056  -0.00138  -0.00083   2.00361
    D1       -2.69270  -0.00013  -0.00399  -0.00280  -0.00679  -2.69950
         Item               Value     Threshold  Converged?
 Maximum Force            0.000742     0.000450     NO 
 RMS     Force            0.000357     0.000300     NO 
 Maximum Displacement     0.003182     0.001800     NO 
 RMS     Displacement     0.001873     0.001200     NO 
 Predicted change in Energy=-2.464194D-06
 GradGradGradGradGradGradGradGradGradGradGradGradGradGradGradGradGradGrad

                          Input orientation:                          
 ---------------------------------------------------------------------
 Center     Atomic      Atomic             Coordinates (Angstroms)
 Number     Number       Type             X           Y           Z
 ---------------------------------------------------------------------
      1          6           0       -2.203915    0.681234    0.000004
      2          1           0       -2.181964    1.182051   -0.956361
      3          1           0       -2.181964    1.182041    0.956374
      4          9           0       -2.828789   -0.499132   -0.000002
 ---------------------------------------------------------------------
                    Distance matrix (angstroms):
                    1          2          3          4
     1  C    0.000000
     2  H    1.079784   0.000000
     3  H    1.079784   1.912735   0.000000
     4  F    1.335563   2.039455   2.039455   0.000000
 Stoichiometry    CH2F(2)
 Framework group  C1[X(CH2F)]
 Deg. of freedom     6
 Full point group                 C1      NOp   1
 Largest Abelian subgroup         C1      NOp   1
 Largest concise Abelian subgroup C1      NOp   1
                         Standard orientation:                         
 ---------------------------------------------------------------------
 Center     Atomic      Atomic             Coordinates (Angstroms)
 Number     Number       Type             X           Y           Z
 ---------------------------------------------------------------------
      1          6           0        0.651585    0.000000   -0.059227
      2          1           0        1.115028    0.956367    0.131862
      3          1           0        1.115028   -0.956367    0.131862
      4          9           0       -0.682174    0.000000    0.010182
 ---------------------------------------------------------------------
 Rotational constants (GHZ):         263.9877104          31.0706830          28.0170892
 Standard basis: 6-311+G(2d,2p) (5D, 7F)
 There are    76 symmetry adapted cartesian basis functions of A   symmetry.
 There are    72 symmetry adapted basis functions of A   symmetry.
    72 basis functions,   106 primitive gaussians,    76 cartesian basis functions
     9 alpha electrons        8 beta electrons
       nuclear repulsion energy        32.2239353415 Hartrees.
 NAtoms=    4 NActive=    4 NUniq=    4 SFac= 1.00D+00 NAtFMM=   60 NAOKFM=F Big=F
 Integral buffers will be    131072 words long.
 Raffenetti 2 integral format.
 Two-electron integral symmetry is turned on.
 Nuclear repulsion after empirical dispersion term =       32.2236971260 Hartrees.
 One-electron integrals computed using PRISM.
 NBasis=    72 RedAO= T EigKep=  2.05D-03  NBF=    72
 NBsUse=    72 1.00D-06 EigRej= -1.00D+00 NBFU=    72
 Initial guess from the checkpoint file:  "ch2F.chk"
 B after Tr=    -0.000000    0.000000    0.000000
         Rot=    1.000000   -0.000000    0.000050    0.000000 Ang=  -0.01 deg.
 Initial guess <Sx>= 0.0000 <Sy>= 0.0000 <Sz>= 0.5000 <S**2>= 0.7539 S= 0.5019
 Keep R1 and R2 ints in memory in canonical form, NReq=35519536.
 Requested convergence on RMS density matrix=1.00D-08 within  32 cycles.
 Requested convergence on MAX density matrix=1.00D-06.
 Requested convergence on             energy=1.00D-06.
 No special actions if energy rises.
 SCF Done:  E(UwB97XD) =  -139.076387634     A.U. after    9 cycles
            NFock=  9  Conv=0.91D-08     -V/T= 2.0029
 <Sx>= 0.0000 <Sy>= 0.0000 <Sz>= 0.5000 <S**2>= 0.7539 S= 0.5019
 <L.S>= 0.000000000000E+00
 Annihilation of the first spin contaminant:
 S**2 before annihilation     0.7539,   after     0.7500
 QCSCF skips out because SCF is already converged.
 Calling FoFJK, ICntrl=      2127 FMM=F ISym2X=0 I1Cent= 0 IOpClX= 1 NMat=1 NMatS=1 NMatT=0.
 ***** Axes restored to original set *****
 -------------------------------------------------------------------
 Center     Atomic                   Forces (Hartrees/Bohr)
 Number     Number              X              Y              Z
 -------------------------------------------------------------------
      1        6          -0.000061310    0.000197069    0.000000077
      2        1          -0.000001852   -0.000156079   -0.000017289
      3        1          -0.000001854   -0.000156120    0.000017211
      4        9           0.000065015    0.000115130    0.000000001
 -------------------------------------------------------------------
 Cartesian Forces:  Max     0.000197069 RMS     0.000095487

 GradGradGradGradGradGradGradGradGradGradGradGradGradGradGradGradGradGrad
 Berny optimization.
 Using GEDIIS/GDIIS optimizer.
 FormGI is forming the generalized inverse of G from B-inverse, IUseBI=4.
 Internal  Forces:  Max     0.000187545 RMS     0.000106580
 Search for a local minimum.
 Step number   3 out of a maximum of   20
 All quantities printed in internal units (Hartrees-Bohrs-Radians)
 Mixed Optimization -- En-DIIS/RFO-DIIS
 Swapping is turned off.
 Update second derivatives using D2CorX and points    1    2    3
 DE= -3.05D-06 DEPred=-2.46D-06 R= 1.24D+00
 TightC=F SS=  1.41D+00  RLast= 8.54D-03 DXNew= 5.0454D-01 2.5620D-02
 Trust test= 1.24D+00 RLast= 8.54D-03 DXMaxT set to 3.00D-01
 The second derivative matrix:
                          R1        R2        R3        A1        A2
           R1           0.36258
           R2           0.00253   0.36259
           R3           0.02954   0.02957   0.62612
           A1          -0.00058  -0.00060  -0.12035   0.13888
           A2           0.00024   0.00024   0.00218  -0.00120   0.15740
           A3           0.00024   0.00024   0.00218  -0.00120  -0.00260
           D1          -0.00513  -0.00514   0.00038   0.01561  -0.00253
                          A3        D1
           A3           0.15740
           D1          -0.00253   0.02261
 ITU=  1  1  0
     Eigenvalues ---    0.02323   0.13179   0.16000   0.35958   0.36006
     Eigenvalues ---    0.65086
 En-DIIS/RFO-DIIS/Sim-DIIS IScMMF=       -3 using points:     3    2
 RFO step:  Lambda=-6.78874105D-07.
 DidBck=F Rises=F RFO-DIIS coefs:    1.47542   -0.47542
 Iteration  1 RMS(Cart)=  0.00097103 RMS(Int)=  0.00000254
 Iteration  2 RMS(Cart)=  0.00000112 RMS(Int)=  0.00000218
 Iteration  3 RMS(Cart)=  0.00000000 RMS(Int)=  0.00000218
 Variable       Old X    -DE/DX   Delta X   Delta X   Delta X     New X
                                 (Linear)    (Quad)   (Total)
    R1        2.04050  -0.00006  -0.00030   0.00008  -0.00022   2.04028
    R2        2.04050  -0.00006  -0.00030   0.00008  -0.00022   2.04028
    R3        2.52385  -0.00013   0.00110  -0.00086   0.00024   2.52409
    A1        2.17601   0.00019   0.00209   0.00013   0.00222   2.17823
    A2        2.00361  -0.00009  -0.00040  -0.00002  -0.00042   2.00318
    A3        2.00361  -0.00009  -0.00040  -0.00002  -0.00042   2.00318
    D1       -2.69950  -0.00006  -0.00323  -0.00021  -0.00345  -2.70294
         Item               Value     Threshold  Converged?
 Maximum Force            0.000188     0.000450     YES
 RMS     Force            0.000107     0.000300     YES
 Maximum Displacement     0.001376     0.001800     YES
 RMS     Displacement     0.000971     0.001200     YES
 Predicted change in Energy=-3.395715D-07
 Optimization completed.
    -- Stationary point found.
                           ----------------------------
                           !   Optimized Parameters   !
                           ! (Angstroms and Degrees)  !
 --------------------------                            --------------------------
 ! Name  Definition              Value          Derivative Info.                !
 --------------------------------------------------------------------------------
 ! R1    R(1,2)                  1.0798         -DE/DX =   -0.0001              !
 ! R2    R(1,3)                  1.0798         -DE/DX =   -0.0001              !
 ! R3    R(1,4)                  1.3356         -DE/DX =   -0.0001              !
 ! A1    A(2,1,3)              124.6762         -DE/DX =    0.0002              !
 ! A2    A(2,1,4)              114.7982         -DE/DX =   -0.0001              !
 ! A3    A(3,1,4)              114.7982         -DE/DX =   -0.0001              !
 ! D1    D(2,1,4,3)           -154.6697         -DE/DX =   -0.0001              !
 --------------------------------------------------------------------------------
 GradGradGradGradGradGradGradGradGradGradGradGradGradGradGradGradGradGrad

                          Input orientation:                          
 ---------------------------------------------------------------------
 Center     Atomic      Atomic             Coordinates (Angstroms)
 Number     Number       Type             X           Y           Z
 ---------------------------------------------------------------------
      1          6           0       -2.203915    0.681234    0.000004
      2          1           0       -2.181964    1.182051   -0.956361
      3          1           0       -2.181964    1.182041    0.956374
      4          9           0       -2.828789   -0.499132   -0.000002
 ---------------------------------------------------------------------
                    Distance matrix (angstroms):
                    1          2          3          4
     1  C    0.000000
     2  H    1.079784   0.000000
     3  H    1.079784   1.912735   0.000000
     4  F    1.335563   2.039455   2.039455   0.000000
 Stoichiometry    CH2F(2)
 Framework group  C1[X(CH2F)]
 Deg. of freedom     6
 Full point group                 C1      NOp   1
 Largest Abelian subgroup         C1      NOp   1
 Largest concise Abelian subgroup C1      NOp   1
                         Standard orientation:                         
 ---------------------------------------------------------------------
 Center     Atomic      Atomic             Coordinates (Angstroms)
 Number     Number       Type             X           Y           Z
 ---------------------------------------------------------------------
      1          6           0        0.651585    0.000000   -0.059227
      2          1           0        1.115028    0.956367    0.131862
      3          1           0        1.115028   -0.956367    0.131862
      4          9           0       -0.682174    0.000000    0.010182
 ---------------------------------------------------------------------
 Rotational constants (GHZ):         263.9877104          31.0706830          28.0170892

 **********************************************************************

            Population analysis using the SCF density.

 **********************************************************************

 Orbital symmetries:
 Alpha Orbitals:
       Occupied  (A) (A) (A) (A) (A) (A) (A) (A) (A)
       Virtual   (A) (A) (A) (A) (A) (A) (A) (A) (A) (A) (A) (A)
                 (A) (A) (A) (A) (A) (A) (A) (A) (A) (A) (A) (A)
                 (A) (A) (A) (A) (A) (A) (A) (A) (A) (A) (A) (A)
                 (A) (A) (A) (A) (A) (A) (A) (A) (A) (A) (A) (A)
                 (A) (A) (A) (A) (A) (A) (A) (A) (A) (A) (A) (A)
                 (A) (A) (A)
 Beta  Orbitals:
       Occupied  (A) (A) (A) (A) (A) (A) (A) (A)
       Virtual   (A) (A) (A) (A) (A) (A) (A) (A) (A) (A) (A) (A)
                 (A) (A) (A) (A) (A) (A) (A) (A) (A) (A) (A) (A)
                 (A) (A) (A) (A) (A) (A) (A) (A) (A) (A) (A) (A)
                 (A) (A) (A) (A) (A) (A) (A) (A) (A) (A) (A) (A)
                 (A) (A) (A) (A) (A) (A) (A) (A) (A) (A) (A) (A)
                 (A) (A) (A) (A)
 The electronic state is 2-A.
 Alpha  occ. eigenvalues --  -24.83046 -10.37067  -1.34432  -0.79614  -0.61329
 Alpha  occ. eigenvalues --   -0.61179  -0.57415  -0.46634  -0.30639
 Alpha virt. eigenvalues --    0.07553   0.09142   0.09817   0.11489   0.20199
 Alpha virt. eigenvalues --    0.24956   0.25711   0.31660   0.34440   0.35172
 Alpha virt. eigenvalues --    0.41707   0.49952   0.52861   0.58323   0.59254
 Alpha virt. eigenvalues --    0.59541   0.66429   0.76590   0.80799   0.93313
 Alpha virt. eigenvalues --    0.97256   1.03866   1.11366   1.19378   1.23061
 Alpha virt. eigenvalues --    1.28574   1.40142   1.41330   1.45223   1.48350
 Alpha virt. eigenvalues --    1.54103   1.95036   2.16926   2.18891   2.32077
 Alpha virt. eigenvalues --    2.52443   2.65642   2.72964   2.77209   2.85327
 Alpha virt. eigenvalues --    3.22129   3.24675   3.27657   3.32619   3.34481
 Alpha virt. eigenvalues --    3.61827   3.97352   3.98779   4.03408   4.04593
 Alpha virt. eigenvalues --    4.10324   4.79683   5.01324   6.38324   6.40393
 Alpha virt. eigenvalues --    6.71367   9.16292   9.17721   9.31653   9.44555
 Alpha virt. eigenvalues --    9.75885  24.02495  66.92337
  Beta  occ. eigenvalues --  -24.82667 -10.35851  -1.33386  -0.76109  -0.60373
  Beta  occ. eigenvalues --   -0.59914  -0.53870  -0.45934
  Beta virt. eigenvalues --    0.00803   0.08786   0.09724   0.10585   0.15203
  Beta virt. eigenvalues --    0.21653   0.25667   0.27620   0.31909   0.34861
  Beta virt. eigenvalues --    0.35471   0.42095   0.51599   0.53685   0.60013
  Beta virt. eigenvalues --    0.60044   0.63939   0.67835   0.78053   0.83017
  Beta virt. eigenvalues --    0.93402   0.98533   1.04578   1.12434   1.20468
  Beta virt. eigenvalues --    1.23702   1.28818   1.41036   1.41578   1.45683
  Beta virt. eigenvalues --    1.48962   1.55219   1.95341   2.17834   2.19769
  Beta virt. eigenvalues --    2.33744   2.52335   2.66653   2.73413   2.78911
  Beta virt. eigenvalues --    2.91850   3.24346   3.27572   3.31009   3.36973
  Beta virt. eigenvalues --    3.40473   3.63693   3.97419   3.99493   4.05532
  Beta virt. eigenvalues --    4.06241   4.10631   4.81213   5.02683   6.39909
  Beta virt. eigenvalues --    6.40720   6.71948   9.17728   9.19170   9.33057
  Beta virt. eigenvalues --    9.44845   9.76439  24.04880  66.92618
          Condensed to atoms (all electrons):
               1          2          3          4
     1  C    5.034549   0.429547   0.429547   0.065986
     2  H    0.429547   0.542961  -0.036118  -0.037008
     3  H    0.429547  -0.036118   0.542961  -0.037008
     4  F    0.065986  -0.037008  -0.037008   9.249638
          Atomic-Atomic Spin Densities.
               1          2          3          4
     1  C    1.154604   0.000260   0.000260  -0.139147
     2  H    0.000260  -0.039869   0.007009   0.001920
     3  H    0.000260   0.007009  -0.039869   0.001920
     4  F   -0.139147   0.001920   0.001920   0.180689
 Mulliken charges and spin densities:
               1          2
     1  C    0.040371   1.015976
     2  H    0.100619  -0.030680
     3  H    0.100619  -0.030680
     4  F   -0.241608   0.045383
 Sum of Mulliken charges =  -0.00000   1.00000
 Mulliken charges and spin densities with hydrogens summed into heavy atoms:
               1          2
     1  C    0.241608   0.954617
     4  F   -0.241608   0.045383
 Electronic spatial extent (au):  <R**2>=             65.4283
 Charge=              0.0000 electrons
 Dipole moment (field-independent basis, Debye):
    X=              1.3513    Y=              0.0000    Z=              0.3350  Tot=              1.3922
 Quadrupole moment (field-independent basis, Debye-Ang):
   XX=            -11.5334   YY=            -10.5301   ZZ=            -12.5848
   XY=             -0.0000   XZ=              0.4043   YZ=              0.0000
 Traceless Quadrupole moment (field-independent basis, Debye-Ang):
   XX=              0.0161   YY=              1.0194   ZZ=             -1.0354
   XY=             -0.0000   XZ=              0.4043   YZ=              0.0000
 Octapole moment (field-independent basis, Debye-Ang**2):
  XXX=             -4.4032  YYY=             -0.0000  ZZZ=              0.7867  XYY=             -0.3016
  XXY=             -0.0000  XXZ=              0.5936  XZZ=             -2.7405  YZZ=              0.0000
  YYZ=              0.4776  XYZ=              0.0000
 Hexadecapole moment (field-independent basis, Debye-Ang**3):
 XXXX=            -46.7235 YYYY=            -15.7324 ZZZZ=            -13.2311 XXXY=             -0.0000
 XXXZ=              0.7596 YYYX=              0.0000 YYYZ=              0.0000 ZZZX=              0.5781
 ZZZY=              0.0000 XXYY=             -9.3182 XXZZ=            -11.1918 YYZZ=             -5.2511
 XXYZ=              0.0000 YYXZ=              0.4966 ZZXY=              0.0000
 N-N= 3.222369712597D+01 E-N=-3.939979008849D+02  KE= 1.386785952654D+02
                          Isotropic Fermi Contact Couplings
        Atom                 a.u.       MegaHertz       Gauss      10(-4) cm-1
     1  C(13)              0.12566     141.26401      50.40651      47.12060
     2  H(1)              -0.01199     -53.58780     -19.12146     -17.87496
     3  H(1)              -0.01199     -53.58780     -19.12146     -17.87497
     4  F(19)              0.03754     157.95662      56.36285      52.68866
 --------------------------------------------------------
       Center         ----  Spin Dipole Couplings  ----
                      3XX-RR        3YY-RR        3ZZ-RR
 --------------------------------------------------------
     1   Atom       -0.586214     -0.568744      1.154957
     2   Atom       -0.047490      0.047950     -0.000460
     3   Atom       -0.047490      0.047950     -0.000460
     4   Atom       -0.542792     -0.441042      0.983834
 --------------------------------------------------------
                        XY            XZ            YZ
 --------------------------------------------------------
     1   Atom       -0.000000     -0.072612     -0.000000
     2   Atom        0.056918      0.006199      0.015447
     3   Atom       -0.056918      0.006199     -0.015447
     4   Atom       -0.000000     -0.094370     -0.000000
 --------------------------------------------------------


 ---------------------------------------------------------------------------------
              Anisotropic Spin Dipole Couplings in Principal Axis System
 ---------------------------------------------------------------------------------

       Atom             a.u.   MegaHertz   Gauss  10(-4) cm-1        Axes

              Baa    -0.5892   -79.070   -28.214   -26.375  0.9991  0.0000  0.0416
     1 C(13)  Bbb    -0.5687   -76.320   -27.233   -25.458 -0.0000  1.0000  0.0000
              Bcc     1.1580   155.390    55.447    51.832 -0.0416 -0.0000  0.9991
 
              Baa    -0.0741   -39.513   -14.099   -13.180  0.9055 -0.4241  0.0127
     2 H(1)   Bbb    -0.0040    -2.117    -0.755    -0.706 -0.0991 -0.1824  0.9782
              Bcc     0.0780    41.630    14.855    13.886  0.4125  0.8871  0.2072
 
              Baa    -0.0741   -39.513   -14.099   -13.180  0.9055  0.4241  0.0127
     3 H(1)   Bbb    -0.0040    -2.117    -0.755    -0.706 -0.0991  0.1824  0.9782
              Bcc     0.0780    41.630    14.855    13.886 -0.4125  0.8871 -0.2072
 
              Baa    -0.5486  -275.523   -98.313   -91.905  0.9981  0.0000  0.0615
     4 F(19)  Bbb    -0.4410  -221.502   -79.038   -73.885 -0.0000  1.0000  0.0000
              Bcc     0.9896   497.025   177.351   165.790 -0.0615 -0.0000  0.9981
 

 ---------------------------------------------------------------------------------

 1\1\GINC-CCLEARNI\FOpt\UwB97XD\6-311+G(2d,2p)\C1H2F1(2)\RAPPE\04-Dec-2
 024\0\\# opt freq uwb97xd/6-311+g(2d,2p) geom=connectivity integral=gr
 id=superfinegrid scf=(xqc,tight)\\Title Card Required\\0,2\C,-2.203915
 3788,0.681233846,0.0000037521\H,-2.1819635361,1.1820505225,-0.95636112
 36\H,-2.1819643335,1.1820411634,0.9563736874\F,-2.8287887516,-0.499131
 5319,-0.000002329\\Version=EM64M-G16RevA.03\State=2-A\HF=-139.0763876\
 S2=0.753899\S2-1=0.\S2A=0.75001\RMSD=9.062e-09\RMSF=9.549e-05\Dipole=0
 .1044612,0.5376902,0.0000027\Quadrupole=-0.8607321,0.1028577,0.7578743
 ,0.1048407,-0.0000002,-0.0000032\PG=C01 [X(C1H2F1)]\\@


 A MAN IS NEVER SO BRILLIANT AS WHEN HE TAKES THE WORDS RIGHT OUT
 OF YOUR MOUTH. -- ARNOT SHEPPARD, JR.
 Job cpu time:       0 days  0 hours  8 minutes 20.3 seconds.
 Elapsed time:       0 days  0 hours  0 minutes 21.8 seconds.
 File lengths (MBytes):  RWF=     10 Int=      0 D2E=      0 Chk=      2 Scr=      1
 Normal termination of Gaussian 16 at Wed Dec  4 04:01:25 2024.
 Link1:  Proceeding to internal job step number  2.
 ----------------------------------------------------------------------
 #N Geom=AllCheck Guess=TCheck SCRF=Check GenChk UwB97XD/6-311+G(2d,2p)
  Freq
 ----------------------------------------------------------------------
 1/10=4,29=7,30=1,38=1,40=1/1,3;
 2/12=2,40=1/2;
 3/5=4,6=6,7=212,11=2,14=-4,25=1,30=1,70=2,71=2,74=-58,75=-7,116=2,140=1/1,2,3;
 4/5=101/1;
 5/5=2,8=3,13=1,32=2,38=6,98=1/2,8;
 8/6=4,10=90,11=11/1;
 11/6=1,8=1,9=11,15=111,16=1/1,2,10;
 10/6=1/2;
 6/7=2,8=2,9=2,10=2,28=1/1;
 7/8=1,10=1,25=1/1,2,3,16;
 1/10=4,30=1/3;
 99//99;
 Structure from the checkpoint file:  "ch2F.chk"
 -------------------
 Title Card Required
 -------------------
 Charge =  0 Multiplicity = 2
 Redundant internal coordinates found in file.  (old form).
 C,0,-2.2039153788,0.681233846,0.0000037521
 H,0,-2.1819635361,1.1820505225,-0.9563611236
 H,0,-2.1819643335,1.1820411634,0.9563736874
 F,0,-2.8287887516,-0.4991315319,-0.000002329
 Recover connectivity data from disk.

 GradGradGradGradGradGradGradGradGradGradGradGradGradGradGradGradGradGrad
 Berny optimization.
 Initialization pass.
                           ----------------------------
                           !    Initial Parameters    !
                           ! (Angstroms and Degrees)  !
 --------------------------                            --------------------------
 ! Name  Definition              Value          Derivative Info.                !
 --------------------------------------------------------------------------------
 ! R1    R(1,2)                  1.0798         calculate D2E/DX2 analytically  !
 ! R2    R(1,3)                  1.0798         calculate D2E/DX2 analytically  !
 ! R3    R(1,4)                  1.3356         calculate D2E/DX2 analytically  !
 ! A1    A(2,1,3)              124.6762         calculate D2E/DX2 analytically  !
 ! A2    A(2,1,4)              114.7982         calculate D2E/DX2 analytically  !
 ! A3    A(3,1,4)              114.7982         calculate D2E/DX2 analytically  !
 ! D1    D(2,1,4,3)           -154.6697         calculate D2E/DX2 analytically  !
 --------------------------------------------------------------------------------
 Trust Radius=3.00D-01 FncErr=1.00D-07 GrdErr=1.00D-07 EigMax=2.50D+02 EigMin=1.00D-04
 Number of steps in this run=      2 maximum allowed number of steps=      2.
 GradGradGradGradGradGradGradGradGradGradGradGradGradGradGradGradGradGrad

                          Input orientation:                          
 ---------------------------------------------------------------------
 Center     Atomic      Atomic             Coordinates (Angstroms)
 Number     Number       Type             X           Y           Z
 ---------------------------------------------------------------------
      1          6           0       -2.203915    0.681234    0.000004
      2          1           0       -2.181964    1.182051   -0.956361
      3          1           0       -2.181964    1.182041    0.956374
      4          9           0       -2.828789   -0.499132   -0.000002
 ---------------------------------------------------------------------
                    Distance matrix (angstroms):
                    1          2          3          4
     1  C    0.000000
     2  H    1.079784   0.000000
     3  H    1.079784   1.912735   0.000000
     4  F    1.335563   2.039455   2.039455   0.000000
 Stoichiometry    CH2F(2)
 Framework group  C1[X(CH2F)]
 Deg. of freedom     6
 Full point group                 C1      NOp   1
 Largest Abelian subgroup         C1      NOp   1
 Largest concise Abelian subgroup C1      NOp   1
                         Standard orientation:                         
 ---------------------------------------------------------------------
 Center     Atomic      Atomic             Coordinates (Angstroms)
 Number     Number       Type             X           Y           Z
 ---------------------------------------------------------------------
      1          6           0        0.651585    0.000000   -0.059227
      2          1           0        1.115028    0.956367    0.131862
      3          1           0        1.115028   -0.956367    0.131862
      4          9           0       -0.682174   -0.000000    0.010182
 ---------------------------------------------------------------------
 Rotational constants (GHZ):         263.9877104          31.0706830          28.0170892
 Standard basis: 6-311+G(2d,2p) (5D, 7F)
 There are    76 symmetry adapted cartesian basis functions of A   symmetry.
 There are    72 symmetry adapted basis functions of A   symmetry.
    72 basis functions,   106 primitive gaussians,    76 cartesian basis functions
     9 alpha electrons        8 beta electrons
       nuclear repulsion energy        32.2239353415 Hartrees.
 NAtoms=    4 NActive=    4 NUniq=    4 SFac= 1.00D+00 NAtFMM=   60 NAOKFM=F Big=F
 Integral buffers will be    131072 words long.
 Raffenetti 2 integral format.
 Two-electron integral symmetry is turned on.
 Nuclear repulsion after empirical dispersion term =       32.2236971260 Hartrees.
 One-electron integrals computed using PRISM.
 NBasis=    72 RedAO= T EigKep=  2.05D-03  NBF=    72
 NBsUse=    72 1.00D-06 EigRej= -1.00D+00 NBFU=    72
 Initial guess from the checkpoint file:  "ch2F.chk"
 B after Tr=     0.000000   -0.000000   -0.000000
         Rot=    1.000000    0.000000   -0.000000   -0.000000 Ang=   0.00 deg.
 Initial guess <Sx>= 0.0000 <Sy>= 0.0000 <Sz>= 0.5000 <S**2>= 0.7539 S= 0.5019
 Keep R1 and R2 ints in memory in canonical form, NReq=35519536.
 Requested convergence on RMS density matrix=1.00D-08 within  32 cycles.
 Requested convergence on MAX density matrix=1.00D-06.
 Requested convergence on             energy=1.00D-06.
 No special actions if energy rises.
 SCF Done:  E(UwB97XD) =  -139.076387634     A.U. after    1 cycles
            NFock=  1  Conv=0.97D-09     -V/T= 2.0029
 <Sx>= 0.0000 <Sy>= 0.0000 <Sz>= 0.5000 <S**2>= 0.7539 S= 0.5019
 <L.S>= 0.000000000000E+00
 Annihilation of the first spin contaminant:
 S**2 before annihilation     0.7539,   after     0.7500
 QCSCF skips out because SCF is already converged.
 DoSCS=F DFT=T ScalE2(SS,OS)=  1.000000  1.000000
 Range of M.O.s used for correlation:     1    72
 NBasis=    72 NAE=     9 NBE=     8 NFC=     0 NFV=     0
 NROrb=     72 NOA=     9 NOB=     8 NVA=    63 NVB=    64
 Symmetrizing basis deriv contribution to polar:
 IMax=3 JMax=2 DiffMx= 0.00D+00
 G2DrvN: will do     5 centers at a time, making    1 passes.
 Calling FoFCou, ICntrl=  3107 FMM=F I1Cent=   0 AccDes= 0.00D+00.
 End of G2Drv F.D. properties file   721 does not exist.
 End of G2Drv F.D. properties file   722 does not exist.
 End of G2Drv F.D. properties file   788 does not exist.
          IDoAtm=1111
          Differentiating once with respect to electric field.
                with respect to dipole field.
          Differentiating once with respect to nuclear coordinates.
 Keep R1 and R2 ints in memory in canonical form, NReq=35369843.
          There are    15 degrees of freedom in the 1st order CPHF.  IDoFFX=6 NUNeed=     3.
     12 vectors produced by pass  0 Test12= 7.19D-15 6.67D-09 XBig12= 9.58D+00 1.33D+00.
 AX will form    12 AO Fock derivatives at one time.
     12 vectors produced by pass  1 Test12= 7.19D-15 6.67D-09 XBig12= 1.34D+00 5.25D-01.
     12 vectors produced by pass  2 Test12= 7.19D-15 6.67D-09 XBig12= 5.94D-02 6.49D-02.
     12 vectors produced by pass  3 Test12= 7.19D-15 6.67D-09 XBig12= 1.09D-03 8.89D-03.
     12 vectors produced by pass  4 Test12= 7.19D-15 6.67D-09 XBig12= 9.44D-06 7.52D-04.
     12 vectors produced by pass  5 Test12= 7.19D-15 6.67D-09 XBig12= 1.01D-07 6.14D-05.
     12 vectors produced by pass  6 Test12= 7.19D-15 6.67D-09 XBig12= 9.14D-10 6.22D-06.
      6 vectors produced by pass  7 Test12= 7.19D-15 6.67D-09 XBig12= 9.01D-12 6.92D-07.
      3 vectors produced by pass  8 Test12= 7.19D-15 6.67D-09 XBig12= 6.60D-14 5.77D-08.
 InvSVY:  IOpt=1 It=  1 EMax= 1.55D-15
 Solved reduced A of dimension    93 with    12 vectors.
 Isotropic polarizability for W=    0.000000       14.32 Bohr**3.
 End of Minotr F.D. properties file   721 does not exist.
 End of Minotr F.D. properties file   722 does not exist.
 End of Minotr F.D. properties file   788 does not exist.

 **********************************************************************

            Population analysis using the SCF density.

 **********************************************************************

 Orbital symmetries:
 Alpha Orbitals:
       Occupied  (A) (A) (A) (A) (A) (A) (A) (A) (A)
       Virtual   (A) (A) (A) (A) (A) (A) (A) (A) (A) (A) (A) (A)
                 (A) (A) (A) (A) (A) (A) (A) (A) (A) (A) (A) (A)
                 (A) (A) (A) (A) (A) (A) (A) (A) (A) (A) (A) (A)
                 (A) (A) (A) (A) (A) (A) (A) (A) (A) (A) (A) (A)
                 (A) (A) (A) (A) (A) (A) (A) (A) (A) (A) (A) (A)
                 (A) (A) (A)
 Beta  Orbitals:
       Occupied  (A) (A) (A) (A) (A) (A) (A) (A)
       Virtual   (A) (A) (A) (A) (A) (A) (A) (A) (A) (A) (A) (A)
                 (A) (A) (A) (A) (A) (A) (A) (A) (A) (A) (A) (A)
                 (A) (A) (A) (A) (A) (A) (A) (A) (A) (A) (A) (A)
                 (A) (A) (A) (A) (A) (A) (A) (A) (A) (A) (A) (A)
                 (A) (A) (A) (A) (A) (A) (A) (A) (A) (A) (A) (A)
                 (A) (A) (A) (A)
 The electronic state is 2-A.
 Alpha  occ. eigenvalues --  -24.83046 -10.37067  -1.34432  -0.79614  -0.61329
 Alpha  occ. eigenvalues --   -0.61179  -0.57415  -0.46634  -0.30639
 Alpha virt. eigenvalues --    0.07553   0.09142   0.09817   0.11489   0.20199
 Alpha virt. eigenvalues --    0.24956   0.25711   0.31660   0.34440   0.35172
 Alpha virt. eigenvalues --    0.41707   0.49952   0.52861   0.58323   0.59254
 Alpha virt. eigenvalues --    0.59541   0.66429   0.76590   0.80799   0.93313
 Alpha virt. eigenvalues --    0.97256   1.03866   1.11366   1.19378   1.23061
 Alpha virt. eigenvalues --    1.28574   1.40142   1.41330   1.45223   1.48350
 Alpha virt. eigenvalues --    1.54103   1.95036   2.16926   2.18891   2.32077
 Alpha virt. eigenvalues --    2.52443   2.65642   2.72964   2.77209   2.85327
 Alpha virt. eigenvalues --    3.22129   3.24675   3.27657   3.32619   3.34481
 Alpha virt. eigenvalues --    3.61827   3.97352   3.98779   4.03408   4.04593
 Alpha virt. eigenvalues --    4.10324   4.79683   5.01324   6.38324   6.40393
 Alpha virt. eigenvalues --    6.71367   9.16292   9.17721   9.31653   9.44555
 Alpha virt. eigenvalues --    9.75885  24.02495  66.92337
  Beta  occ. eigenvalues --  -24.82667 -10.35851  -1.33386  -0.76109  -0.60373
  Beta  occ. eigenvalues --   -0.59914  -0.53870  -0.45934
  Beta virt. eigenvalues --    0.00803   0.08786   0.09724   0.10585   0.15203
  Beta virt. eigenvalues --    0.21653   0.25667   0.27620   0.31909   0.34861
  Beta virt. eigenvalues --    0.35471   0.42095   0.51599   0.53685   0.60013
  Beta virt. eigenvalues --    0.60044   0.63939   0.67835   0.78053   0.83017
  Beta virt. eigenvalues --    0.93402   0.98533   1.04578   1.12434   1.20468
  Beta virt. eigenvalues --    1.23702   1.28818   1.41036   1.41578   1.45683
  Beta virt. eigenvalues --    1.48962   1.55219   1.95341   2.17834   2.19769
  Beta virt. eigenvalues --    2.33744   2.52335   2.66653   2.73413   2.78911
  Beta virt. eigenvalues --    2.91850   3.24346   3.27572   3.31009   3.36973
  Beta virt. eigenvalues --    3.40473   3.63693   3.97419   3.99493   4.05532
  Beta virt. eigenvalues --    4.06241   4.10631   4.81213   5.02683   6.39909
  Beta virt. eigenvalues --    6.40720   6.71948   9.17728   9.19170   9.33057
  Beta virt. eigenvalues --    9.44845   9.76439  24.04880  66.92618
          Condensed to atoms (all electrons):
               1          2          3          4
     1  C    5.034549   0.429547   0.429547   0.065986
     2  H    0.429547   0.542961  -0.036118  -0.037008
     3  H    0.429547  -0.036118   0.542961  -0.037008
     4  F    0.065986  -0.037008  -0.037008   9.249638
          Atomic-Atomic Spin Densities.
               1          2          3          4
     1  C    1.154604   0.000260   0.000260  -0.139147
     2  H    0.000260  -0.039869   0.007009   0.001920
     3  H    0.000260   0.007009  -0.039869   0.001920
     4  F   -0.139147   0.001920   0.001920   0.180689
 Mulliken charges and spin densities:
               1          2
     1  C    0.040371   1.015976
     2  H    0.100619  -0.030680
     3  H    0.100619  -0.030680
     4  F   -0.241608   0.045383
 Sum of Mulliken charges =  -0.00000   1.00000
 Mulliken charges and spin densities with hydrogens summed into heavy atoms:
               1          2
     1  C    0.241608   0.954617
     4  F   -0.241608   0.045383
 APT charges:
               1
     1  C    0.375360
     2  H    0.047287
     3  H    0.047287
     4  F   -0.469935
 Sum of APT charges =   0.00000
 APT charges with hydrogens summed into heavy atoms:
               1
     1  C    0.469935
     4  F   -0.469935
 Electronic spatial extent (au):  <R**2>=             65.4283
 Charge=              0.0000 electrons
 Dipole moment (field-independent basis, Debye):
    X=              1.3513    Y=              0.0000    Z=              0.3350  Tot=              1.3922
 Quadrupole moment (field-independent basis, Debye-Ang):
   XX=            -11.5334   YY=            -10.5301   ZZ=            -12.5848
   XY=             -0.0000   XZ=              0.4043   YZ=              0.0000
 Traceless Quadrupole moment (field-independent basis, Debye-Ang):
   XX=              0.0161   YY=              1.0194   ZZ=             -1.0354
   XY=             -0.0000   XZ=              0.4043   YZ=              0.0000
 Octapole moment (field-independent basis, Debye-Ang**2):
  XXX=             -4.4032  YYY=              0.0000  ZZZ=              0.7867  XYY=             -0.3016
  XXY=             -0.0000  XXZ=              0.5936  XZZ=             -2.7405  YZZ=              0.0000
  YYZ=              0.4776  XYZ=              0.0000
 Hexadecapole moment (field-independent basis, Debye-Ang**3):
 XXXX=            -46.7235 YYYY=            -15.7324 ZZZZ=            -13.2311 XXXY=              0.0000
 XXXZ=              0.7596 YYYX=             -0.0000 YYYZ=              0.0000 ZZZX=              0.5781
 ZZZY=              0.0000 XXYY=             -9.3182 XXZZ=            -11.1918 YYZZ=             -5.2511
 XXYZ=              0.0000 YYXZ=              0.4966 ZZXY=              0.0000
 N-N= 3.222369712597D+01 E-N=-3.939979011755D+02  KE= 1.386785954103D+02
  Exact polarizability:  15.881  -0.000  13.964   0.102  -0.000  13.120
 Approx polarizability:  15.667  -0.000  13.219   0.061  -0.000  11.999
                          Isotropic Fermi Contact Couplings
        Atom                 a.u.       MegaHertz       Gauss      10(-4) cm-1
     1  C(13)              0.12566     141.26401      50.40651      47.12060
     2  H(1)              -0.01199     -53.58780     -19.12146     -17.87497
     3  H(1)              -0.01199     -53.58781     -19.12146     -17.87497
     4  F(19)              0.03754     157.95664      56.36286      52.68866
 --------------------------------------------------------
       Center         ----  Spin Dipole Couplings  ----
                      3XX-RR        3YY-RR        3ZZ-RR
 --------------------------------------------------------
     1   Atom       -0.586213     -0.568744      1.154957
     2   Atom       -0.047490      0.047950     -0.000460
     3   Atom       -0.047490      0.047950     -0.000460
     4   Atom       -0.542792     -0.441042      0.983834
 --------------------------------------------------------
                        XY            XZ            YZ
 --------------------------------------------------------
     1   Atom       -0.000000     -0.072612     -0.000000
     2   Atom        0.056918      0.006199      0.015447
     3   Atom       -0.056918      0.006199     -0.015447
     4   Atom       -0.000000     -0.094370     -0.000000
 --------------------------------------------------------


 ---------------------------------------------------------------------------------
              Anisotropic Spin Dipole Couplings in Principal Axis System
 ---------------------------------------------------------------------------------

       Atom             a.u.   MegaHertz   Gauss  10(-4) cm-1        Axes

              Baa    -0.5892   -79.070   -28.214   -26.375  0.9991  0.0000  0.0416
     1 C(13)  Bbb    -0.5687   -76.320   -27.233   -25.458 -0.0000  1.0000  0.0000
              Bcc     1.1580   155.390    55.447    51.832 -0.0416 -0.0000  0.9991
 
              Baa    -0.0741   -39.513   -14.099   -13.180  0.9055 -0.4241  0.0127
     2 H(1)   Bbb    -0.0040    -2.117    -0.755    -0.706 -0.0991 -0.1824  0.9782
              Bcc     0.0780    41.630    14.855    13.886  0.4125  0.8871  0.2072
 
              Baa    -0.0741   -39.513   -14.099   -13.180  0.9055  0.4241  0.0127
     3 H(1)   Bbb    -0.0040    -2.117    -0.755    -0.706 -0.0991  0.1824  0.9782
              Bcc     0.0780    41.630    14.855    13.886 -0.4125  0.8871 -0.2072
 
              Baa    -0.5486  -275.523   -98.313   -91.905  0.9981  0.0000  0.0615
     4 F(19)  Bbb    -0.4410  -221.502   -79.038   -73.885 -0.0000  1.0000  0.0000
              Bcc     0.9896   497.025   177.351   165.790 -0.0615 -0.0000  0.9981
 

 ---------------------------------------------------------------------------------

 Calling FoFJK, ICntrl=    100127 FMM=F ISym2X=0 I1Cent= 0 IOpClX= 1 NMat=1 NMatS=1 NMatT=0.
 Full mass-weighted force constant matrix:
 Low frequencies ---    0.0004    0.0010    0.0012   11.9294   20.3866   39.2166
 Low frequencies ---  537.7163 1178.0022 1187.5969
 Diagonal vibrational polarizability:
        2.6721651       0.1620175       5.0079878
 Harmonic frequencies (cm**-1), IR intensities (KM/Mole), Raman scattering
 activities (A**4/AMU), depolarization ratios for plane and unpolarized
 incident light, reduced masses (AMU), force constants (mDyne/A),
 and normal coordinates:
                      1                      2                      3
                      A                      A                      A
 Frequencies --    537.7138              1178.0022              1187.5969
 Red. masses --      1.2941                 1.2312                 6.6329
 Frc consts  --      0.2205                 1.0067                 5.5118
 IR Inten    --     54.0752                 7.5977               134.0968
  Atom  AN      X      Y      Z        X      Y      Z        X      Y      Z
     1   6     0.01  -0.00  -0.16    -0.00   0.12   0.00     0.52   0.00  -0.02
     2   1    -0.10  -0.09   0.69     0.67  -0.18  -0.08     0.54  -0.01   0.00
     3   1    -0.10   0.09   0.69    -0.67  -0.18   0.08     0.54   0.01   0.00
     4   9     0.00   0.00   0.03     0.00  -0.06  -0.00    -0.38  -0.00   0.01
                      4                      5                      6
                      A                      A                      A
 Frequencies --   1471.5310              3145.3376              3304.2679
 Red. masses --      1.1300                 1.0394                 1.1309
 Frc consts  --      1.4416                 6.0586                 7.2751
 IR Inten    --      4.5876                11.5618                 5.9548
  Atom  AN      X      Y      Z        X      Y      Z        X      Y      Z
     1   6    -0.10  -0.00   0.00     0.05  -0.00   0.02    -0.00  -0.11  -0.00
     2   1     0.61  -0.35   0.06    -0.30  -0.63  -0.11     0.30   0.63   0.13
     3   1     0.61   0.35   0.06    -0.30   0.63  -0.11    -0.30   0.63  -0.13
     4   9     0.00   0.00  -0.01    -0.00   0.00   0.00     0.00   0.00  -0.00

 -------------------
 - Thermochemistry -
 -------------------
 Temperature   298.150 Kelvin.  Pressure   1.00000 Atm.
 Atom     1 has atomic number  6 and mass  12.00000
 Atom     2 has atomic number  1 and mass   1.00783
 Atom     3 has atomic number  1 and mass   1.00783
 Atom     4 has atomic number  9 and mass  18.99840
 Molecular mass:    33.01405 amu.
 Principal axes and moments of inertia in atomic units:
                           1         2         3
     Eigenvalues --     6.83646  58.08502  64.41573
           X            0.99980  -0.00000   0.01990
           Y            0.00000   1.00000   0.00000
           Z           -0.01990  -0.00000   0.99980
 This molecule is an asymmetric top.
 Rotational symmetry number  1.
 Rotational temperatures (Kelvin)     12.66941     1.49116     1.34461
 Rotational constants (GHZ):         263.98771    31.07068    28.01709
 Zero-point vibrational energy      64744.6 (Joules/Mol)
                                   15.47433 (Kcal/Mol)
 Warning -- explicit consideration of   1 degrees of freedom as
           vibrations may cause significant error
 Vibrational temperatures:    773.65  1694.88  1708.69  2117.20  4525.44
          (Kelvin)           4754.10
 
 Zero-point correction=                           0.024660 (Hartree/Particle)
 Thermal correction to Energy=                    0.027732
 Thermal correction to Enthalpy=                  0.028676
 Thermal correction to Gibbs Free Energy=         0.001901
 Sum of electronic and zero-point Energies=           -139.051728
 Sum of electronic and thermal Energies=              -139.048656
 Sum of electronic and thermal Enthalpies=            -139.047712
 Sum of electronic and thermal Free Energies=         -139.074486
 
                     E (Thermal)             CV                S
                      KCal/Mol        Cal/Mol-Kelvin    Cal/Mol-Kelvin
 Total                   17.402              7.644             56.352
 Electronic               0.000              0.000              1.377
 Translational            0.889              2.981             36.415
 Rotational               0.889              2.981             17.887
 Vibrational             15.624              1.682              0.672
 Vibration     1          0.893              1.167              0.570
                       Q            Log10(Q)             Ln(Q)
 Total Bot       0.133507D+00         -0.874495         -2.013598
 Total V=0       0.293945D+11         10.468267         24.104075
 Vib (Bot)       0.494520D-11        -11.305816        -26.032603
 Vib (Bot)    1  0.295282D+00         -0.529764         -1.219826
 Vib (V=0)       0.108879D+01          0.036945          0.085070
 Vib (V=0)    1  0.108068D+01          0.033698          0.077592
 Electronic      0.200000D+01          0.301030          0.693147
 Translational   0.745594D+07          6.872502         15.824521
 Rotational      0.181046D+04          3.257789          7.501337
 ***** Axes restored to original set *****
 -------------------------------------------------------------------
 Center     Atomic                   Forces (Hartrees/Bohr)
 Number     Number              X              Y              Z
 -------------------------------------------------------------------
      1        6          -0.000061308    0.000197082    0.000000075
      2        1          -0.000001853   -0.000156081   -0.000017286
      3        1          -0.000001856   -0.000156123    0.000017208
      4        9           0.000065017    0.000115121    0.000000002
 -------------------------------------------------------------------
 Cartesian Forces:  Max     0.000197082 RMS     0.000095489
 FormGI is forming the generalized inverse of G from B-inverse, IUseBI=4.

 GradGradGradGradGradGradGradGradGradGradGradGradGradGradGradGradGradGrad
 Berny optimization.
 Internal  Forces:  Max     0.000187547 RMS     0.000106580
 Search for a local minimum.
 Step number   1 out of a maximum of    2
 All quantities printed in internal units (Hartrees-Bohrs-Radians)
 Second derivative matrix not updated -- analytic derivatives used.
 The second derivative matrix:
                          R1        R2        R3        A1        A2
           R1           0.36680
           R2          -0.00126   0.36680
           R3           0.01069   0.01069   0.43035
           A1           0.00437   0.00437  -0.03600   0.06925
           A2           0.00337  -0.00438   0.02355  -0.04128   0.11160
           A3          -0.00438   0.00337   0.02355  -0.04128  -0.06071
           D1          -0.00810  -0.00810  -0.01287   0.00823  -0.00833
                          A3        D1
           A3           0.11160
           D1          -0.00833   0.01507
 ITU=  0
     Eigenvalues ---    0.01367   0.11290   0.17200   0.36331   0.36837
     Eigenvalues ---    0.44122
 Angle between quadratic step and forces=  58.14 degrees.
 Linear search not attempted -- first point.
 Iteration  1 RMS(Cart)=  0.00157782 RMS(Int)=  0.00000446
 Iteration  2 RMS(Cart)=  0.00000294 RMS(Int)=  0.00000306
 Iteration  3 RMS(Cart)=  0.00000000 RMS(Int)=  0.00000306
 Variable       Old X    -DE/DX   Delta X   Delta X   Delta X     New X
                                 (Linear)    (Quad)   (Total)
    R1        2.04050  -0.00006   0.00000  -0.00032  -0.00032   2.04017
    R2        2.04050  -0.00006   0.00000  -0.00033  -0.00033   2.04017
    R3        2.52385  -0.00013   0.00000  -0.00019  -0.00019   2.52366
    A1        2.17601   0.00019   0.00000   0.00308   0.00308   2.17909
    A2        2.00361  -0.00009   0.00000  -0.00025  -0.00026   2.00335
    A3        2.00361  -0.00009   0.00000  -0.00025  -0.00026   2.00335
    D1       -2.69950  -0.00006   0.00000  -0.00616  -0.00616  -2.70566
         Item               Value     Threshold  Converged?
 Maximum Force            0.000188     0.000450     YES
 RMS     Force            0.000107     0.000300     YES
 Maximum Displacement     0.002475     0.001800     NO 
 RMS     Displacement     0.001578     0.001200     NO 
 Predicted change in Energy=-5.146383D-07
                           ----------------------------
                           ! Non-Optimized Parameters !
                           ! (Angstroms and Degrees)  !
 --------------------------                            --------------------------
 ! Name  Definition              Value          Derivative Info.                !
 --------------------------------------------------------------------------------
 ! R1    R(1,2)                  1.0796         -DE/DX =   -0.0001              !
 ! R2    R(1,3)                  1.0796         -DE/DX =   -0.0001              !
 ! R3    R(1,4)                  1.3355         -DE/DX =   -0.0001              !
 ! A1    A(2,1,3)              124.8526         -DE/DX =    0.0002              !
 ! A2    A(2,1,4)              114.7835         -DE/DX =   -0.0001              !
 ! A3    A(3,1,4)              114.7835         -DE/DX =   -0.0001              !
 ! D1    D(2,1,4,3)           -155.0227         -DE/DX =   -0.0001              !
 --------------------------------------------------------------------------------
 GradGradGradGradGradGradGradGradGradGradGradGradGradGradGradGradGradGrad


 ----------------------------------------------------------------------

 Electric dipole moment (input orientation):
 (Debye = 10**-18 statcoulomb cm , SI units = C m)
                  (au)            (Debye)         (10**-30 SI)
   Tot        0.547743D+00      0.139223D+01      0.464396D+01
   x          0.104461D+00      0.265514D+00      0.885659D+00
   y          0.537690D+00      0.136667D+01      0.455873D+01
   z          0.000000D+00      0.000000D+00      0.000000D+00

 Dipole polarizability, Alpha (input orientation).
 (esu units = cm**3 , SI units = C**2 m**2 J**-1)
 Alpha(0;0):
               (au)            (10**-24 esu)      (10**-40 SI)
   iso        0.143218D+02      0.212228D+01      0.236135D+01
   aniso      0.245731D+01      0.364136D+00      0.405156D+00
   xx         0.135318D+02      0.200521D+01      0.223110D+01
   yx         0.989193D+00      0.146583D+00      0.163096D+00
   yy         0.154693D+02      0.229232D+01      0.255055D+01
   zx         0.000000D+00      0.000000D+00      0.000000D+00
   zy         0.000000D+00      0.000000D+00      0.000000D+00
   zz         0.139644D+02      0.206931D+01      0.230241D+01

 ----------------------------------------------------------------------

 Dipole orientation:
     6         -4.25432540          0.82651572          0.46944108
     1         -4.04686107          2.62727310          1.40637957
     1         -4.73619611         -0.92093100          1.40637965
     9         -4.97462851          0.96645420         -1.94538668

 Electric dipole moment (dipole orientation):
 (Debye = 10**-18 statcoulomb cm , SI units = C m)
                  (au)            (Debye)         (10**-30 SI)
   Tot        0.547743D+00      0.139223D+01      0.464396D+01
   x          0.000000D+00      0.000000D+00      0.000000D+00
   y          0.000000D+00      0.000000D+00      0.000000D+00
   z          0.547743D+00      0.139223D+01      0.464396D+01

 Dipole polarizability, Alpha (dipole orientation).
 (esu units = cm**3 , SI units = C**2 m**2 J**-1)
 Alpha(0;0):
               (au)            (10**-24 esu)      (10**-40 SI)
   iso        0.143218D+02      0.212228D+01      0.236135D+01
   aniso      0.245731D+01      0.364136D+00      0.405156D+00
   xx         0.132586D+02      0.196472D+01      0.218604D+01
   yx         0.137120D+00      0.203191D-01      0.226080D-01
   yy         0.139377D+02      0.206536D+01      0.229802D+01
   zx         0.544342D+00      0.806631D-01      0.897498D-01
   zy        -0.105754D+00     -0.156711D-01     -0.174365D-01
   zz         0.157692D+02      0.233676D+01      0.259999D+01

 ----------------------------------------------------------------------
 1\1\GINC-CCLEARNI\Freq\UwB97XD\6-311+G(2d,2p)\C1H2F1(2)\RAPPE\04-Dec-2
 024\0\\#N Geom=AllCheck Guess=TCheck SCRF=Check GenChk UwB97XD/6-311+G
 (2d,2p) Freq\\Title Card Required\\0,2\C,-2.2039153788,0.681233846,0.0
 000037521\H,-2.1819635361,1.1820505225,-0.9563611236\H,-2.1819643335,1
 .1820411634,0.9563736874\F,-2.8287887516,-0.4991315319,-0.000002329\\V
 ersion=EM64M-G16RevA.03\State=2-A\HF=-139.0763876\S2=0.753899\S2-1=0.\
 S2A=0.75001\RMSD=9.658e-10\RMSF=9.549e-05\ZeroPoint=0.0246599\Thermal=
 0.0277316\Dipole=0.1044612,0.5376902,0.0000027\DipoleDeriv=0.0034236,0
 .4954817,0.0000023,0.4929965,0.792343,0.0000026,0.0000023,0.0000025,0.
 3303127,0.1532529,-0.0337671,-0.0549412,-0.0570009,0.0240965,0.0075912
 ,-0.0052953,0.0539002,-0.035487,0.1532528,-0.0337676,0.054941,-0.05700
 09,0.0240971,-0.0075907,0.0052949,-0.0538996,-0.0354875,-0.3099293,-0.
 427947,-0.0000021,-0.3789947,-0.8405365,-0.0000031,-0.0000019,-0.00000
 31,-0.2593382\Polar=13.531847,0.9891927,15.4693193,0.0000047,0.0000085
 ,13.9643728\Quadrupole=-0.8607322,0.1028578,0.7578744,0.1048406,-0.000
 0002,-0.0000032\PG=C01 [X(C1H2F1)]\NImag=0\\0.11498063,0.17865010,0.49
 107761,0.00000064,-0.00000098,0.68036079,-0.01386499,-0.00983088,-0.01
 684320,0.01302744,-0.01726707,-0.09974753,0.11394425,0.02191547,0.1158
 5805,0.00423091,0.11753246,-0.30368690,-0.00174693,-0.12785678,0.30128
 821,-0.01386504,-0.00983094,0.01684335,0.00216015,0.00161616,-0.002016
 06,0.01302748,-0.01726693,-0.09974522,-0.11394214,0.00161613,0.0101743
 1,0.01225475,0.02191534,0.11585550,-0.00423083,-0.11753033,-0.30368897
 ,0.00201609,-0.01225457,-0.00829999,0.00174690,0.12785485,0.30129054,-
 0.08725059,-0.15898828,-0.00000079,-0.00132260,-0.00626456,-0.00046791
 ,-0.00132258,-0.00626455,0.00046783,0.08989577,-0.14411611,-0.29158486
 ,-0.00000113,-0.01370073,-0.02628482,-0.00193043,-0.01370056,-0.026284
 58,0.00193005,0.17151739,0.34415427,-0.00000072,-0.00000114,-0.0729849
 2,0.01657405,0.02616709,0.01069868,-0.01657419,-0.02616746,0.01069843,
 0.00000086,0.00000151,0.05158781\\0.00006131,-0.00019708,-0.00000008,0
 .00000185,0.00015608,0.00001729,0.00000186,0.00015612,-0.00001721,-0.0
 0006502,-0.00011512,0.\\\@


 My opinions may have changed, but not the fact that I am right.
                       -- Ashleigh Brilliant
 Job cpu time:       0 days  0 hours  8 minutes 34.3 seconds.
 Elapsed time:       0 days  0 hours  0 minutes 21.9 seconds.
 File lengths (MBytes):  RWF=     10 Int=      0 D2E=      0 Chk=      2 Scr=      1
 Normal termination of Gaussian 16 at Wed Dec  4 04:01:47 2024.
