 Entering Gaussian System, Link 0=/applications/g16/g16/g16
 Initial command:
 /applications/g16/g16/l1.exe "/scratch/g98/Gau-11176.inp" -scrdir="/scratch/g98/"
 Entering Link 1 = /applications/g16/g16/l1.exe PID=     11177.
  
 Copyright (c) 1988,1990,1992,1993,1995,1998,2003,2009,2016,
            Gaussian, Inc.  All Rights Reserved.
  
 This is part of the Gaussian(R) 16 program.  It is based on
 the Gaussian(R) 09 system (copyright 2009, Gaussian, Inc.),
 the Gaussian(R) 03 system (copyright 2003, Gaussian, Inc.),
 the Gaussian(R) 98 system (copyright 1998, Gaussian, Inc.),
 the Gaussian(R) 94 system (copyright 1995, Gaussian, Inc.),
 the Gaussian 92(TM) system (copyright 1992, Gaussian, Inc.),
 the Gaussian 90(TM) system (copyright 1990, Gaussian, Inc.),
 the Gaussian 88(TM) system (copyright 1988, Gaussian, Inc.),
 the Gaussian 86(TM) system (copyright 1986, Carnegie Mellon
 University), and the Gaussian 82(TM) system (copyright 1983,
 Carnegie Mellon University). Gaussian is a federally registered
 trademark of Gaussian, Inc.
  
 This software contains proprietary and confidential information,
 including trade secrets, belonging to Gaussian, Inc.
  
 This software is provided under written license and may be
 used, copied, transmitted, or stored only in accord with that
 written license.
  
 The following legend is applicable only to US Government
 contracts under FAR:
  
                    RESTRICTED RIGHTS LEGEND
  
 Use, reproduction and disclosure by the US Government is
 subject to restrictions as set forth in subparagraphs (a)
 and (c) of the Commercial Computer Software - Restricted
 Rights clause in FAR 52.227-19.
  
 Gaussian, Inc.
 340 Quinnipiac St., Bldg. 40, Wallingford CT 06492
  
  
 ---------------------------------------------------------------
 Warning -- This program may not be used in any manner that
 competes with the business of Gaussian, Inc. or will provide
 assistance to any competitor of Gaussian, Inc.  The licensee
 of this program is prohibited from giving any competitor of
 Gaussian, Inc. access to this program.  By using this program,
 the user acknowledges that Gaussian, Inc. is engaged in the
 business of creating and licensing software in the field of
 computational chemistry and represents and warrants to the
 licensee that it is not a competitor of Gaussian, Inc. and that
 it will not use this program in any manner prohibited above.
 ---------------------------------------------------------------
  

 Cite this work as:
 Gaussian 16, Revision A.03,
 M. J. Frisch, G. W. Trucks, H. B. Schlegel, G. E. Scuseria, 
 M. A. Robb, J. R. Cheeseman, G. Scalmani, V. Barone, 
 G. A. Petersson, H. Nakatsuji, X. Li, M. Caricato, A. V. Marenich, 
 J. Bloino, B. G. Janesko, R. Gomperts, B. Mennucci, H. P. Hratchian, 
 J. V. Ortiz, A. F. Izmaylov, J. L. Sonnenberg, D. Williams-Young, 
 F. Ding, F. Lipparini, F. Egidi, J. Goings, B. Peng, A. Petrone, 
 T. Henderson, D. Ranasinghe, V. G. Zakrzewski, J. Gao, N. Rega, 
 G. Zheng, W. Liang, M. Hada, M. Ehara, K. Toyota, R. Fukuda, 
 J. Hasegawa, M. Ishida, T. Nakajima, Y. Honda, O. Kitao, H. Nakai, 
 T. Vreven, K. Throssell, J. A. Montgomery, Jr., J. E. Peralta, 
 F. Ogliaro, M. J. Bearpark, J. J. Heyd, E. N. Brothers, K. N. Kudin, 
 V. N. Staroverov, T. A. Keith, R. Kobayashi, J. Normand, 
 K. Raghavachari, A. P. Rendell, J. C. Burant, S. S. Iyengar, 
 J. Tomasi, M. Cossi, J. M. Millam, M. Klene, C. Adamo, R. Cammi, 
 J. W. Ochterski, R. L. Martin, K. Morokuma, O. Farkas, 
 J. B. Foresman, and D. J. Fox, Gaussian, Inc., Wallingford CT, 2016.
 
 ******************************************
 Gaussian 16:  EM64M-G16RevA.03 25-Dec-2016
                20-Sep-2024 
 ******************************************
 %mem=24GB
 %nprocshared=8
 Will use up to    8 processors via shared memory.
 %chk=co.chk
 --------------------------------------------------------
 # opt=(calcall) uwb97xd/6-311+g(2d,2p) geom=connectivity
 --------------------------------------------------------
 1/10=4,18=20,19=15,26=3,38=1,57=2/1,3;
 2/9=110,12=2,17=6,18=5,40=1/2;
 3/5=4,6=6,7=212,11=2,25=1,30=1,71=2,74=-58,116=2,140=1/1,2,3;
 4//1;
 5/5=2,38=5/2;
 8/6=4,10=90,11=11/1;
 11/6=1,8=1,9=11,15=111,16=1/1,2,10;
 10/6=1/2;
 6/7=2,8=2,9=2,10=2,18=1,28=1/1;
 7/10=1,25=1/1,2,3,16;
 1/10=4,18=20,19=15,26=3/3(3);
 2/9=110/2;
 7/8=1,9=1,25=1,44=-1/16;
 99//99;
 2/9=110/2;
 3/5=4,6=6,7=212,11=2,25=1,30=1,71=2,74=-58,116=2,140=1/1,2,3;
 4/5=5,16=3,69=1/1;
 5/5=2,38=5/2;
 8/6=4,10=90,11=11/1;
 11/6=1,8=1,9=11,15=111,16=1/1,2,10;
 10/6=1/2;
 7/10=1,25=1/1,2,3,16;
 1/10=4,18=20,19=15,26=3/3(-8);
 2/9=110/2;
 6/7=2,8=2,9=2,10=2,18=1,19=2,28=1/1;
 7/8=1,9=1,25=1,44=-1/16;
 99//99;
 -------------------
 Title Card Required
 -------------------
 Symbolic Z-matrix:
 Charge =  0 Multiplicity = 1
 C                     0.76597   0.53067   0.00001 
 O                     1.41023  -0.42465   0.00001 
 

 GradGradGradGradGradGradGradGradGradGradGradGradGradGradGradGradGradGrad
 Berny optimization.
 Initialization pass.
                           ----------------------------
                           !    Initial Parameters    !
                           ! (Angstroms and Degrees)  !
 --------------------------                            --------------------------
 ! Name  Definition              Value          Derivative Info.                !
 --------------------------------------------------------------------------------
 ! R1    R(1,2)                  1.1523         calculate D2E/DX2 analytically  !
 --------------------------------------------------------------------------------
 Trust Radius=3.00D-01 FncErr=1.00D-07 GrdErr=1.00D-06 EigMax=2.50D+02 EigMin=1.00D-04
 Number of steps in this run=     20 maximum allowed number of steps=    100.
 GradGradGradGradGradGradGradGradGradGradGradGradGradGradGradGradGradGrad

                          Input orientation:                          
 ---------------------------------------------------------------------
 Center     Atomic      Atomic             Coordinates (Angstroms)
 Number     Number       Type             X           Y           Z
 ---------------------------------------------------------------------
      1          6           0        0.765971    0.530667    0.000011
      2          8           0        1.410225   -0.424649    0.000005
 ---------------------------------------------------------------------
 Stoichiometry    CO
 Framework group  C*V[C*(CO)]
 Deg. of freedom     1
 Full point group                 C*V     NOp   4
 Largest Abelian subgroup         C2V     NOp   4
 Largest concise Abelian subgroup C1      NOp   1
                         Standard orientation:                         
 ---------------------------------------------------------------------
 Center     Atomic      Atomic             Coordinates (Angstroms)
 Number     Number       Type             X           Y           Z
 ---------------------------------------------------------------------
      1          6           0       -0.000000   -0.000000   -0.658432
      2          8           0        0.000000    0.000000    0.493824
 ---------------------------------------------------------------------
 Rotational constants (GHZ):           0.0000000          55.5182638          55.5182638
 Standard basis: 6-311+G(2d,2p) (5D, 7F)
 There are    30 symmetry adapted cartesian basis functions of A1  symmetry.
 There are     4 symmetry adapted cartesian basis functions of A2  symmetry.
 There are    12 symmetry adapted cartesian basis functions of B1  symmetry.
 There are    12 symmetry adapted cartesian basis functions of B2  symmetry.
 There are    26 symmetry adapted basis functions of A1  symmetry.
 There are     4 symmetry adapted basis functions of A2  symmetry.
 There are    12 symmetry adapted basis functions of B1  symmetry.
 There are    12 symmetry adapted basis functions of B2  symmetry.
    54 basis functions,    84 primitive gaussians,    58 cartesian basis functions
     7 alpha electrons        7 beta electrons
       nuclear repulsion energy        22.0441684670 Hartrees.
 NAtoms=    2 NActive=    2 NUniq=    2 SFac= 1.00D+00 NAtFMM=   60 NAOKFM=F Big=F
 Integral buffers will be    131072 words long.
 Raffenetti 2 integral format.
 Two-electron integral symmetry is turned on.
 Nuclear repulsion after empirical dispersion term =       22.0441677404 Hartrees.
 One-electron integrals computed using PRISM.
 NBasis=    54 RedAO= T EigKep=  1.41D-03  NBF=    26     4    12    12
 NBsUse=    54 1.00D-06 EigRej= -1.00D+00 NBFU=    26     4    12    12
 ExpMin= 4.38D-02 ExpMax= 8.59D+03 ExpMxC= 1.30D+03 IAcc=3 IRadAn=         5 AccDes= 0.00D+00
 Harris functional with IExCor= 4639 and IRadAn=       5 diagonalized for initial guess.
 HarFok:  IExCor= 4639 AccDes= 0.00D+00 IRadAn=         5 IDoV= 1 UseB2=F ITyADJ=14
 ICtDFT=  3500011 ScaDFX=  1.000000  1.000000  1.000000  1.000000
 FoFCou: FMM=F IPFlag=           0 FMFlag=      100000 FMFlg1=           0
         NFxFlg=           0 DoJE=T BraDBF=F KetDBF=T FulRan=T
         wScrn=  0.000000 ICntrl=       500 IOpCl=  0 I1Cent=   200000004 NGrid=           0
         NMat0=    1 NMatS0=      1 NMatT0=    0 NMatD0=    1 NMtDS0=    0 NMtDT0=    0
 Petite list used in FoFCou.
 Initial guess orbital symmetries:
 Alpha Orbitals:
       Occupied  (SG) (SG) (SG) (SG) (PI) (PI) (SG)
       Virtual   (PI) (PI) (SG) (SG) (PI) (PI) (SG) (PI) (PI) (SG)
                 (SG) (PI) (PI) (SG) (DLTA) (DLTA) (PI) (PI) (SG)
                 (SG) (PI) (PI) (SG) (SG) (DLTA) (DLTA) (PI) (PI)
                 (SG) (PI) (PI) (SG) (DLTA) (DLTA) (PI) (PI) (SG)
                 (PI) (PI) (SG) (DLTA) (DLTA) (PI) (PI) (SG) (SG)
                 (SG)
 Beta  Orbitals:
       Occupied  (SG) (SG) (SG) (SG) (PI) (PI) (SG)
       Virtual   (PI) (PI) (SG) (SG) (PI) (PI) (SG) (PI) (PI) (SG)
                 (SG) (PI) (PI) (SG) (DLTA) (DLTA) (PI) (PI) (SG)
                 (SG) (PI) (PI) (SG) (SG) (DLTA) (DLTA) (PI) (PI)
                 (SG) (PI) (PI) (SG) (DLTA) (DLTA) (PI) (PI) (SG)
                 (PI) (PI) (SG) (DLTA) (DLTA) (PI) (PI) (SG) (SG)
                 (SG)
 The electronic state of the initial guess is 1-SG.
 Initial guess <Sx>= 0.0000 <Sy>= 0.0000 <Sz>= 0.0000 <S**2>= 0.0000 S= 0.0000
 Keep R1 and R2 ints in memory in symmetry-blocked form, NReq=9248934.
 Requested convergence on RMS density matrix=1.00D-08 within 128 cycles.
 Requested convergence on MAX density matrix=1.00D-06.
 Requested convergence on             energy=1.00D-06.
 No special actions if energy rises.
 SCF Done:  E(UwB97XD) =  -113.308655428     A.U. after   10 cycles
            NFock= 10  Conv=0.65D-08     -V/T= 2.0039
 <Sx>= 0.0000 <Sy>= 0.0000 <Sz>= 0.0000 <S**2>= 0.0000 S= 0.0000
 <L.S>= 0.000000000000E+00
 Annihilation of the first spin contaminant:
 S**2 before annihilation     0.0000,   after    -0.0000
 DoSCS=F DFT=T ScalE2(SS,OS)=  1.000000  1.000000
 Range of M.O.s used for correlation:     1    54
 NBasis=    54 NAE=     7 NBE=     7 NFC=     0 NFV=     0
 NROrb=     54 NOA=     7 NOB=     7 NVA=    47 NVB=    47
 Symmetrizing basis deriv contribution to polar:
 IMax=3 JMax=2 DiffMx= 0.00D+00
 G2DrvN: will do     3 centers at a time, making    1 passes.
 Calling FoFCou, ICntrl=  3107 FMM=F I1Cent=   0 AccDes= 0.00D+00.
 End of G2Drv F.D. properties file   721 does not exist.
 End of G2Drv F.D. properties file   722 does not exist.
 End of G2Drv F.D. properties file   788 does not exist.
          IDoAtm=11
          Differentiating once with respect to electric field.
                with respect to dipole field.
          Differentiating once with respect to nuclear coordinates.
 Keep R1 and R2 ints in memory in symmetry-blocked form, NReq=9223082.
          There are     9 degrees of freedom in the 1st order CPHF.  IDoFFX=6 NUNeed=     3.
      6 vectors produced by pass  0 Test12= 7.31D-15 1.11D-08 XBig12= 1.43D+01 1.55D+00.
 AX will form     6 AO Fock derivatives at one time.
      6 vectors produced by pass  1 Test12= 7.31D-15 1.11D-08 XBig12= 6.96D+00 9.47D-01.
      6 vectors produced by pass  2 Test12= 7.31D-15 1.11D-08 XBig12= 1.41D-01 1.01D-01.
      6 vectors produced by pass  3 Test12= 7.31D-15 1.11D-08 XBig12= 1.61D-03 1.23D-02.
      6 vectors produced by pass  4 Test12= 7.31D-15 1.11D-08 XBig12= 3.32D-05 1.45D-03.
      6 vectors produced by pass  5 Test12= 7.31D-15 1.11D-08 XBig12= 5.47D-07 2.17D-04.
      6 vectors produced by pass  6 Test12= 7.31D-15 1.11D-08 XBig12= 7.46D-09 2.53D-05.
      3 vectors produced by pass  7 Test12= 7.31D-15 1.11D-08 XBig12= 4.76D-11 1.35D-06.
      1 vectors produced by pass  8 Test12= 7.31D-15 1.11D-08 XBig12= 2.19D-13 1.16D-07.
 InvSVY:  IOpt=1 It=  1 EMax= 4.44D-16
 Solved reduced A of dimension    46 with     6 vectors.
 Isotropic polarizability for W=    0.000000       12.49 Bohr**3.
 End of Minotr F.D. properties file   721 does not exist.
 End of Minotr F.D. properties file   722 does not exist.
 End of Minotr F.D. properties file   788 does not exist.

 **********************************************************************

            Population analysis using the SCF density.

 **********************************************************************

 Orbital symmetries:
 Alpha Orbitals:
       Occupied  (SG) (SG) (SG) (SG) (PI) (PI) (SG)
       Virtual   (PI) (PI) (SG) (SG) (PI) (PI) (SG) (PI) (PI) (SG)
                 (SG) (PI) (PI) (SG) (DLTA) (DLTA) (SG) (PI) (PI)
                 (SG) (PI) (PI) (SG) (SG) (DLTA) (DLTA) (PI) (PI)
                 (SG) (PI) (PI) (SG) (DLTA) (DLTA) (PI) (PI) (SG)
                 (PI) (PI) (SG) (DLTA) (DLTA) (PI) (PI) (SG) (SG)
                 (SG)
 Beta  Orbitals:
       Occupied  (SG) (SG) (SG) (SG) (PI) (PI) (SG)
       Virtual   (PI) (PI) (SG) (SG) (PI) (PI) (SG) (PI) (PI) (SG)
                 (SG) (PI) (PI) (SG) (DLTA) (DLTA) (SG) (PI) (PI)
                 (SG) (PI) (PI) (SG) (SG) (DLTA) (DLTA) (PI) (PI)
                 (SG) (PI) (PI) (SG) (DLTA) (DLTA) (PI) (PI) (SG)
                 (PI) (PI) (SG) (DLTA) (DLTA) (PI) (PI) (SG) (SG)
                 (SG)
 The electronic state is 1-SG.
 Alpha  occ. eigenvalues --  -19.36009 -10.41490  -1.26107  -0.67559  -0.56185
 Alpha  occ. eigenvalues --   -0.56185  -0.47408
 Alpha virt. eigenvalues --    0.03108   0.03108   0.08448   0.11240   0.12387
 Alpha virt. eigenvalues --    0.12387   0.25134   0.28072   0.28072   0.32672
 Alpha virt. eigenvalues --    0.44585   0.60343   0.60343   0.69454   0.70263
 Alpha virt. eigenvalues --    0.70263   0.90559   0.91734   0.91734   1.01948
 Alpha virt. eigenvalues --    1.10255   1.10255   1.40789   1.49406   1.59540
 Alpha virt. eigenvalues --    1.59540   1.98984   1.98984   2.51983   2.80434
 Alpha virt. eigenvalues --    2.80434   3.17145   3.26078   3.26078   3.42264
 Alpha virt. eigenvalues --    3.42264   3.75949   5.04527   5.04527   5.94545
 Alpha virt. eigenvalues --    6.74499   6.74499   7.00009   7.00009   7.19100
 Alpha virt. eigenvalues --   23.99789  49.92716
  Beta  occ. eigenvalues --  -19.36009 -10.41490  -1.26107  -0.67559  -0.56185
  Beta  occ. eigenvalues --   -0.56185  -0.47408
  Beta virt. eigenvalues --    0.03108   0.03108   0.08448   0.11240   0.12387
  Beta virt. eigenvalues --    0.12387   0.25134   0.28072   0.28072   0.32672
  Beta virt. eigenvalues --    0.44585   0.60343   0.60343   0.69454   0.70263
  Beta virt. eigenvalues --    0.70263   0.90559   0.91734   0.91734   1.01948
  Beta virt. eigenvalues --    1.10255   1.10255   1.40789   1.49406   1.59540
  Beta virt. eigenvalues --    1.59540   1.98984   1.98984   2.51983   2.80434
  Beta virt. eigenvalues --    2.80434   3.17145   3.26078   3.26078   3.42264
  Beta virt. eigenvalues --    3.42264   3.75949   5.04527   5.04527   5.94545
  Beta virt. eigenvalues --    6.74499   6.74499   7.00009   7.00009   7.19100
  Beta virt. eigenvalues --   23.99789  49.92716
          Condensed to atoms (all electrons):
               1          2
     1  C    5.590301   0.354763
     2  O    0.354763   7.700174
          Atomic-Atomic Spin Densities.
               1          2
     1  C   -0.000000   0.000000
     2  O    0.000000   0.000000
 Mulliken charges and spin densities:
               1          2
     1  C    0.054937  -0.000000
     2  O   -0.054937   0.000000
 Sum of Mulliken charges =  -0.00000  -0.00000
 Mulliken charges and spin densities with hydrogens summed into heavy atoms:
               1          2
     1  C    0.054937  -0.000000
     2  O   -0.054937   0.000000
 APT charges:
               1
     1  C    0.272688
     2  O   -0.272688
 Sum of APT charges =  -0.00000
 APT charges with hydrogens summed into heavy atoms:
               1
     1  C    0.272688
     2  O   -0.272688
 Electronic spatial extent (au):  <R**2>=             40.6865
 Charge=             -0.0000 electrons
 Dipole moment (field-independent basis, Debye):
    X=              0.0000    Y=              0.0000    Z=             -0.0154  Tot=              0.0154
 Quadrupole moment (field-independent basis, Debye-Ang):
   XX=            -10.3150   YY=            -10.3150   ZZ=            -12.2301
   XY=             -0.0000   XZ=              0.0000   YZ=             -0.0000
 Traceless Quadrupole moment (field-independent basis, Debye-Ang):
   XX=              0.6384   YY=              0.6384   ZZ=             -1.2767
   XY=             -0.0000   XZ=              0.0000   YZ=             -0.0000
 Octapole moment (field-independent basis, Debye-Ang**2):
  XXX=              0.0000  YYY=              0.0000  ZZZ=              6.2693  XYY=              0.0000
  XXY=              0.0000  XXZ=              1.2268  XZZ=              0.0000  YZZ=              0.0000
  YYZ=              1.2268  XYZ=             -0.0000
 Hexadecapole moment (field-independent basis, Debye-Ang**3):
 XXXX=             -9.4359 YYYY=             -9.4359 ZZZZ=            -37.9800 XXXY=             -0.0000
 XXXZ=              0.0000 YYYX=             -0.0000 YYYZ=             -0.0000 ZZZX=              0.0000
 ZZZY=             -0.0000 XXYY=             -3.1453 XXZZ=             -7.3485 YYZZ=             -7.3485
 XXYZ=             -0.0000 YYXZ=              0.0000 ZZXY=             -0.0000
 N-N= 2.204416774038D+01 E-N=-3.103311035546D+02  KE= 1.128723468952D+02
 Symmetry A1   KE= 1.047004091632D+02
 Symmetry A2   KE= 9.342555327702D-31
 Symmetry B1   KE= 4.085968865999D+00
 Symmetry B2   KE= 4.085968865999D+00
 Symmetry A1   SP=-7.027383244928D-16
 Symmetry A2   SP=-1.973024481775D-47
 Symmetry B1   SP=-2.737173295170D-16
 Symmetry B2   SP=-2.292595906040D-16
  Exact polarizability:  10.841   0.000  10.841   0.000  -0.000  15.803
 Approx polarizability:  11.098  -0.000  11.098  -0.000   0.000  19.289
                          Isotropic Fermi Contact Couplings
        Atom                 a.u.       MegaHertz       Gauss      10(-4) cm-1
     1  C(13)             -0.00000      -0.00000      -0.00000      -0.00000
     2  O(17)             -0.00000       0.00000       0.00000       0.00000
 --------------------------------------------------------
       Center         ----  Spin Dipole Couplings  ----
                      3XX-RR        3YY-RR        3ZZ-RR
 --------------------------------------------------------
     1   Atom        0.000000      0.000000      0.000000
     2   Atom        0.000000      0.000000      0.000000
 --------------------------------------------------------
                        XY            XZ            YZ
 --------------------------------------------------------
     1   Atom        0.000000      0.000000      0.000000
     2   Atom        0.000000      0.000000      0.000000
 --------------------------------------------------------


 ---------------------------------------------------------------------------------
              Anisotropic Spin Dipole Couplings in Principal Axis System
 ---------------------------------------------------------------------------------

       Atom             a.u.   MegaHertz   Gauss  10(-4) cm-1        Axes

              Baa     0.0000     0.000     0.000     0.000  1.0000  0.0000  0.0000
     1 C(13)  Bbb     0.0000     0.000     0.000     0.000  0.0000  1.0000  0.0000
              Bcc     0.0000     0.000     0.000     0.000  0.0000  0.0000  1.0000
 
              Baa     0.0000    -0.000    -0.000    -0.000  1.0000  0.0000  0.0000
     2 O(17)  Bbb     0.0000    -0.000    -0.000    -0.000  0.0000  1.0000  0.0000
              Bcc     0.0000    -0.000    -0.000    -0.000  0.0000  0.0000  1.0000
 

 ---------------------------------------------------------------------------------

 Calling FoFJK, ICntrl=    100127 FMM=F ISym2X=1 I1Cent= 0 IOpClX= 1 NMat=1 NMatS=1 NMatT=0.
 ***** Axes restored to original set *****
 -------------------------------------------------------------------
 Center     Atomic                   Forces (Hartrees/Bohr)
 Number     Number              X              Y              Z
 -------------------------------------------------------------------
      1        6           0.035945479   -0.053300859   -0.000000335
      2        8          -0.035945479    0.053300859    0.000000335
 -------------------------------------------------------------------
 Cartesian Forces:  Max     0.053300859 RMS     0.037117197
 FormGI is forming the generalized inverse of G from B-inverse, IUseBI=4.

 GradGradGradGradGradGradGradGradGradGradGradGradGradGradGradGradGradGrad
 Berny optimization.
 Internal  Forces:  Max     0.064288872 RMS     0.064288872
 Search for a local minimum.
 Step number   1 out of a maximum of   20
 All quantities printed in internal units (Hartrees-Bohrs-Radians)
 Mixed Optimization -- RFO/linear search
 Second derivative matrix not updated -- analytic derivatives used.
 The second derivative matrix:
                          R1
           R1           1.06987
 ITU=  0
     Eigenvalues ---    1.06987
 RFO step:  Lambda=-3.84930386D-03 EMin= 1.06986667D+00
 Linear search not attempted -- first point.
 Iteration  1 RMS(Cart)=  0.04233810 RMS(Int)=  0.00000000
 Iteration  2 RMS(Cart)=  0.00000000 RMS(Int)=  0.00000000
 ClnCor:  largest displacement from symmetrization is 4.60D-16 for atom     2.
 Variable       Old X    -DE/DX   Delta X   Delta X   Delta X     New X
                                 (Linear)    (Quad)   (Total)
    R1        2.17745  -0.06429   0.00000  -0.05988  -0.05988   2.11757
         Item               Value     Threshold  Converged?
 Maximum Force            0.064289     0.000450     NO 
 RMS     Force            0.064289     0.000300     NO 
 Maximum Displacement     0.024821     0.001800     NO 
 RMS     Displacement     0.042338     0.001200     NO 
 Predicted change in Energy=-1.931552D-03
 GradGradGradGradGradGradGradGradGradGradGradGradGradGradGradGradGradGrad

                          Input orientation:                          
 ---------------------------------------------------------------------
 Center     Atomic      Atomic             Coordinates (Angstroms)
 Number     Number       Type             X           Y           Z
 ---------------------------------------------------------------------
      1          6           0        0.774829    0.517532    0.000011
      2          8           0        1.401367   -0.411514    0.000005
 ---------------------------------------------------------------------
 Stoichiometry    CO
 Framework group  C*V[C*(CO)]
 Deg. of freedom     1
 Full point group                 C*V     NOp   4
 Largest Abelian subgroup         C2V     NOp   4
 Largest concise Abelian subgroup C1      NOp   1
                         Standard orientation:                         
 ---------------------------------------------------------------------
 Center     Atomic      Atomic             Coordinates (Angstroms)
 Number     Number       Type             X           Y           Z
 ---------------------------------------------------------------------
      1          6           0        0.000000   -0.000000   -0.640326
      2          8           0       -0.000000    0.000000    0.480245
 ---------------------------------------------------------------------
 Rotational constants (GHZ):           0.0000000          58.7022495          58.7022495
 Standard basis: 6-311+G(2d,2p) (5D, 7F)
 There are    30 symmetry adapted cartesian basis functions of A1  symmetry.
 There are     4 symmetry adapted cartesian basis functions of A2  symmetry.
 There are    12 symmetry adapted cartesian basis functions of B1  symmetry.
 There are    12 symmetry adapted cartesian basis functions of B2  symmetry.
 There are    26 symmetry adapted basis functions of A1  symmetry.
 There are     4 symmetry adapted basis functions of A2  symmetry.
 There are    12 symmetry adapted basis functions of B1  symmetry.
 There are    12 symmetry adapted basis functions of B2  symmetry.
    54 basis functions,    84 primitive gaussians,    58 cartesian basis functions
     7 alpha electrons        7 beta electrons
       nuclear repulsion energy        22.6674755037 Hartrees.
 NAtoms=    2 NActive=    2 NUniq=    2 SFac= 1.00D+00 NAtFMM=   60 NAOKFM=F Big=F
 Integral buffers will be    131072 words long.
 Raffenetti 2 integral format.
 Two-electron integral symmetry is turned on.
 Nuclear repulsion after empirical dispersion term =       22.6674748891 Hartrees.
 One-electron integrals computed using PRISM.
 NBasis=    54 RedAO= T EigKep=  1.26D-03  NBF=    26     4    12    12
 NBsUse=    54 1.00D-06 EigRej= -1.00D+00 NBFU=    26     4    12    12
 Initial guess from the checkpoint file:  "co.chk"
 B after Tr=     0.000000    0.000000    0.000000
         Rot=    1.000000    0.000000   -0.000000   -0.000000 Ang=   0.00 deg.
 Initial guess orbital symmetries:
 Alpha Orbitals:
       Occupied  (SG) (SG) (SG) (SG) (PI) (PI) (SG)
       Virtual   (PI) (PI) (SG) (SG) (PI) (PI) (SG) (PI) (PI) (SG)
                 (SG) (PI) (PI) (SG) (DLTA) (DLTA) (SG) (PI) (PI)
                 (SG) (PI) (PI) (SG) (SG) (DLTA) (DLTA) (PI) (PI)
                 (SG) (PI) (PI) (SG) (DLTA) (DLTA) (PI) (PI) (SG)
                 (PI) (PI) (SG) (DLTA) (DLTA) (PI) (PI) (SG) (SG)
                 (SG)
 Beta  Orbitals:
       Occupied  (SG) (SG) (SG) (SG) (PI) (PI) (SG)
       Virtual   (PI) (PI) (SG) (SG) (PI) (PI) (SG) (PI) (PI) (SG)
                 (SG) (PI) (PI) (SG) (DLTA) (DLTA) (SG) (PI) (PI)
                 (SG) (PI) (PI) (SG) (SG) (DLTA) (DLTA) (PI) (PI)
                 (SG) (PI) (PI) (SG) (DLTA) (DLTA) (PI) (PI) (SG)
                 (PI) (PI) (SG) (DLTA) (DLTA) (PI) (PI) (SG) (SG)
                 (SG)
 Initial guess <Sx>= 0.0000 <Sy>= 0.0000 <Sz>= 0.0000 <S**2>=-0.0000 S=-0.0000
 ExpMin= 4.38D-02 ExpMax= 8.59D+03 ExpMxC= 1.30D+03 IAcc=2 IRadAn=         4 AccDes= 0.00D+00
 Harris functional with IExCor= 4639 and IRadAn=       4 diagonalized for initial guess.
 HarFok:  IExCor= 4639 AccDes= 0.00D+00 IRadAn=         4 IDoV= 1 UseB2=F ITyADJ=14
 ICtDFT=  3500011 ScaDFX=  1.000000  1.000000  1.000000  1.000000
 FoFCou: FMM=F IPFlag=           0 FMFlag=      100000 FMFlg1=           0
         NFxFlg=           0 DoJE=T BraDBF=F KetDBF=T FulRan=T
         wScrn=  0.000000 ICntrl=       500 IOpCl=  0 I1Cent=   200000004 NGrid=           0
         NMat0=    1 NMatS0=      1 NMatT0=    0 NMatD0=    1 NMtDS0=    0 NMtDT0=    0
 Petite list used in FoFCou.
 Keep R1 and R2 ints in memory in symmetry-blocked form, NReq=9248934.
 Requested convergence on RMS density matrix=1.00D-08 within 128 cycles.
 Requested convergence on MAX density matrix=1.00D-06.
 Requested convergence on             energy=1.00D-06.
 No special actions if energy rises.
 SCF Done:  E(UwB97XD) =  -113.310436340     A.U. after    9 cycles
            NFock=  9  Conv=0.16D-08     -V/T= 2.0025
 <Sx>= 0.0000 <Sy>= 0.0000 <Sz>= 0.0000 <S**2>=-0.0000 S=-0.0000
 <L.S>= 0.000000000000E+00
 Annihilation of the first spin contaminant:
 S**2 before annihilation    -0.0000,   after     0.0000
 DoSCS=F DFT=T ScalE2(SS,OS)=  1.000000  1.000000
 Range of M.O.s used for correlation:     1    54
 NBasis=    54 NAE=     7 NBE=     7 NFC=     0 NFV=     0
 NROrb=     54 NOA=     7 NOB=     7 NVA=    47 NVB=    47
 Symmetrizing basis deriv contribution to polar:
 IMax=3 JMax=2 DiffMx= 0.00D+00
 G2DrvN: will do     3 centers at a time, making    1 passes.
 Calling FoFCou, ICntrl=  3107 FMM=F I1Cent=   0 AccDes= 0.00D+00.
 End of G2Drv F.D. properties file   721 does not exist.
 End of G2Drv F.D. properties file   722 does not exist.
 End of G2Drv F.D. properties file   788 does not exist.
          IDoAtm=11
          Differentiating once with respect to electric field.
                with respect to dipole field.
          Differentiating once with respect to nuclear coordinates.
 Keep R1 and R2 ints in memory in symmetry-blocked form, NReq=9223082.
          There are     9 degrees of freedom in the 1st order CPHF.  IDoFFX=6 NUNeed=     3.
      6 vectors produced by pass  0 Test12= 7.31D-15 1.11D-08 XBig12= 1.29D+01 1.43D+00.
 AX will form     6 AO Fock derivatives at one time.
      6 vectors produced by pass  1 Test12= 7.31D-15 1.11D-08 XBig12= 6.07D+00 8.90D-01.
      6 vectors produced by pass  2 Test12= 7.31D-15 1.11D-08 XBig12= 1.26D-01 9.61D-02.
      6 vectors produced by pass  3 Test12= 7.31D-15 1.11D-08 XBig12= 1.38D-03 1.18D-02.
      6 vectors produced by pass  4 Test12= 7.31D-15 1.11D-08 XBig12= 2.70D-05 1.28D-03.
      6 vectors produced by pass  5 Test12= 7.31D-15 1.11D-08 XBig12= 4.40D-07 2.02D-04.
      6 vectors produced by pass  6 Test12= 7.31D-15 1.11D-08 XBig12= 6.03D-09 2.27D-05.
      3 vectors produced by pass  7 Test12= 7.31D-15 1.11D-08 XBig12= 3.84D-11 1.30D-06.
      1 vectors produced by pass  8 Test12= 7.31D-15 1.11D-08 XBig12= 1.75D-13 1.12D-07.
 InvSVY:  IOpt=1 It=  1 EMax= 6.66D-16
 Solved reduced A of dimension    46 with     6 vectors.
 Isotropic polarizability for W=    0.000000       12.25 Bohr**3.
 End of Minotr F.D. properties file   721 does not exist.
 End of Minotr F.D. properties file   722 does not exist.
 End of Minotr F.D. properties file   788 does not exist.
 Calling FoFJK, ICntrl=    100127 FMM=F ISym2X=1 I1Cent= 0 IOpClX= 1 NMat=1 NMatS=1 NMatT=0.
 ***** Axes restored to original set *****
 -------------------------------------------------------------------
 Center     Atomic                   Forces (Hartrees/Bohr)
 Number     Number              X              Y              Z
 -------------------------------------------------------------------
      1        6          -0.004148443    0.006151416    0.000000039
      2        8           0.004148443   -0.006151416   -0.000000039
 -------------------------------------------------------------------
 Cartesian Forces:  Max     0.006151416 RMS     0.004283670

 GradGradGradGradGradGradGradGradGradGradGradGradGradGradGradGradGradGrad
 Berny optimization.
 Using GEDIIS/GDIIS optimizer.
 Internal  Forces:  Max     0.007419535 RMS     0.007419535
 Search for a local minimum.
 Step number   2 out of a maximum of   20
 All quantities printed in internal units (Hartrees-Bohrs-Radians)
 Mixed Optimization -- RFO/linear search
 Second derivative matrix not updated -- analytic derivatives used.
 DE= -1.78D-03 DEPred=-1.93D-03 R= 9.22D-01
 TightC=F SS=  1.41D+00  RLast= 5.99D-02 DXNew= 5.0454D-01 1.7963D-01
 Trust test= 9.22D-01 RLast= 5.99D-02 DXMaxT set to 3.00D-01
 The second derivative matrix:
                          R1
           R1           1.33253
 ITU=  1  0
 Use linear search instead of GDIIS.
     Eigenvalues ---    1.33253
 RFO step:  Lambda= 0.00000000D+00 EMin= 1.33253460D+00
 Quintic linear search produced a step of -0.09393.
 Iteration  1 RMS(Cart)=  0.00397697 RMS(Int)=  0.00000000
 Iteration  2 RMS(Cart)=  0.00000000 RMS(Int)=  0.00000000
 ClnCor:  largest displacement from symmetrization is 3.34D-16 for atom     1.
 Variable       Old X    -DE/DX   Delta X   Delta X   Delta X     New X
                                 (Linear)    (Quad)   (Total)
    R1        2.11757   0.00742   0.00562  -0.00000   0.00562   2.12320
         Item               Value     Threshold  Converged?
 Maximum Force            0.007420     0.000450     NO 
 RMS     Force            0.007420     0.000300     NO 
 Maximum Displacement     0.002331     0.001800     NO 
 RMS     Displacement     0.003977     0.001200     NO 
 Predicted change in Energy=-2.065382D-05
 GradGradGradGradGradGradGradGradGradGradGradGradGradGradGradGradGradGrad

                          Input orientation:                          
 ---------------------------------------------------------------------
 Center     Atomic      Atomic             Coordinates (Angstroms)
 Number     Number       Type             X           Y           Z
 ---------------------------------------------------------------------
      1          6           0        0.773997    0.518766    0.000011
      2          8           0        1.402199   -0.412748    0.000005
 ---------------------------------------------------------------------
 Stoichiometry    CO
 Framework group  C*V[C*(CO)]
 Deg. of freedom     1
 Full point group                 C*V     NOp   4
 Largest Abelian subgroup         C2V     NOp   4
 Largest concise Abelian subgroup C1      NOp   1
                         Standard orientation:                         
 ---------------------------------------------------------------------
 Center     Atomic      Atomic             Coordinates (Angstroms)
 Number     Number       Type             X           Y           Z
 ---------------------------------------------------------------------
      1          6           0       -0.000000    0.000000   -0.642027
      2          8           0        0.000000   -0.000000    0.481520
 ---------------------------------------------------------------------
 Rotational constants (GHZ):           0.0000000          58.3916605          58.3916605
 Standard basis: 6-311+G(2d,2p) (5D, 7F)
 There are    30 symmetry adapted cartesian basis functions of A1  symmetry.
 There are     4 symmetry adapted cartesian basis functions of A2  symmetry.
 There are    12 symmetry adapted cartesian basis functions of B1  symmetry.
 There are    12 symmetry adapted cartesian basis functions of B2  symmetry.
 There are    26 symmetry adapted basis functions of A1  symmetry.
 There are     4 symmetry adapted basis functions of A2  symmetry.
 There are    12 symmetry adapted basis functions of B1  symmetry.
 There are    12 symmetry adapted basis functions of B2  symmetry.
    54 basis functions,    84 primitive gaussians,    58 cartesian basis functions
     7 alpha electrons        7 beta electrons
       nuclear repulsion energy        22.6074300595 Hartrees.
 NAtoms=    2 NActive=    2 NUniq=    2 SFac= 1.00D+00 NAtFMM=   60 NAOKFM=F Big=F
 Integral buffers will be    131072 words long.
 Raffenetti 2 integral format.
 Two-electron integral symmetry is turned on.
 Nuclear repulsion after empirical dispersion term =       22.6074294350 Hartrees.
 One-electron integrals computed using PRISM.
 NBasis=    54 RedAO= T EigKep=  1.27D-03  NBF=    26     4    12    12
 NBsUse=    54 1.00D-06 EigRej= -1.00D+00 NBFU=    26     4    12    12
 Initial guess from the checkpoint file:  "co.chk"
 B after Tr=     0.000000    0.000000    0.000000
         Rot=    1.000000   -0.000000   -0.000000    0.000000 Ang=   0.00 deg.
 Initial guess orbital symmetries:
 Alpha Orbitals:
       Occupied  (SG) (SG) (SG) (SG) (PI) (PI) (SG)
       Virtual   (PI) (PI) (SG) (SG) (PI) (PI) (SG) (PI) (PI) (SG)
                 (SG) (PI) (PI) (DLTA) (DLTA) (SG) (SG) (PI) (PI)
                 (SG) (PI) (PI) (SG) (SG) (DLTA) (DLTA) (PI) (PI)
                 (SG) (PI) (PI) (SG) (DLTA) (DLTA) (PI) (PI) (SG)
                 (PI) (PI) (SG) (DLTA) (DLTA) (PI) (PI) (SG) (SG)
                 (SG)
 Beta  Orbitals:
       Occupied  (SG) (SG) (SG) (SG) (PI) (PI) (SG)
       Virtual   (PI) (PI) (SG) (SG) (PI) (PI) (SG) (PI) (PI) (SG)
                 (SG) (PI) (PI) (DLTA) (DLTA) (SG) (SG) (PI) (PI)
                 (SG) (PI) (PI) (SG) (SG) (DLTA) (DLTA) (PI) (PI)
                 (SG) (PI) (PI) (SG) (DLTA) (DLTA) (PI) (PI) (SG)
                 (PI) (PI) (SG) (DLTA) (DLTA) (PI) (PI) (SG) (SG)
                 (SG)
 Initial guess <Sx>= 0.0000 <Sy>= 0.0000 <Sz>= 0.0000 <S**2>=-0.0000 S=-0.0000
 Keep R1 and R2 ints in memory in symmetry-blocked form, NReq=9248934.
 Requested convergence on RMS density matrix=1.00D-08 within 128 cycles.
 Requested convergence on MAX density matrix=1.00D-06.
 Requested convergence on             energy=1.00D-06.
 No special actions if energy rises.
 SCF Done:  E(UwB97XD) =  -113.310457134     A.U. after    8 cycles
            NFock=  8  Conv=0.15D-08     -V/T= 2.0027
 <Sx>= 0.0000 <Sy>= 0.0000 <Sz>= 0.0000 <S**2>= 0.0000 S= 0.0000
 <L.S>= 0.000000000000E+00
 Annihilation of the first spin contaminant:
 S**2 before annihilation     0.0000,   after     0.0000
 DoSCS=F DFT=T ScalE2(SS,OS)=  1.000000  1.000000
 Range of M.O.s used for correlation:     1    54
 NBasis=    54 NAE=     7 NBE=     7 NFC=     0 NFV=     0
 NROrb=     54 NOA=     7 NOB=     7 NVA=    47 NVB=    47
 Symmetrizing basis deriv contribution to polar:
 IMax=3 JMax=2 DiffMx= 0.00D+00
 G2DrvN: will do     3 centers at a time, making    1 passes.
 Calling FoFCou, ICntrl=  3107 FMM=F I1Cent=   0 AccDes= 0.00D+00.
 End of G2Drv F.D. properties file   721 does not exist.
 End of G2Drv F.D. properties file   722 does not exist.
 End of G2Drv F.D. properties file   788 does not exist.
          IDoAtm=11
          Differentiating once with respect to electric field.
                with respect to dipole field.
          Differentiating once with respect to nuclear coordinates.
 Keep R1 and R2 ints in memory in symmetry-blocked form, NReq=9223082.
          There are     9 degrees of freedom in the 1st order CPHF.  IDoFFX=6 NUNeed=     3.
      6 vectors produced by pass  0 Test12= 7.31D-15 1.11D-08 XBig12= 1.30D+01 1.44D+00.
 AX will form     6 AO Fock derivatives at one time.
      6 vectors produced by pass  1 Test12= 7.31D-15 1.11D-08 XBig12= 6.14D+00 8.95D-01.
      6 vectors produced by pass  2 Test12= 7.31D-15 1.11D-08 XBig12= 1.27D-01 9.66D-02.
      6 vectors produced by pass  3 Test12= 7.31D-15 1.11D-08 XBig12= 1.40D-03 1.19D-02.
      6 vectors produced by pass  4 Test12= 7.31D-15 1.11D-08 XBig12= 2.75D-05 1.30D-03.
      6 vectors produced by pass  5 Test12= 7.31D-15 1.11D-08 XBig12= 4.49D-07 2.03D-04.
      6 vectors produced by pass  6 Test12= 7.31D-15 1.11D-08 XBig12= 6.15D-09 2.29D-05.
      3 vectors produced by pass  7 Test12= 7.31D-15 1.11D-08 XBig12= 3.91D-11 1.31D-06.
      1 vectors produced by pass  8 Test12= 7.31D-15 1.11D-08 XBig12= 1.79D-13 1.12D-07.
 InvSVY:  IOpt=1 It=  1 EMax= 2.22D-16
 Solved reduced A of dimension    46 with     6 vectors.
 Isotropic polarizability for W=    0.000000       12.28 Bohr**3.
 End of Minotr F.D. properties file   721 does not exist.
 End of Minotr F.D. properties file   722 does not exist.
 End of Minotr F.D. properties file   788 does not exist.
 Calling FoFJK, ICntrl=    100127 FMM=F ISym2X=1 I1Cent= 0 IOpClX= 1 NMat=1 NMatS=1 NMatT=0.
 ***** Axes restored to original set *****
 -------------------------------------------------------------------
 Center     Atomic                   Forces (Hartrees/Bohr)
 Number     Number              X              Y              Z
 -------------------------------------------------------------------
      1        6           0.000000102   -0.000000152   -0.000000000
      2        8          -0.000000102    0.000000152    0.000000000
 -------------------------------------------------------------------
 Cartesian Forces:  Max     0.000000152 RMS     0.000000106

 GradGradGradGradGradGradGradGradGradGradGradGradGradGradGradGradGradGrad
 Berny optimization.
 Using GEDIIS/GDIIS optimizer.
 Internal  Forces:  Max     0.000000183 RMS     0.000000183
 Search for a local minimum.
 Step number   3 out of a maximum of   20
 All quantities printed in internal units (Hartrees-Bohrs-Radians)
 Mixed Optimization -- En-DIIS/RFO-DIIS
 Second derivative matrix not updated -- analytic derivatives used.
 DE= -2.08D-05 DEPred=-2.07D-05 R= 1.01D+00
 TightC=F SS=  1.41D+00  RLast= 5.62D-03 DXNew= 5.0454D-01 1.6873D-02
 Trust test= 1.01D+00 RLast= 5.62D-03 DXMaxT set to 3.00D-01
 The second derivative matrix:
                          R1
           R1           1.30591
 ITU=  1  1
 Use linear search instead of GDIIS.
     Eigenvalues ---    1.30591
 RFO step:  Lambda= 0.00000000D+00 EMin= 1.30591391D+00
 Quintic linear search produced a step of -0.00002.
 Iteration  1 RMS(Cart)=  0.00000010 RMS(Int)=  0.00000000
 ClnCor:  largest displacement from symmetrization is 3.33D-16 for atom     2.
 Variable       Old X    -DE/DX   Delta X   Delta X   Delta X     New X
                                 (Linear)    (Quad)   (Total)
    R1        2.12320  -0.00000  -0.00000   0.00000  -0.00000   2.12320
         Item               Value     Threshold  Converged?
 Maximum Force            0.000000     0.000450     YES
 RMS     Force            0.000000     0.000300     YES
 Maximum Displacement     0.000000     0.001800     YES
 RMS     Displacement     0.000000     0.001200     YES
 Predicted change in Energy=-1.281426D-14
 Optimization completed.
    -- Stationary point found.
                           ----------------------------
                           !   Optimized Parameters   !
                           ! (Angstroms and Degrees)  !
 --------------------------                            --------------------------
 ! Name  Definition              Value          Derivative Info.                !
 --------------------------------------------------------------------------------
 ! R1    R(1,2)                  1.1235         -DE/DX =    0.0                 !
 --------------------------------------------------------------------------------
 GradGradGradGradGradGradGradGradGradGradGradGradGradGradGradGradGradGrad

                          Input orientation:                          
 ---------------------------------------------------------------------
 Center     Atomic      Atomic             Coordinates (Angstroms)
 Number     Number       Type             X           Y           Z
 ---------------------------------------------------------------------
      1          6           0        0.773997    0.518766    0.000011
      2          8           0        1.402199   -0.412748    0.000005
 ---------------------------------------------------------------------
 Stoichiometry    CO
 Framework group  C*V[C*(CO)]
 Deg. of freedom     1
 Full point group                 C*V     NOp   4
 Largest Abelian subgroup         C2V     NOp   4
 Largest concise Abelian subgroup C1      NOp   1
                         Standard orientation:                         
 ---------------------------------------------------------------------
 Center     Atomic      Atomic             Coordinates (Angstroms)
 Number     Number       Type             X           Y           Z
 ---------------------------------------------------------------------
      1          6           0       -0.000000    0.000000   -0.642027
      2          8           0        0.000000   -0.000000    0.481520
 ---------------------------------------------------------------------
 Rotational constants (GHZ):           0.0000000          58.3916605          58.3916605

 **********************************************************************

            Population analysis using the SCF density.

 **********************************************************************

 Orbital symmetries:
 Alpha Orbitals:
       Occupied  (SG) (SG) (SG) (SG) (PI) (PI) (SG)
       Virtual   (PI) (PI) (SG) (SG) (PI) (PI) (SG) (PI) (PI) (SG)
                 (SG) (PI) (PI) (DLTA) (DLTA) (SG) (SG) (PI) (PI)
                 (SG) (PI) (PI) (SG) (SG) (DLTA) (DLTA) (PI) (PI)
                 (SG) (PI) (PI) (SG) (DLTA) (DLTA) (PI) (PI) (SG)
                 (PI) (PI) (SG) (DLTA) (DLTA) (PI) (PI) (SG) (SG)
                 (SG)
 Beta  Orbitals:
       Occupied  (SG) (SG) (SG) (SG) (PI) (PI) (SG)
       Virtual   (PI) (PI) (SG) (SG) (PI) (PI) (SG) (PI) (PI) (SG)
                 (SG) (PI) (PI) (DLTA) (DLTA) (SG) (SG) (PI) (PI)
                 (SG) (PI) (PI) (SG) (SG) (DLTA) (DLTA) (PI) (PI)
                 (SG) (PI) (PI) (SG) (DLTA) (DLTA) (PI) (PI) (SG)
                 (PI) (PI) (SG) (DLTA) (DLTA) (PI) (PI) (SG) (SG)
                 (SG)
 The electronic state is 1-SG.
 Alpha  occ. eigenvalues --  -19.35875 -10.40422  -1.27700  -0.67576  -0.57193
 Alpha  occ. eigenvalues --   -0.57193  -0.47143
 Alpha virt. eigenvalues --    0.04049   0.04049   0.08398   0.11322   0.12546
 Alpha virt. eigenvalues --    0.12546   0.25178   0.28100   0.28100   0.32646
 Alpha virt. eigenvalues --    0.45274   0.60506   0.60506   0.70295   0.70295
 Alpha virt. eigenvalues --    0.71540   0.92081   0.92789   0.92789   1.02024
 Alpha virt. eigenvalues --    1.10044   1.10044   1.43426   1.49186   1.59977
 Alpha virt. eigenvalues --    1.59977   2.00907   2.00907   2.52701   2.80693
 Alpha virt. eigenvalues --    2.80693   3.18618   3.26300   3.26300   3.44549
 Alpha virt. eigenvalues --    3.44549   3.82107   5.05352   5.05352   5.99519
 Alpha virt. eigenvalues --    6.74548   6.74549   7.00608   7.00608   7.21297
 Alpha virt. eigenvalues --   24.05392  49.95699
  Beta  occ. eigenvalues --  -19.35875 -10.40422  -1.27700  -0.67576  -0.57193
  Beta  occ. eigenvalues --   -0.57193  -0.47143
  Beta virt. eigenvalues --    0.04049   0.04049   0.08398   0.11322   0.12546
  Beta virt. eigenvalues --    0.12546   0.25178   0.28100   0.28100   0.32646
  Beta virt. eigenvalues --    0.45274   0.60506   0.60506   0.70295   0.70295
  Beta virt. eigenvalues --    0.71540   0.92081   0.92789   0.92789   1.02024
  Beta virt. eigenvalues --    1.10044   1.10044   1.43426   1.49186   1.59977
  Beta virt. eigenvalues --    1.59977   2.00907   2.00907   2.52701   2.80693
  Beta virt. eigenvalues --    2.80693   3.18618   3.26300   3.26300   3.44549
  Beta virt. eigenvalues --    3.44549   3.82107   5.05352   5.05352   5.99519
  Beta virt. eigenvalues --    6.74548   6.74549   7.00608   7.00608   7.21297
  Beta virt. eigenvalues --   24.05392  49.95699
          Condensed to atoms (all electrons):
               1          2
     1  C    5.614017   0.352890
     2  O    0.352890   7.680202
          Atomic-Atomic Spin Densities.
               1          2
     1  C    0.000000   0.000000
     2  O    0.000000   0.000000
 Mulliken charges and spin densities:
               1          2
     1  C    0.033093   0.000000
     2  O   -0.033093   0.000000
 Sum of Mulliken charges =   0.00000   0.00000
 Mulliken charges and spin densities with hydrogens summed into heavy atoms:
               1          2
     1  C    0.033093   0.000000
     2  O   -0.033093   0.000000
 APT charges:
               1
     1  C    0.255373
     2  O   -0.255373
 Sum of APT charges =   0.00000
 APT charges with hydrogens summed into heavy atoms:
               1
     1  C    0.255373
     2  O   -0.255373
 Electronic spatial extent (au):  <R**2>=             39.7913
 Charge=              0.0000 electrons
 Dipole moment (field-independent basis, Debye):
    X=              0.0000    Y=              0.0000    Z=              0.0959  Tot=              0.0959
 Quadrupole moment (field-independent basis, Debye-Ang):
   XX=            -10.2464   YY=            -10.2464   ZZ=            -12.2392
   XY=              0.0000   XZ=              0.0000   YZ=              0.0000
 Traceless Quadrupole moment (field-independent basis, Debye-Ang):
   XX=              0.6643   YY=              0.6643   ZZ=             -1.3285
   XY=              0.0000   XZ=              0.0000   YZ=              0.0000
 Octapole moment (field-independent basis, Debye-Ang**2):
  XXX=              0.0000  YYY=              0.0000  ZZZ=              6.2946  XYY=              0.0000
  XXY=              0.0000  XXZ=              1.2518  XZZ=              0.0000  YZZ=              0.0000
  YYZ=              1.2518  XYZ=              0.0000
 Hexadecapole moment (field-independent basis, Debye-Ang**3):
 XXXX=             -9.3354 YYYY=             -9.3354 ZZZZ=            -36.8986 XXXY=              0.0000
 XXXZ=             -0.0000 YYYX=              0.0000 YYYZ=              0.0000 ZZZX=              0.0000
 ZZZY=              0.0000 XXYY=             -3.1118 XXZZ=             -7.1684 YYZZ=             -7.1684
 XXYZ=              0.0000 YYXZ=             -0.0000 ZZXY=              0.0000
 N-N= 2.260742943502D+01 E-N=-3.115408585480D+02  KE= 1.130100527643D+02
 Symmetry A1   KE= 1.047973613337D+02
 Symmetry A2   KE= 6.926675610504D-31
 Symmetry B1   KE= 4.106345715281D+00
 Symmetry B2   KE= 4.106345715281D+00
 Symmetry A1   SP= 0.000000000000D+00
 Symmetry A2   SP= 0.000000000000D+00
 Symmetry B1   SP= 0.000000000000D+00
 Symmetry B2   SP= 0.000000000000D+00
  Exact polarizability:  10.787   0.000  10.787   0.000  -0.000  15.252
 Approx polarizability:  11.012  -0.000  11.012   0.000  -0.000  18.146
                          Isotropic Fermi Contact Couplings
        Atom                 a.u.       MegaHertz       Gauss      10(-4) cm-1
     1  C(13)              0.00000       0.00000       0.00000       0.00000
     2  O(17)              0.00000      -0.00000      -0.00000      -0.00000
 --------------------------------------------------------
       Center         ----  Spin Dipole Couplings  ----
                      3XX-RR        3YY-RR        3ZZ-RR
 --------------------------------------------------------
     1   Atom        0.000000      0.000000      0.000000
     2   Atom        0.000000      0.000000      0.000000
 --------------------------------------------------------
                        XY            XZ            YZ
 --------------------------------------------------------
     1   Atom        0.000000      0.000000      0.000000
     2   Atom        0.000000      0.000000      0.000000
 --------------------------------------------------------


 ---------------------------------------------------------------------------------
              Anisotropic Spin Dipole Couplings in Principal Axis System
 ---------------------------------------------------------------------------------

       Atom             a.u.   MegaHertz   Gauss  10(-4) cm-1        Axes

              Baa     0.0000     0.000     0.000     0.000  1.0000  0.0000  0.0000
     1 C(13)  Bbb     0.0000     0.000     0.000     0.000  0.0000  1.0000  0.0000
              Bcc     0.0000     0.000     0.000     0.000  0.0000  0.0000  1.0000
 
              Baa     0.0000    -0.000    -0.000    -0.000  1.0000  0.0000  0.0000
     2 O(17)  Bbb     0.0000    -0.000    -0.000    -0.000  0.0000  1.0000  0.0000
              Bcc     0.0000    -0.000    -0.000    -0.000  0.0000  0.0000  1.0000
 

 ---------------------------------------------------------------------------------

 Rotating derivatives to standard orientation.
 Full mass-weighted force constant matrix:
 Low frequencies ---   -0.0017   -0.0017   -0.0016   42.5239   42.5239 2243.4662
 Diagonal vibrational polarizability:
        0.0000000       0.0000000       0.4884115
 Harmonic frequencies (cm**-1), IR intensities (KM/Mole), Raman scattering
 activities (A**4/AMU), depolarization ratios for plane and unpolarized
 incident light, reduced masses (AMU), force constants (mDyne/A),
 and normal coordinates:
                      1
                     SG
 Frequencies --   2243.4662
 Red. masses --     13.4388
 Frc consts  --     39.8518
 IR Inten    --     91.3465
  Atom  AN      X      Y      Z
     1   6     0.00   0.00   0.80
     2   8    -0.00  -0.00  -0.60

 -------------------
 - Thermochemistry -
 -------------------
 Temperature   298.150 Kelvin.  Pressure   1.00000 Atm.
 Atom     1 has atomic number  6 and mass  12.00000
 Atom     2 has atomic number  8 and mass  15.99491
 Molecular mass:    27.99491 amu.
 Principal axes and moments of inertia in atomic units:
                           1         2         3
     Eigenvalues --     0.00000  30.90752  30.90752
           X            0.00000   0.97707   0.21293
           Y            0.00000  -0.21293   0.97707
           Z            1.00000  -0.00000  -0.00000
 This molecule is a prolate symmetric top.
 Rotational symmetry number  1.
 Rotational temperature (Kelvin)      2.80236
 Rotational constant (GHZ):          58.391661
 Zero-point vibrational energy      13418.9 (Joules/Mol)
                                    3.20720 (Kcal/Mol)
 Vibrational temperatures:   3227.85
          (Kelvin)
 
 Zero-point correction=                           0.005111 (Hartree/Particle)
 Thermal correction to Energy=                    0.007472
 Thermal correction to Enthalpy=                  0.008416
 Thermal correction to Gibbs Free Energy=        -0.014003
 Sum of electronic and zero-point Energies=           -113.305346
 Sum of electronic and thermal Energies=              -113.302985
 Sum of electronic and thermal Enthalpies=            -113.302041
 Sum of electronic and thermal Free Energies=         -113.324461
 
                     E (Thermal)             CV                S
                      KCal/Mol        Cal/Mol-Kelvin    Cal/Mol-Kelvin
 Total                    4.689              4.973             47.185
 Electronic               0.000              0.000              0.000
 Translational            0.889              2.981             35.923
 Rotational               0.592              1.987             11.262
 Vibrational              3.207              0.005              0.000
                       Q            Log10(Q)             Ln(Q)
 Total Bot       0.276122D+07          6.441101         14.831184
 Total V=0       0.619430D+09          8.791992         20.244311
 Vib (Bot)       0.445777D-02         -2.350882         -5.413107
 Vib (V=0)       0.100002D+01          0.000009          0.000020
 Electronic      0.100000D+01          0.000000          0.000000
 Translational   0.582201D+07          6.765073         15.577155
 Rotational      0.106393D+03          2.026911          4.667136
 ***** Axes restored to original set *****
 -------------------------------------------------------------------
 Center     Atomic                   Forces (Hartrees/Bohr)
 Number     Number              X              Y              Z
 -------------------------------------------------------------------
      1        6           0.000000102   -0.000000152   -0.000000000
      2        8          -0.000000102    0.000000152    0.000000000
 -------------------------------------------------------------------
 Cartesian Forces:  Max     0.000000152 RMS     0.000000106

 ----------------------------------------------------------------------

 Electric dipole moment (input orientation):
 (Debye = 10**-18 statcoulomb cm , SI units = C m)
                  (au)            (Debye)         (10**-30 SI)
   Tot        0.377174D-01      0.958682D-01      0.319782D+00
   x          0.210887D-01      0.536022D-01      0.178798D+00
   y         -0.312709D-01     -0.794827D-01     -0.265126D+00
   z          0.000000D+00      0.000000D+00      0.000000D+00

 Dipole polarizability, Alpha (input orientation).
 (esu units = cm**3 , SI units = C**2 m**2 J**-1)
 Alpha(0;0):
               (au)            (10**-24 esu)      (10**-40 SI)
   iso        0.122755D+02      0.181904D+01      0.202395D+01
   aniso      0.446538D+01      0.661700D+00      0.736241D+00
   xx         0.121830D+02      0.180533D+01      0.200870D+01
   yx        -0.206997D+01     -0.306738D+00     -0.341293D+00
   yy         0.138564D+02      0.205331D+01      0.228462D+01
   zx        -0.130008D-04     -0.192652D-05     -0.214354D-05
   zy         0.192779D-04      0.285669D-05      0.317849D-05
   zz         0.107870D+02      0.159847D+01      0.177854D+01

 ----------------------------------------------------------------------

 Dipole orientation:
     6          1.45981994          0.98451052          0.00502643
     8          1.45981994          0.98451052          2.12822221

 Electric dipole moment (dipole orientation):
 (Debye = 10**-18 statcoulomb cm , SI units = C m)
                  (au)            (Debye)         (10**-30 SI)
   Tot        0.377174D-01      0.958682D-01      0.319782D+00
   x          0.000000D+00      0.000000D+00      0.000000D+00
   y          0.000000D+00      0.000000D+00      0.000000D+00
   z          0.377174D-01      0.958682D-01      0.319782D+00

 Dipole polarizability, Alpha (dipole orientation).
 (esu units = cm**3 , SI units = C**2 m**2 J**-1)
 Alpha(0;0):
               (au)            (10**-24 esu)      (10**-40 SI)
   iso        0.122755D+02      0.181904D+01      0.202395D+01
   aniso      0.446538D+01      0.661700D+00      0.736241D+00
   xx         0.107870D+02      0.159847D+01      0.177854D+01
   yx         0.000000D+00      0.000000D+00      0.000000D+00
   yy         0.107870D+02      0.159847D+01      0.177854D+01
   zx         0.000000D+00      0.000000D+00      0.000000D+00
   zy         0.000000D+00      0.000000D+00      0.000000D+00
   zz         0.152524D+02      0.226017D+01      0.251478D+01

 ----------------------------------------------------------------------
 1\1\GINC-CCLEARN2\Freq\UwB97XD\6-311+G(2d,2p)\C1O1\RAPPE\20-Sep-2024\0
 \\# opt=(calcall) uwb97xd/6-311+g(2d,2p) geom=connectivity\\Title Card
  Required\\0,1\C,0.7739967582,0.5187662043,0.0000109253\O,1.4021992418
 ,-0.4127482043,0.0000050747\\Version=EM64M-G16RevA.03\State=1-SG\HF=-1
 13.3104571\S2=0.\S2-1=0.\S2A=0.\RMSD=1.481e-09\RMSF=1.056e-07\ZeroPoin
 t=0.005111\Thermal=0.0074717\Dipole=0.0210887,-0.0312709,-0.0000002\Di
 poleDeriv=0.2384046,-0.3797559,-0.0000024,-0.3797559,0.5454132,0.00000
 35,-0.0000024,0.0000035,-0.0176983,-0.2384046,0.3797559,0.0000024,0.37
 97559,-0.5454132,-0.0000035,0.0000024,-0.0000035,0.0176983\Polar=12.18
 29824,-2.0699739,13.8564253,-0.000013,0.0000193,10.7870161\PG=C*V [C*(
 C1O1)]\NImag=0\\0.40857749,-0.60515324,0.89780560,-0.00000380,0.000005
 64,0.00046918,-0.40857749,0.60515324,0.00000380,0.40857749,0.60515324,
 -0.89780560,-0.00000564,-0.60515324,0.89780560,0.00000380,-0.00000564,
 -0.00046918,-0.00000380,0.00000564,0.00046918\\-0.00000010,0.00000015,
 0.,0.00000010,-0.00000015,0.\\\@


 FROM THE ASHES OF OUR DESPAIR GROW THE FLOWERS OF TOMORROW.
 Job cpu time:       0 days  0 hours  1 minutes 52.9 seconds.
 Elapsed time:       0 days  0 hours  0 minutes 14.9 seconds.
 File lengths (MBytes):  RWF=      6 Int=      0 D2E=      0 Chk=      1 Scr=      1
 Normal termination of Gaussian 16 at Fri Sep 20 06:31:23 2024.
