 Entering Gaussian System, Link 0=/applications/g16/g16/g16
 Initial command:
 /applications/g16/g16/l1.exe "/scratch/g98/Gau-97334.inp" -scrdir="/scratch/g98/"
 Entering Link 1 = /applications/g16/g16/l1.exe PID=     97335.
  
 Copyright (c) 1988,1990,1992,1993,1995,1998,2003,2009,2016,
            Gaussian, Inc.  All Rights Reserved.
  
 This is part of the Gaussian(R) 16 program.  It is based on
 the Gaussian(R) 09 system (copyright 2009, Gaussian, Inc.),
 the Gaussian(R) 03 system (copyright 2003, Gaussian, Inc.),
 the Gaussian(R) 98 system (copyright 1998, Gaussian, Inc.),
 the Gaussian(R) 94 system (copyright 1995, Gaussian, Inc.),
 the Gaussian 92(TM) system (copyright 1992, Gaussian, Inc.),
 the Gaussian 90(TM) system (copyright 1990, Gaussian, Inc.),
 the Gaussian 88(TM) system (copyright 1988, Gaussian, Inc.),
 the Gaussian 86(TM) system (copyright 1986, Carnegie Mellon
 University), and the Gaussian 82(TM) system (copyright 1983,
 Carnegie Mellon University). Gaussian is a federally registered
 trademark of Gaussian, Inc.
  
 This software contains proprietary and confidential information,
 including trade secrets, belonging to Gaussian, Inc.
  
 This software is provided under written license and may be
 used, copied, transmitted, or stored only in accord with that
 written license.
  
 The following legend is applicable only to US Government
 contracts under FAR:
  
                    RESTRICTED RIGHTS LEGEND
  
 Use, reproduction and disclosure by the US Government is
 subject to restrictions as set forth in subparagraphs (a)
 and (c) of the Commercial Computer Software - Restricted
 Rights clause in FAR 52.227-19.
  
 Gaussian, Inc.
 340 Quinnipiac St., Bldg. 40, Wallingford CT 06492
  
  
 ---------------------------------------------------------------
 Warning -- This program may not be used in any manner that
 competes with the business of Gaussian, Inc. or will provide
 assistance to any competitor of Gaussian, Inc.  The licensee
 of this program is prohibited from giving any competitor of
 Gaussian, Inc. access to this program.  By using this program,
 the user acknowledges that Gaussian, Inc. is engaged in the
 business of creating and licensing software in the field of
 computational chemistry and represents and warrants to the
 licensee that it is not a competitor of Gaussian, Inc. and that
 it will not use this program in any manner prohibited above.
 ---------------------------------------------------------------
  

 Cite this work as:
 Gaussian 16, Revision A.03,
 M. J. Frisch, G. W. Trucks, H. B. Schlegel, G. E. Scuseria, 
 M. A. Robb, J. R. Cheeseman, G. Scalmani, V. Barone, 
 G. A. Petersson, H. Nakatsuji, X. Li, M. Caricato, A. V. Marenich, 
 J. Bloino, B. G. Janesko, R. Gomperts, B. Mennucci, H. P. Hratchian, 
 J. V. Ortiz, A. F. Izmaylov, J. L. Sonnenberg, D. Williams-Young, 
 F. Ding, F. Lipparini, F. Egidi, J. Goings, B. Peng, A. Petrone, 
 T. Henderson, D. Ranasinghe, V. G. Zakrzewski, J. Gao, N. Rega, 
 G. Zheng, W. Liang, M. Hada, M. Ehara, K. Toyota, R. Fukuda, 
 J. Hasegawa, M. Ishida, T. Nakajima, Y. Honda, O. Kitao, H. Nakai, 
 T. Vreven, K. Throssell, J. A. Montgomery, Jr., J. E. Peralta, 
 F. Ogliaro, M. J. Bearpark, J. J. Heyd, E. N. Brothers, K. N. Kudin, 
 V. N. Staroverov, T. A. Keith, R. Kobayashi, J. Normand, 
 K. Raghavachari, A. P. Rendell, J. C. Burant, S. S. Iyengar, 
 J. Tomasi, M. Cossi, J. M. Millam, M. Klene, C. Adamo, R. Cammi, 
 J. W. Ochterski, R. L. Martin, K. Morokuma, O. Farkas, 
 J. B. Foresman, and D. J. Fox, Gaussian, Inc., Wallingford CT, 2016.
 
 ******************************************
 Gaussian 16:  EM64M-G16RevA.03 25-Dec-2016
                 7-Feb-2021 
 ******************************************
 %nprocshared=8
 Will use up to    8 processors via shared memory.
 %mem=24GB
 %chk=co2.chk
 ------------------------------------------------------
 # freq wb97xd/6-311+g(2d,2p) geom=connectivity scf=xqc
 ------------------------------------------------------
 1/10=4,30=1,38=1,57=2/1,3;
 2/12=2,17=6,18=5,40=1/2;
 3/5=4,6=6,7=212,11=2,25=1,30=1,71=2,74=-58,140=1/1,2,3;
 4//1;
 5/5=2,8=3,13=1,38=5,98=1/2,8;
 8/6=4,10=90,11=11/1;
 11/6=1,8=1,9=11,15=111,16=1/1,2,10;
 10/6=1/2;
 6/7=2,8=2,9=2,10=2,28=1/1;
 7/8=1,10=1,25=1/1,2,3,16;
 1/10=4,30=1/3;
 99//99;
 -------------------
 Title Card Required
 -------------------
 Symbolic Z-matrix:
 Charge =  0 Multiplicity = 1
 C                     0.        0.00199   0. 
 O                     1.09108  -0.37986   0. 
 O                    -1.09108   0.37837   0. 
 

 GradGradGradGradGradGradGradGradGradGradGradGradGradGradGradGradGradGrad
 Berny optimization.
 Initialization pass.
 Trust Radius=3.00D-01 FncErr=1.00D-07 GrdErr=1.00D-07 EigMax=2.50D+02 EigMin=1.00D-04
 Number of steps in this run=      2 maximum allowed number of steps=      2.
 GradGradGradGradGradGradGradGradGradGradGradGradGradGradGradGradGradGrad

                          Input orientation:                          
 ---------------------------------------------------------------------
 Center     Atomic      Atomic             Coordinates (Angstroms)
 Number     Number       Type             X           Y           Z
 ---------------------------------------------------------------------
      1          6           0        0.000000    0.001993    0.000000
      2          8           0        1.091077   -0.379860    0.000000
      3          8           0       -1.091077    0.378365    0.000000
 ---------------------------------------------------------------------
                    Distance matrix (angstroms):
                    1          2          3
     1  C    0.000000
     2  O    1.155967   0.000000
     3  O    1.154168   2.310130   0.000000
 This structure is nearly, but not quite of a higher symmetry.
 Consider Symm=Loose if the higher symmetry is desired.
 Stoichiometry    CO2
 Framework group  CS[SG(CO2)]
 Deg. of freedom     3
 Full point group                 CS      NOp   2
 Largest Abelian subgroup         CS      NOp   2
 Largest concise Abelian subgroup C1      NOp   1
                         Standard orientation:                         
 ---------------------------------------------------------------------
 Center     Atomic      Atomic             Coordinates (Angstroms)
 Number     Number       Type             X           Y           Z
 ---------------------------------------------------------------------
      1          6           0        0.000000    0.001993   -0.000000
      2          8           0        1.091077   -0.379860   -0.000000
      3          8           0       -1.091077    0.378365    0.000000
 ---------------------------------------------------------------------
 Rotational constants (GHZ):     8642091.5678119          11.8411070          11.8410908
 Standard basis: 6-311+G(2d,2p) (5D, 7F)
 There are    63 symmetry adapted cartesian basis functions of A'  symmetry.
 There are    24 symmetry adapted cartesian basis functions of A"  symmetry.
 There are    57 symmetry adapted basis functions of A'  symmetry.
 There are    24 symmetry adapted basis functions of A"  symmetry.
    81 basis functions,   126 primitive gaussians,    87 cartesian basis functions
    11 alpha electrons       11 beta electrons
       nuclear repulsion energy        58.6413598629 Hartrees.
 NAtoms=    3 NActive=    3 NUniq=    3 SFac= 1.00D+00 NAtFMM=   60 NAOKFM=F Big=F
 Integral buffers will be    131072 words long.
 Raffenetti 2 integral format.
 Two-electron integral symmetry is turned on.
 Nuclear repulsion after empirical dispersion term =       58.6413113598 Hartrees.
 One-electron integrals computed using PRISM.
 NBasis=    81 RedAO= T EigKep=  7.35D-04  NBF=    57    24
 NBsUse=    81 1.00D-06 EigRej= -1.00D+00 NBFU=    57    24
 ExpMin= 4.38D-02 ExpMax= 8.59D+03 ExpMxC= 1.30D+03 IAcc=3 IRadAn=         5 AccDes= 0.00D+00
 Harris functional with IExCor= 4639 and IRadAn=       5 diagonalized for initial guess.
 HarFok:  IExCor= 4639 AccDes= 0.00D+00 IRadAn=         5 IDoV= 1 UseB2=F ITyADJ=14
 ICtDFT=  3500011 ScaDFX=  1.000000  1.000000  1.000000  1.000000
 FoFCou: FMM=F IPFlag=           0 FMFlag=      100000 FMFlg1=           0
         NFxFlg=           0 DoJE=T BraDBF=F KetDBF=T FulRan=T
         wScrn=  0.000000 ICntrl=       500 IOpCl=  0 I1Cent=   200000004 NGrid=           0
         NMat0=    1 NMatS0=      1 NMatT0=    0 NMatD0=    1 NMtDS0=    0 NMtDT0=    0
 Petite list used in FoFCou.
 Initial guess orbital symmetries:
       Occupied  (A') (A') (A') (A') (A') (A') (A') (A") (A') (A")
                 (A')
       Virtual   (A') (A') (A') (A") (A') (A") (A') (A') (A') (A")
                 (A') (A') (A") (A') (A') (A') (A") (A') (A") (A')
                 (A') (A') (A") (A') (A') (A") (A') (A') (A") (A')
                 (A') (A') (A") (A') (A") (A') (A') (A") (A') (A')
                 (A") (A') (A') (A") (A') (A') (A") (A') (A") (A')
                 (A') (A") (A') (A") (A') (A') (A') (A') (A") (A')
                 (A") (A") (A') (A') (A') (A") (A') (A') (A') (A')
 The electronic state of the initial guess is 1-A'.
 Keep R1 ints in memory in symmetry-blocked form, NReq=18309955.
 Requested convergence on RMS density matrix=1.00D-08 within  32 cycles.
 Requested convergence on MAX density matrix=1.00D-06.
 Requested convergence on             energy=1.00D-06.
 No special actions if energy rises.
 SCF Done:  E(RwB97XD) =  -188.585145336     A.U. after   10 cycles
            NFock= 10  Conv=0.30D-08     -V/T= 2.0027
 QCSCF skips out because SCF is already converged.
 DoSCS=F DFT=T ScalE2(SS,OS)=  1.000000  1.000000
 Range of M.O.s used for correlation:     1    81
 NBasis=    81 NAE=    11 NBE=    11 NFC=     0 NFV=     0
 NROrb=     81 NOA=    11 NOB=    11 NVA=    70 NVB=    70

 **** Warning!!: The largest alpha MO coefficient is  0.17677957D+02

 Symmetrizing basis deriv contribution to polar:
 IMax=3 JMax=2 DiffMx= 0.00D+00
 G2DrvN: will do     4 centers at a time, making    1 passes.
 Calling FoFCou, ICntrl=  3107 FMM=F I1Cent=   0 AccDes= 0.00D+00.
 End of G2Drv F.D. properties file   721 does not exist.
 End of G2Drv F.D. properties file   722 does not exist.
 End of G2Drv F.D. properties file   788 does not exist.
          IDoAtm=111
          Differentiating once with respect to electric field.
                with respect to dipole field.
          Differentiating once with respect to nuclear coordinates.
 Keep R1 ints in memory in symmetry-blocked form, NReq=18284934.
          There are    12 degrees of freedom in the 1st order CPHF.  IDoFFX=6 NUNeed=     3.
      9 vectors produced by pass  0 Test12= 6.42D-15 8.33D-09 XBig12= 1.20D+01 1.95D+00.
 AX will form     9 AO Fock derivatives at one time.
      9 vectors produced by pass  1 Test12= 6.42D-15 8.33D-09 XBig12= 4.03D+00 7.43D-01.
      9 vectors produced by pass  2 Test12= 6.42D-15 8.33D-09 XBig12= 5.18D-02 8.09D-02.
      9 vectors produced by pass  3 Test12= 6.42D-15 8.33D-09 XBig12= 3.94D-04 7.91D-03.
      9 vectors produced by pass  4 Test12= 6.42D-15 8.33D-09 XBig12= 5.04D-06 6.60D-04.
      9 vectors produced by pass  5 Test12= 6.42D-15 8.33D-09 XBig12= 4.01D-08 7.57D-05.
      9 vectors produced by pass  6 Test12= 6.42D-15 8.33D-09 XBig12= 3.52D-10 5.90D-06.
      6 vectors produced by pass  7 Test12= 6.42D-15 8.33D-09 XBig12= 1.24D-12 3.08D-07.
      2 vectors produced by pass  8 Test12= 6.42D-15 8.33D-09 XBig12= 3.76D-15 1.94D-08.
 InvSVY:  IOpt=1 It=  1 EMax= 9.99D-16
 Solved reduced A of dimension    71 with     9 vectors.
 Isotropic polarizability for W=    0.000000       15.37 Bohr**3.
 End of Minotr F.D. properties file   721 does not exist.
 End of Minotr F.D. properties file   722 does not exist.
 End of Minotr F.D. properties file   788 does not exist.

 **********************************************************************

            Population analysis using the SCF density.

 **********************************************************************

 Orbital symmetries:
       Occupied  (A') (A') (A') (A') (A') (A') (A') (A') (A") (A")
                 (A')
       Virtual   (A') (A') (A") (A') (A') (A") (A') (A') (A') (A")
                 (A') (A') (A") (A') (A') (A') (A") (A') (A") (A')
                 (A') (A') (A") (A') (A') (A") (A') (A') (A") (A')
                 (A') (A") (A') (A') (A") (A') (A') (A") (A') (A')
                 (A") (A') (A') (A") (A') (A') (A") (A') (A") (A')
                 (A') (A") (A') (A") (A') (A') (A') (A') (A") (A')
                 (A") (A") (A') (A') (A') (A") (A') (A') (A') (A')
 The electronic state is 1-A'.
 Alpha  occ. eigenvalues --  -19.33513 -19.33473 -10.47957  -1.27820  -1.23595
 Alpha  occ. eigenvalues --   -0.66462  -0.62075  -0.61935  -0.61935  -0.46606
 Alpha  occ. eigenvalues --   -0.46606
 Alpha virt. eigenvalues --    0.05007   0.09782   0.09782   0.10151   0.11155
 Alpha virt. eigenvalues --    0.11155   0.20320   0.25169   0.26510   0.26510
 Alpha virt. eigenvalues --    0.31012   0.32778   0.32778   0.35015   0.41067
 Alpha virt. eigenvalues --    0.63045   0.63045   0.65342   0.65342   0.74144
 Alpha virt. eigenvalues --    0.79082   0.94874   1.00789   1.00791   1.04475
 Alpha virt. eigenvalues --    1.08834   1.08837   1.17650   1.17650   1.21595
 Alpha virt. eigenvalues --    1.36886   1.48766   1.48766   1.74214   1.74214
 Alpha virt. eigenvalues --    1.93356   1.99255   1.99261   2.10642   2.44541
 Alpha virt. eigenvalues --    2.44541   2.63268   2.73557   2.83892   2.83893
 Alpha virt. eigenvalues --    3.19727   3.19727   3.45699   3.45773   3.46395
 Alpha virt. eigenvalues --    3.98467   5.05538   5.05539   5.14647   5.14647
 Alpha virt. eigenvalues --    5.84284   6.05634   6.72395   6.72395   6.83565
 Alpha virt. eigenvalues --    6.83565   7.00332   7.00333   7.24803   7.33681
 Alpha virt. eigenvalues --    7.33681   7.51929  24.35015  50.06153  50.08882
          Condensed to atoms (all electrons):
               1          2          3
     1  C    4.570122   0.492661   0.491641
     2  O    0.492661   7.884238  -0.152930
     3  O    0.491641  -0.152930   7.882895
 Mulliken charges:
               1
     1  C    0.445576
     2  O   -0.223969
     3  O   -0.221606
 Sum of Mulliken charges =  -0.00000
 Mulliken charges with hydrogens summed into heavy atoms:
               1
     1  C    0.445576
     2  O   -0.223969
     3  O   -0.221606
 APT charges:
               1
     1  C    1.209489
     2  O   -0.604825
     3  O   -0.604663
 Sum of APT charges =   0.00000
 APT charges with hydrogens summed into heavy atoms:
               1
     1  C    1.209489
     2  O   -0.604825
     3  O   -0.604663
 Electronic spatial extent (au):  <R**2>=            112.4226
 Charge=             -0.0000 electrons
 Dipole moment (field-independent basis, Debye):
    X=             -0.0083    Y=              0.0099    Z=              0.0000  Tot=              0.0129
 Quadrupole moment (field-independent basis, Debye-Ang):
   XX=            -18.6587   YY=            -15.2445   ZZ=            -14.7758
   XY=              1.3492   XZ=              0.0000   YZ=              0.0000
 Traceless Quadrupole moment (field-independent basis, Debye-Ang):
   XX=             -2.4324   YY=              0.9818   ZZ=              1.4506
   XY=              1.3492   XZ=              0.0000   YZ=              0.0000
 Octapole moment (field-independent basis, Debye-Ang**2):
  XXX=             -0.0257  YYY=              0.0034  ZZZ=              0.0000  XYY=             -0.0043
  XXY=             -0.0038  XXZ=              0.0000  XZZ=             -0.0083  YZZ=              0.0018
  YYZ=              0.0000  XYZ=              0.0000
 Hexadecapole moment (field-independent basis, Debye-Ang**3):
 XXXX=            -91.4359 YYYY=            -21.2760 ZZZZ=            -11.7424 XXXY=             13.9896
 XXXZ=              0.0000 YYYX=             13.7360 YYYZ=             -0.0000 ZZZX=              0.0000
 ZZZY=             -0.0000 XXYY=            -18.7451 XXZZ=            -17.0580 YYZZ=             -5.5010
 XXYZ=             -0.0000 YYXZ=              0.0000 ZZXY=              4.5671
 N-N= 5.864131135984D+01 E-N=-5.614579445830D+02  KE= 1.880734855938D+02
 Symmetry A'   KE= 1.794732846156D+02
 Symmetry A"   KE= 8.600200978197D+00
  Exact polarizability:  23.740  -4.640  11.999   0.000   0.000  10.386
 Approx polarizability:  30.902  -6.897  13.450  -0.000   0.000  11.054
 Calling FoFJK, ICntrl=    100127 FMM=F ISym2X=1 I1Cent= 0 IOpClX= 0 NMat=1 NMatS=1 NMatT=0.
 Full mass-weighted force constant matrix:
 Low frequencies ---  -43.5417  -42.7593   -0.0012   -0.0012   -0.0009  685.5669
 Low frequencies ---  685.7362 1399.4542 2456.8931
 Diagonal vibrational polarizability:
        3.1104075       1.9785160       0.0000000
 Harmonic frequencies (cm**-1), IR intensities (KM/Mole), Raman scattering
 activities (A**4/AMU), depolarization ratios for plane and unpolarized
 incident light, reduced masses (AMU), force constants (mDyne/A),
 and normal coordinates:
                      1                      2                      3
                     A'                     A'                     A'
 Frequencies --    685.5575              1399.4542              2456.8931
 Red. masses --     12.8774                15.9948                12.8774
 Frc consts  --      3.5659                18.4563                45.7986
 IR Inten    --     31.8347                 0.0165               732.5504
  Atom  AN      X      Y      Z        X      Y      Z        X      Y      Z
     1   6     0.29   0.83  -0.00    -0.00   0.01   0.00     0.83  -0.29  -0.00
     2   8    -0.11  -0.31   0.00     0.67  -0.23  -0.00    -0.31   0.11   0.00
     3   8    -0.11  -0.31   0.00    -0.67   0.23   0.00    -0.32   0.11   0.00

 -------------------
 - Thermochemistry -
 -------------------
 Temperature   298.150 Kelvin.  Pressure   1.00000 Atm.
 Atom     1 has atomic number  6 and mass  12.00000
 Atom     2 has atomic number  8 and mass  15.99491
 Atom     3 has atomic number  8 and mass  15.99491
 Molecular mass:    43.98983 amu.
 Principal axes and moments of inertia in atomic units:
                           1         2         3
     Eigenvalues --     0.00021 152.41322 152.41342
           X            0.94460   0.32822   0.00000
           Y           -0.32822   0.94460   0.00000
           Z           -0.00000  -0.00000   1.00000
 This molecule is an asymmetric top.
 Rotational symmetry number  1.
 Rotational temperatures (Kelvin) 414755.00474     0.56828     0.56828
 Rotational constants (GHZ):      ************    11.84111    11.84109
 Zero-point vibrational energy      27166.6 (Joules/Mol)
                                    6.49298 (Kcal/Mol)
 Vibrational temperatures:    986.36  2013.50  3534.92
          (Kelvin)
 
 Zero-point correction=                           0.010347 (Hartree/Particle)
 Thermal correction to Energy=                    0.013306
 Thermal correction to Enthalpy=                  0.014250
 Thermal correction to Gibbs Free Energy=        -0.008074
 Sum of electronic and zero-point Energies=           -188.574798
 Sum of electronic and thermal Energies=              -188.571839
 Sum of electronic and thermal Enthalpies=            -188.570895
 Sum of electronic and thermal Free Energies=         -188.593219
 
                     E (Thermal)             CV                S
                      KCal/Mol        Cal/Mol-Kelvin    Cal/Mol-Kelvin
 Total                    8.350              6.927             46.984
 Electronic               0.000              0.000              0.000
 Translational            0.889              2.981             37.270
 Rotational               0.889              2.981              9.372
 Vibrational              6.572              0.965              0.342
                       Q            Log10(Q)             Ln(Q)
 Total Bot       0.517078D+04          3.713556          8.550779
 Total V=0       0.297128D+09          8.472943         19.509672
 Vib (Bot)       0.180845D-04         -4.742693        -10.920453
 Vib (V=0)       0.103919D+01          0.016694          0.038440
 Electronic      0.100000D+01          0.000000          0.000000
 Translational   0.114679D+08          7.059482         16.255059
 Rotational      0.249325D+02          1.396767          3.216174
 ***** Axes restored to original set *****
 -------------------------------------------------------------------
 Center     Atomic                   Forces (Hartrees/Bohr)
 Number     Number              X              Y              Z
 -------------------------------------------------------------------
      1        6           0.002952576   -0.001829103   -0.000000000
      2        8           0.001076025    0.000034523    0.000000000
      3        8          -0.004028602    0.001794579    0.000000000
 -------------------------------------------------------------------
 Cartesian Forces:  Max     0.004028602 RMS     0.001905329

 GradGradGradGradGradGradGradGradGradGradGradGradGradGradGradGradGradGrad
 Berny optimization.
 Search for a local minimum.
 Step number   1 out of a maximum of    2
 All quantities printed in internal units (Hartrees-Bohrs-Radians)
 Second derivative matrix not updated -- analytic derivatives used.
 The second derivative matrix:
                          X1        Y1        Z1        X2        Y2
           X1           1.79530
           Y1          -0.57002   0.35333
           Z1           0.00000  -0.00000   0.15529
           X2          -0.89049   0.28402   0.00000   0.97047
           Y2           0.28433  -0.17776  -0.00000  -0.32567   0.15281
           Z2           0.00000  -0.00000  -0.07836  -0.00000   0.00000
           X3          -0.90481   0.28600  -0.00000  -0.07998   0.04134
           Y3           0.28569  -0.17557   0.00000   0.04165   0.02495
           Z3          -0.00000   0.00000  -0.07693   0.00000   0.00000
                          Z2        X3        Y3        Z3
           Z2           0.03899
           X3          -0.00000   0.98479
           Y3          -0.00000  -0.32734   0.15063
           Z3           0.03937   0.00000  -0.00000   0.03756
 ITU=  0
     Eigenvalues ---    0.23180   1.18546   2.97718
 Angle between quadratic step and forces=  44.65 degrees.
 ClnCor:  largest displacement from symmetrization is 4.77D-18 for atom     1.
 Linear search not attempted -- first point.
 ClnCor:  largest displacement from symmetrization is 8.88D-16 for atom     2.
 B after Tr=     0.000094    0.000432    0.000000
         Rot=   -0.000000    0.944602   -0.328217    0.000000 Ang= 180.00 deg.
 Variable       Old X    -DE/DX   Delta X   Delta X   Delta X     New X
                                 (Linear)    (Quad)   (Total)
    X1        0.00000   0.00295   0.00000  -0.00002   0.00000   0.00000
    Y1        0.00377  -0.00183   0.00000  -0.00364  -0.00342   0.00035
    Z1        0.00000  -0.00000   0.00000  -0.00000  -0.00000   0.00000
    X2        2.06184   0.00108   0.00000   0.00216   0.00215   2.06399
    Y2       -0.71783   0.00003   0.00000   0.00083   0.00096  -0.71687
    Z2       -0.00000   0.00000   0.00000   0.00000   0.00000   0.00000
    X3       -2.06184  -0.00403   0.00000  -0.00214  -0.00215  -2.06399
    Y3        0.71501   0.00179   0.00000   0.00232   0.00246   0.71746
    Z3       -0.00000   0.00000   0.00000   0.00000   0.00000   0.00000
         Item               Value     Threshold  Converged?
 Maximum Force            0.004029     0.000450     NO 
 RMS     Force            0.001905     0.000300     NO 
 Maximum Displacement     0.003420     0.001800     NO 
 RMS     Displacement     0.001761     0.001200     NO 
 Predicted change in Energy=-1.086866D-05
 GradGradGradGradGradGradGradGradGradGradGradGradGradGradGradGradGradGrad


 ----------------------------------------------------------------------

 Electric dipole moment (input orientation):
 (Debye = 10**-18 statcoulomb cm , SI units = C m)
                  (au)            (Debye)         (10**-30 SI)
   Tot        0.507539D-02      0.129004D-01      0.430310D-01
   x         -0.325437D-02     -0.827178D-02     -0.275917D-01
   y          0.389470D-02      0.989934D-02      0.330206D-01
   z          0.000000D+00      0.000000D+00      0.000000D+00

 Dipole polarizability, Alpha (input orientation).
 (esu units = cm**3 , SI units = C**2 m**2 J**-1)
 Alpha(0;0):
               (au)            (10**-24 esu)      (10**-40 SI)
   iso        0.153747D+02      0.227830D+01      0.253495D+01
   aniso      0.149656D+02      0.221767D+01      0.246749D+01
   xx         0.237396D+02      0.351784D+01      0.391413D+01
   yx        -0.463987D+01     -0.687558D+00     -0.765011D+00
   yy         0.119985D+02      0.177800D+01      0.197829D+01
   zx         0.000000D+00      0.000000D+00      0.000000D+00
   zy         0.000000D+00      0.000000D+00      0.000000D+00
   zz         0.103861D+02      0.153906D+01      0.171244D+01

 ----------------------------------------------------------------------

 Dipole orientation:
     6          0.00185314          0.00154846          0.00289009
     8          0.86092168          0.71937660         -1.87290247
     8         -0.86231177         -0.72053814          1.87073454

 Electric dipole moment (dipole orientation):
 (Debye = 10**-18 statcoulomb cm , SI units = C m)
                  (au)            (Debye)         (10**-30 SI)
   Tot        0.507539D-02      0.129004D-01      0.430310D-01
   x          0.000000D+00      0.000000D+00      0.000000D+00
   y          0.000000D+00      0.000000D+00      0.000000D+00
   z          0.507539D-02      0.129004D-01      0.430310D-01

 Dipole polarizability, Alpha (dipole orientation).
 (esu units = cm**3 , SI units = C**2 m**2 J**-1)
 Alpha(0;0):
               (au)            (10**-24 esu)      (10**-40 SI)
   iso        0.153747D+02      0.227830D+01      0.253495D+01
   aniso      0.149656D+02      0.221767D+01      0.246749D+01
   xx         0.127181D+02      0.188463D+01      0.209693D+01
   yx         0.194857D+01      0.288748D+00      0.321276D+00
   yy         0.120143D+02      0.178034D+01      0.198089D+01
   zx        -0.506589D+01     -0.750688D+00     -0.835253D+00
   zy        -0.423300D+01     -0.627266D+00     -0.697928D+00
   zz         0.213918D+02      0.316994D+01      0.352703D+01

 ----------------------------------------------------------------------
 1\1\GINC-CCLEARH2O\Freq\RwB97XD\6-311+G(2d,2p)\C1O2\RAPPE\07-Feb-2021\
 0\\# freq wb97xd/6-311+g(2d,2p) geom=connectivity scf=xqc\\Title Card 
 Required\\0,1\C,0.,0.001993,0.\O,1.091077,-0.37986,0.\O,-1.091077,0.37
 8365,0.\\Version=EM64M-G16RevA.03\State=1-A'\HF=-188.5851453\RMSD=3.02
 6e-09\RMSF=1.905e-03\ZeroPoint=0.0103472\Thermal=0.0133059\Dipole=-0.0
 032544,0.0038947,0.\DipoleDeriv=2.3423163,-0.6283338,0.,-0.6287211,0.7
 522617,0.,0.,0.,0.5338886,-1.1695712,0.3126139,0.,0.3158038,-0.3771718
 ,0.,0.,0.,-0.2677334,-1.1727451,0.3157199,0.,0.3129173,-0.3750898,0.,0
 .,0.,-0.2661552\Polar=23.7395709,-4.6398691,11.9985304,0.,0.,10.386117
 3\Quadrupole=-1.8084071,0.7299485,1.0784586,1.0030796,0.,0.\PG=CS [SG(
 C1O2)]\NImag=0\\1.79529537,-0.57001774,0.35333027,0.,0.,0.15528749,-0.
 89048584,0.28402053,0.,0.97046936,0.28432985,-0.17775596,0.,-0.3256726
 3,0.15281092,0.,0.,-0.07835899,0.,0.,0.03898704,-0.90480953,0.28599721
 ,0.,-0.07998352,0.04134278,0.,0.98479306,0.28568790,-0.17557430,0.,0.0
 4165210,0.02494504,0.,-0.32733999,0.15062927,0.,0.,-0.07692850,0.,0.,0
 .03937195,0.,0.,0.03755655\\-0.00295258,0.00182910,0.,-0.00107603,-0.0
 0003452,0.,0.00402860,-0.00179458,0.\\\@


 SCIENCE AND PEACE WILL TRIUMPH OVER IGNORANCE AND WAR

                          -- PASTEUR
 Job cpu time:       0 days  0 hours  1 minutes 18.3 seconds.
 Elapsed time:       0 days  0 hours  0 minutes 10.3 seconds.
 File lengths (MBytes):  RWF=      6 Int=      0 D2E=      0 Chk=      2 Scr=      1
 Normal termination of Gaussian 16 at Sun Feb  7 06:36:49 2021.
