 Entering Gaussian System, Link 0=/applications/g16/g16/g16
 Initial command:
 /applications/g16/g16/l1.exe "/scratch/g98/Gau-40121.inp" -scrdir="/scratch/g98/"
 Entering Link 1 = /applications/g16/g16/l1.exe PID=     40122.
  
 Copyright (c) 1988,1990,1992,1993,1995,1998,2003,2009,2016,
            Gaussian, Inc.  All Rights Reserved.
  
 This is part of the Gaussian(R) 16 program.  It is based on
 the Gaussian(R) 09 system (copyright 2009, Gaussian, Inc.),
 the Gaussian(R) 03 system (copyright 2003, Gaussian, Inc.),
 the Gaussian(R) 98 system (copyright 1998, Gaussian, Inc.),
 the Gaussian(R) 94 system (copyright 1995, Gaussian, Inc.),
 the Gaussian 92(TM) system (copyright 1992, Gaussian, Inc.),
 the Gaussian 90(TM) system (copyright 1990, Gaussian, Inc.),
 the Gaussian 88(TM) system (copyright 1988, Gaussian, Inc.),
 the Gaussian 86(TM) system (copyright 1986, Carnegie Mellon
 University), and the Gaussian 82(TM) system (copyright 1983,
 Carnegie Mellon University). Gaussian is a federally registered
 trademark of Gaussian, Inc.
  
 This software contains proprietary and confidential information,
 including trade secrets, belonging to Gaussian, Inc.
  
 This software is provided under written license and may be
 used, copied, transmitted, or stored only in accord with that
 written license.
  
 The following legend is applicable only to US Government
 contracts under FAR:
  
                    RESTRICTED RIGHTS LEGEND
  
 Use, reproduction and disclosure by the US Government is
 subject to restrictions as set forth in subparagraphs (a)
 and (c) of the Commercial Computer Software - Restricted
 Rights clause in FAR 52.227-19.
  
 Gaussian, Inc.
 340 Quinnipiac St., Bldg. 40, Wallingford CT 06492
  
  
 ---------------------------------------------------------------
 Warning -- This program may not be used in any manner that
 competes with the business of Gaussian, Inc. or will provide
 assistance to any competitor of Gaussian, Inc.  The licensee
 of this program is prohibited from giving any competitor of
 Gaussian, Inc. access to this program.  By using this program,
 the user acknowledges that Gaussian, Inc. is engaged in the
 business of creating and licensing software in the field of
 computational chemistry and represents and warrants to the
 licensee that it is not a competitor of Gaussian, Inc. and that
 it will not use this program in any manner prohibited above.
 ---------------------------------------------------------------
  

 Cite this work as:
 Gaussian 16, Revision A.03,
 M. J. Frisch, G. W. Trucks, H. B. Schlegel, G. E. Scuseria, 
 M. A. Robb, J. R. Cheeseman, G. Scalmani, V. Barone, 
 G. A. Petersson, H. Nakatsuji, X. Li, M. Caricato, A. V. Marenich, 
 J. Bloino, B. G. Janesko, R. Gomperts, B. Mennucci, H. P. Hratchian, 
 J. V. Ortiz, A. F. Izmaylov, J. L. Sonnenberg, D. Williams-Young, 
 F. Ding, F. Lipparini, F. Egidi, J. Goings, B. Peng, A. Petrone, 
 T. Henderson, D. Ranasinghe, V. G. Zakrzewski, J. Gao, N. Rega, 
 G. Zheng, W. Liang, M. Hada, M. Ehara, K. Toyota, R. Fukuda, 
 J. Hasegawa, M. Ishida, T. Nakajima, Y. Honda, O. Kitao, H. Nakai, 
 T. Vreven, K. Throssell, J. A. Montgomery, Jr., J. E. Peralta, 
 F. Ogliaro, M. J. Bearpark, J. J. Heyd, E. N. Brothers, K. N. Kudin, 
 V. N. Staroverov, T. A. Keith, R. Kobayashi, J. Normand, 
 K. Raghavachari, A. P. Rendell, J. C. Burant, S. S. Iyengar, 
 J. Tomasi, M. Cossi, J. M. Millam, M. Klene, C. Adamo, R. Cammi, 
 J. W. Ochterski, R. L. Martin, K. Morokuma, O. Farkas, 
 J. B. Foresman, and D. J. Fox, Gaussian, Inc., Wallingford CT, 2016.
 
 ******************************************
 Gaussian 16:  EM64M-G16RevA.03 25-Dec-2016
                 7-Oct-2024 
 ******************************************
 %mem=48GB
 %nprocshared=24
 Will use up to   24 processors via shared memory.
 %chk=co2h.chk
 ---------------------------------------------------
 # opt freq uwb97xd/6-311+g(2d,2p) geom=connectivity
 ---------------------------------------------------
 1/18=20,19=15,26=3,38=1,57=2/1,3;
 2/9=110,12=2,17=6,18=5,40=1/2;
 3/5=4,6=6,7=212,11=2,25=1,30=1,71=1,74=-58,116=2/1,2,3;
 4//1;
 5/5=2,38=5/2;
 6/7=2,8=2,9=2,10=2,28=1/1;
 7//1,2,3,16;
 1/18=20,19=15,26=3/3(2);
 2/9=110/2;
 99//99;
 2/9=110/2;
 3/5=4,6=6,7=212,11=2,25=1,30=1,71=1,74=-58,116=2/1,2,3;
 4/5=5,16=3,69=1/1;
 5/5=2,38=5/2;
 7//1,2,3,16;
 1/18=20,19=15,26=3/3(-5);
 2/9=110/2;
 6/7=2,8=2,9=2,10=2,19=2,28=1/1;
 99/9=1/99;
 -------------------
 Title Card Required
 -------------------
 Symbolic Z-matrix:
 Charge =  0 Multiplicity = 2
 C                     0.73      0.51947   0.00001 
 O                     1.40116  -0.42555   0.00001 
 O                    -0.68082   0.60887   0. 
 H                    -1.10788  -0.25091  -0.00001 
 

 GradGradGradGradGradGradGradGradGradGradGradGradGradGradGradGradGradGrad
 Berny optimization.
 Initialization pass.
                           ----------------------------
                           !    Initial Parameters    !
                           ! (Angstroms and Degrees)  !
 --------------------------                            --------------------------
 ! Name  Definition              Value          Derivative Info.                !
 --------------------------------------------------------------------------------
 ! R1    R(1,2)                  1.1591         estimate D2E/DX2                !
 ! R2    R(1,3)                  1.4137         estimate D2E/DX2                !
 ! R3    R(3,4)                  0.96           estimate D2E/DX2                !
 ! A1    A(2,1,3)              129.0081         estimate D2E/DX2                !
 ! A2    A(1,3,4)              112.7886         estimate D2E/DX2                !
 ! D1    D(2,1,3,4)              0.0001         estimate D2E/DX2                !
 --------------------------------------------------------------------------------
 Trust Radius=3.00D-01 FncErr=1.00D-07 GrdErr=1.00D-06 EigMax=2.50D+02 EigMin=1.00D-04
 Number of steps in this run=     20 maximum allowed number of steps=    100.
 GradGradGradGradGradGradGradGradGradGradGradGradGradGradGradGradGradGrad

                          Input orientation:                          
 ---------------------------------------------------------------------
 Center     Atomic      Atomic             Coordinates (Angstroms)
 Number     Number       Type             X           Y           Z
 ---------------------------------------------------------------------
      1          6           0        0.729999    0.519473    0.000012
      2          8           0        1.401156   -0.425545    0.000005
      3          8           0       -0.680823    0.608865    0.000002
      4          1           0       -1.107885   -0.250913   -0.000011
 ---------------------------------------------------------------------
                    Distance matrix (angstroms):
                    1          2          3          4
     1  C    0.000000
     2  O    1.159099   0.000000
     3  O    1.413651   2.324788   0.000000
     4  H    1.992815   2.515111   0.960000   0.000000
 Stoichiometry    CHO2(2)
 Framework group  C1[X(CHO2)]
 Deg. of freedom     6
 Full point group                 C1      NOp   1
 Largest Abelian subgroup         C1      NOp   1
 Largest concise Abelian subgroup C1      NOp   1
                         Standard orientation:                         
 ---------------------------------------------------------------------
 Center     Atomic      Atomic             Coordinates (Angstroms)
 Number     Number       Type             X           Y           Z
 ---------------------------------------------------------------------
      1          6           0        0.188781   -0.433225   -0.000007
      2          8           0        1.164811    0.191977    0.000000
      3          8           0       -1.152987    0.011824    0.000003
      4          1           0       -1.227281    0.968944    0.000016
 ---------------------------------------------------------------------
 Rotational constants (GHZ):         135.3354192          11.2524140          10.3886532
 Standard basis: 6-311+G(2d,2p) (5D, 7F)
 There are    96 symmetry adapted cartesian basis functions of A   symmetry.
 There are    90 symmetry adapted basis functions of A   symmetry.
    90 basis functions,   137 primitive gaussians,    96 cartesian basis functions
    12 alpha electrons       11 beta electrons
       nuclear repulsion energy        62.1362064452 Hartrees.
 NAtoms=    4 NActive=    4 NUniq=    4 SFac= 1.00D+00 NAtFMM=   60 NAOKFM=F Big=F
 Integral buffers will be    131072 words long.
 Raffenetti 2 integral format.
 Two-electron integral symmetry is turned on.
 Nuclear repulsion after empirical dispersion term =       62.1359807965 Hartrees.
 One-electron integrals computed using PRISM.
 NBasis=    90 RedAO= T EigKep=  9.82D-04  NBF=    90
 NBsUse=    90 1.00D-06 EigRej= -1.00D+00 NBFU=    90
 ExpMin= 4.38D-02 ExpMax= 8.59D+03 ExpMxC= 1.30D+03 IAcc=3 IRadAn=         5 AccDes= 0.00D+00
 Harris functional with IExCor= 4639 and IRadAn=       5 diagonalized for initial guess.
 HarFok:  IExCor= 4639 AccDes= 0.00D+00 IRadAn=         5 IDoV= 1 UseB2=F ITyADJ=14
 ICtDFT=  3500011 ScaDFX=  1.000000  1.000000  1.000000  1.000000
 FoFCou: FMM=F IPFlag=           0 FMFlag=      100000 FMFlg1=           0
         NFxFlg=           0 DoJE=T BraDBF=F KetDBF=T FulRan=T
         wScrn=  0.000000 ICntrl=       500 IOpCl=  0 I1Cent=   200000004 NGrid=           0
         NMat0=    1 NMatS0=      1 NMatT0=    0 NMatD0=    1 NMtDS0=    0 NMtDT0=    0
 Petite list used in FoFCou.
 Initial guess <Sx>= 0.0000 <Sy>= 0.0000 <Sz>= 0.5000 <S**2>= 0.7500 S= 0.5000
 Keep R1 and R2 ints in memory in canonical form, NReq=55649328.
 Requested convergence on RMS density matrix=1.00D-08 within 128 cycles.
 Requested convergence on MAX density matrix=1.00D-06.
 Requested convergence on             energy=1.00D-06.
 No special actions if energy rises.
 SCF Done:  E(UwB97XD) =  -189.090851051     A.U. after   15 cycles
            NFock= 15  Conv=0.68D-08     -V/T= 2.0031
 <Sx>= 0.0000 <Sy>= 0.0000 <Sz>= 0.5000 <S**2>= 0.7538 S= 0.5019
 <L.S>= 0.000000000000E+00
 Annihilation of the first spin contaminant:
 S**2 before annihilation     0.7538,   after     0.7500

 **********************************************************************

            Population analysis using the SCF density.

 **********************************************************************

 Orbital symmetries:
 Alpha Orbitals:
       Occupied  (A) (A) (A) (A) (A) (A) (A) (A) (A) (A) (A) (A)
       Virtual   (A) (A) (A) (A) (A) (A) (A) (A) (A) (A) (A) (A)
                 (A) (A) (A) (A) (A) (A) (A) (A) (A) (A) (A) (A)
                 (A) (A) (A) (A) (A) (A) (A) (A) (A) (A) (A) (A)
                 (A) (A) (A) (A) (A) (A) (A) (A) (A) (A) (A) (A)
                 (A) (A) (A) (A) (A) (A) (A) (A) (A) (A) (A) (A)
                 (A) (A) (A) (A) (A) (A) (A) (A) (A) (A) (A) (A)
                 (A) (A) (A) (A) (A) (A)
 Beta  Orbitals:
       Occupied  (A) (A) (A) (A) (A) (A) (A) (A) (A) (A) (A)
       Virtual   (A) (A) (A) (A) (A) (A) (A) (A) (A) (A) (A) (A)
                 (A) (A) (A) (A) (A) (A) (A) (A) (A) (A) (A) (A)
                 (A) (A) (A) (A) (A) (A) (A) (A) (A) (A) (A) (A)
                 (A) (A) (A) (A) (A) (A) (A) (A) (A) (A) (A) (A)
                 (A) (A) (A) (A) (A) (A) (A) (A) (A) (A) (A) (A)
                 (A) (A) (A) (A) (A) (A) (A) (A) (A) (A) (A) (A)
                 (A) (A) (A) (A) (A) (A) (A)
 The electronic state is 2-A.
 Alpha  occ. eigenvalues --  -19.32753 -19.31485 -10.45067  -1.25357  -1.17485
 Alpha  occ. eigenvalues --   -0.75187  -0.62897  -0.59225  -0.57011  -0.49367
 Alpha  occ. eigenvalues --   -0.45505  -0.34806
 Alpha virt. eigenvalues --    0.05048   0.06526   0.09763   0.10602   0.11111
 Alpha virt. eigenvalues --    0.18531   0.21614   0.25311   0.26098   0.27698
 Alpha virt. eigenvalues --    0.29627   0.31932   0.32736   0.33694   0.36051
 Alpha virt. eigenvalues --    0.51132   0.53014   0.59693   0.62614   0.69208
 Alpha virt. eigenvalues --    0.71281   0.72533   0.76978   0.87178   0.96119
 Alpha virt. eigenvalues --    0.96367   1.05062   1.09366   1.09554   1.11496
 Alpha virt. eigenvalues --    1.13948   1.15623   1.30376   1.37985   1.49998
 Alpha virt. eigenvalues --    1.53832   1.56075   1.59701   1.71823   1.80777
 Alpha virt. eigenvalues --    1.94172   1.95459   2.09700   2.22948   2.30663
 Alpha virt. eigenvalues --    2.35739   2.59539   2.78294   2.82553   3.01898
 Alpha virt. eigenvalues --    3.26673   3.35550   3.39374   3.45871   3.57561
 Alpha virt. eigenvalues --    3.81396   3.85231   4.03703   4.20939   5.05096
 Alpha virt. eigenvalues --    5.08606   5.11212   5.37097   5.87660   6.19727
 Alpha virt. eigenvalues --    6.77045   6.82844   6.89669   6.98622   7.01618
 Alpha virt. eigenvalues --    7.08487   7.17133   7.23792   7.28822   7.49480
 Alpha virt. eigenvalues --   24.08684  49.97966  50.02235
  Beta  occ. eigenvalues --  -19.32341 -19.30881 -10.44004  -1.23865  -1.16138
  Beta  occ. eigenvalues --   -0.72507  -0.61543  -0.56087  -0.55951  -0.46487
  Beta  occ. eigenvalues --   -0.45113
  Beta virt. eigenvalues --   -0.04949   0.07457   0.08165   0.10577   0.12368
  Beta virt. eigenvalues --    0.12710   0.19250   0.22233   0.25649   0.26289
  Beta virt. eigenvalues --    0.29225   0.30121   0.32463   0.33274   0.35134
  Beta virt. eigenvalues --    0.36584   0.52427   0.54304   0.60441   0.64552
  Beta virt. eigenvalues --    0.70593   0.72187   0.73968   0.77965   0.88486
  Beta virt. eigenvalues --    0.96909   0.97336   1.05639   1.09869   1.10022
  Beta virt. eigenvalues --    1.12777   1.14528   1.15905   1.31963   1.38972
  Beta virt. eigenvalues --    1.50997   1.54237   1.56859   1.60424   1.72871
  Beta virt. eigenvalues --    1.81159   1.95307   1.95978   2.10243   2.24002
  Beta virt. eigenvalues --    2.31507   2.36886   2.60402   2.79231   2.84170
  Beta virt. eigenvalues --    3.05829   3.30821   3.39348   3.42372   3.49221
  Beta virt. eigenvalues --    3.59253   3.81940   3.88156   4.04437   4.21323
  Beta virt. eigenvalues --    5.05487   5.09041   5.13598   5.38095   5.88569
  Beta virt. eigenvalues --    6.20884   6.78873   6.84900   6.90451   6.99814
  Beta virt. eigenvalues --    7.03175   7.09326   7.18566   7.25084   7.30550
  Beta virt. eigenvalues --    7.50568  24.10448  49.98401  50.02731
          Condensed to atoms (all electrons):
               1          2          3          4
     1  C    5.179865   0.379114   0.112320   0.008125
     2  O    0.379114   7.889539  -0.021993   0.010511
     3  O    0.112320  -0.021993   8.020007   0.217612
     4  H    0.008125   0.010511   0.217612   0.499209
          Atomic-Atomic Spin Densities.
               1          2          3          4
     1  C    1.051844  -0.121775  -0.224284   0.026464
     2  O   -0.121775   0.307336   0.001285   0.008321
     3  O   -0.224284   0.001285   0.287260  -0.037485
     4  H    0.026464   0.008321  -0.037485   0.048507
 Mulliken charges and spin densities:
               1          2
     1  C    0.320576   0.732249
     2  O   -0.257172   0.195167
     3  O   -0.327946   0.026777
     4  H    0.264542   0.045807
 Sum of Mulliken charges =  -0.00000   1.00000
 Mulliken charges and spin densities with hydrogens summed into heavy atoms:
               1          2
     1  C    0.320576   0.732249
     2  O   -0.257172   0.195167
     3  O   -0.063404   0.072584
 Electronic spatial extent (au):  <R**2>=            128.7977
 Charge=              0.0000 electrons
 Dipole moment (field-independent basis, Debye):
    X=             -1.0559    Y=              1.2447    Z=              0.0000  Tot=              1.6322
 Quadrupole moment (field-independent basis, Debye-Ang):
   XX=            -19.0135   YY=            -14.9621   ZZ=            -16.4425
   XY=             -2.7340   XZ=             -0.0000   YZ=              0.0000
 Traceless Quadrupole moment (field-independent basis, Debye-Ang):
   XX=             -2.2075   YY=              1.8439   ZZ=              0.3635
   XY=             -2.7340   XZ=             -0.0000   YZ=              0.0000
 Octapole moment (field-independent basis, Debye-Ang**2):
  XXX=             -2.4051  YYY=              5.3236  ZZZ=              0.0000  XYY=             -3.0013
  XXY=              3.7820  XXZ=              0.0001  XZZ=              0.3556  YZZ=              0.7675
  YYZ=              0.0001  XYZ=             -0.0001
 Hexadecapole moment (field-independent basis, Debye-Ang**3):
 XXXX=           -111.7288 YYYY=            -24.5553 ZZZZ=            -14.4345 XXXY=             -5.3226
 XXXZ=              0.0000 YYYX=             -3.0651 YYYZ=             -0.0001 ZZZX=              0.0001
 ZZZY=             -0.0001 XXYY=            -19.1243 XXZZ=            -21.0844 YYZZ=             -6.6697
 XXYZ=              0.0000 YYXZ=             -0.0000 ZZXY=             -0.2137
 N-N= 6.213598079647D+01 E-N=-5.698164916458D+02  KE= 1.885022008670D+02
                          Isotropic Fermi Contact Couplings
        Atom                 a.u.       MegaHertz       Gauss      10(-4) cm-1
     1  C(13)              0.62978     707.99839     252.63143     236.16284
     2  O(17)              0.08403     -50.93647     -18.17540     -16.99058
     3  O(17)              0.36065    -218.62415     -78.01053     -72.92517
     4  H(1)               0.01400      62.58777      22.33287      20.87703
 --------------------------------------------------------
       Center         ----  Spin Dipole Couplings  ----
                      3XX-RR        3YY-RR        3ZZ-RR
 --------------------------------------------------------
     1   Atom       -0.341260      0.609923     -0.268663
     2   Atom       -0.470835      1.157016     -0.686181
     3   Atom        0.337546     -0.092732     -0.244814
     4   Atom       -0.000536      0.021837     -0.021301
 --------------------------------------------------------
                        XY            XZ            YZ
 --------------------------------------------------------
     1   Atom        0.163411      0.000003      0.000013
     2   Atom       -0.299326     -0.000005      0.000028
     3   Atom       -0.273057     -0.000006      0.000003
     4   Atom       -0.009046     -0.000000      0.000001
 --------------------------------------------------------


 ---------------------------------------------------------------------------------
              Anisotropic Spin Dipole Couplings in Principal Axis System
 ---------------------------------------------------------------------------------

       Atom             a.u.   MegaHertz   Gauss  10(-4) cm-1        Axes

              Baa    -0.3686   -49.456   -17.647   -16.497  0.9863 -0.1647 -0.0000
     1 C(13)  Bbb    -0.2687   -36.052   -12.864   -12.026  0.0000 -0.0000  1.0000
              Bcc     0.6372    85.508    30.511    28.522  0.1647  0.9863  0.0000
 
              Baa    -0.6862    49.652    17.717    16.562  0.0000 -0.0000  1.0000
     2 O(17)  Bbb    -0.5241    37.926    13.533    12.651  0.9845  0.1753  0.0000
              Bcc     1.2103   -87.577   -31.250   -29.213 -0.1753  0.9845  0.0000
 
              Baa    -0.2448    17.715     6.321     5.909  0.0000 -0.0000  1.0000
     3 O(17)  Bbb    -0.2252    16.297     5.815     5.436  0.4365  0.8997  0.0000
              Bcc     0.4700   -34.011   -12.136   -11.345  0.8997 -0.4365 -0.0000
 
              Baa    -0.0213   -11.365    -4.055    -3.791  0.0000 -0.0000  1.0000
     4 H(1)   Bbb    -0.0037    -1.993    -0.711    -0.665  0.9428  0.3335  0.0000
              Bcc     0.0250    13.358     4.767     4.456 -0.3335  0.9428  0.0000
 

 ---------------------------------------------------------------------------------

 Calling FoFJK, ICntrl=      2127 FMM=F ISym2X=0 I1Cent= 0 IOpClX= 1 NMat=1 NMatS=1 NMatT=0.
 ***** Axes restored to original set *****
 -------------------------------------------------------------------
 Center     Atomic                   Forces (Hartrees/Bohr)
 Number     Number              X              Y              Z
 -------------------------------------------------------------------
      1        6          -0.062935571    0.011491652   -0.000000369
      2        8           0.013355651   -0.016117178   -0.000000087
      3        8           0.043832790    0.014493570    0.000000539
      4        1           0.005747130   -0.009868044   -0.000000084
 -------------------------------------------------------------------
 Cartesian Forces:  Max     0.062935571 RMS     0.023792271

 GradGradGradGradGradGradGradGradGradGradGradGradGradGradGradGradGradGrad
 Berny optimization.
 FormGI is forming the generalized inverse of G from B-inverse, IUseBI=4.
 Internal  Forces:  Max     0.049188203 RMS     0.023114177
 Search for a local minimum.
 Step number   1 out of a maximum of   20
 All quantities printed in internal units (Hartrees-Bohrs-Radians)
 Mixed Optimization -- RFO/linear search
 Second derivative matrix not updated -- first step.
 The second derivative matrix:
                          R1        R2        R3        A1        A2
           R1           1.28385
           R2           0.00000   0.43431
           R3           0.00000   0.00000   0.55473
           A1           0.00000   0.00000   0.00000   0.25000
           A2           0.00000   0.00000   0.00000   0.00000   0.16000
           D1           0.00000   0.00000   0.00000   0.00000   0.00000
                          D1
           D1           0.01511
 ITU=  0
     Eigenvalues ---    0.01511   0.16000   0.25000   0.43431   0.55473
     Eigenvalues ---    1.28385
 RFO step:  Lambda=-7.71098693D-03 EMin= 1.51120151D-02
 Linear search not attempted -- first point.
 Iteration  1 RMS(Cart)=  0.08607549 RMS(Int)=  0.00254315
 Iteration  2 RMS(Cart)=  0.00215566 RMS(Int)=  0.00000135
 Iteration  3 RMS(Cart)=  0.00000166 RMS(Int)=  0.00000000
 Iteration  4 RMS(Cart)=  0.00000000 RMS(Int)=  0.00000000
 Variable       Old X    -DE/DX   Delta X   Delta X   Delta X     New X
                                 (Linear)    (Quad)   (Total)
    R1        2.19038   0.02087   0.00000   0.01616   0.01616   2.20654
    R2        2.67141  -0.04919   0.00000  -0.11128  -0.11128   2.56013
    R3        1.81414   0.00628   0.00000   0.01117   0.01117   1.82530
    A1        2.25162   0.00341   0.00000   0.01323   0.01323   2.26484
    A2        1.96853  -0.01730   0.00000  -0.10316  -0.10316   1.86537
    D1        0.00000  -0.00000   0.00000  -0.00000  -0.00000   0.00000
         Item               Value     Threshold  Converged?
 Maximum Force            0.049188     0.000450     NO 
 RMS     Force            0.023114     0.000300     NO 
 Maximum Displacement     0.158108     0.001800     NO 
 RMS     Displacement     0.087191     0.001200     NO 
 Predicted change in Energy=-3.946430D-03
 GradGradGradGradGradGradGradGradGradGradGradGradGradGradGradGradGradGrad

                          Input orientation:                          
 ---------------------------------------------------------------------
 Center     Atomic      Atomic             Coordinates (Angstroms)
 Number     Number       Type             X           Y           Z
 ---------------------------------------------------------------------
      1          6           0        0.682453    0.520014    0.000011
      2          8           0        1.351792   -0.436749    0.000005
      3          8           0       -0.667580    0.633137    0.000003
      4          1           0       -1.024218   -0.264522   -0.000011
 ---------------------------------------------------------------------
                    Distance matrix (angstroms):
                    1          2          3          4
     1  C    0.000000
     2  O    1.167652   0.000000
     3  O    1.354764   2.285283   0.000000
     4  H    1.878356   2.382243   0.965909   0.000000
 Stoichiometry    CHO2(2)
 Framework group  C1[X(CHO2)]
 Deg. of freedom     6
 Full point group                 C1      NOp   1
 Largest Abelian subgroup         C1      NOp   1
 Largest concise Abelian subgroup C1      NOp   1
                         Standard orientation:                         
 ---------------------------------------------------------------------
 Center     Atomic      Atomic             Coordinates (Angstroms)
 Number     Number       Type             X           Y           Z
 ---------------------------------------------------------------------
      1          6           0        0.151226   -0.425582   -0.000006
      2          8           0        1.151323    0.177092    0.000000
      3          8           0       -1.128490    0.019068    0.000002
      4          1           0       -1.090025    0.984212    0.000016
 ---------------------------------------------------------------------
 Rotational constants (GHZ):         140.1525760          11.7401139          10.8326951
 Standard basis: 6-311+G(2d,2p) (5D, 7F)
 There are    96 symmetry adapted cartesian basis functions of A   symmetry.
 There are    90 symmetry adapted basis functions of A   symmetry.
    90 basis functions,   137 primitive gaussians,    96 cartesian basis functions
    12 alpha electrons       11 beta electrons
       nuclear repulsion energy        63.1725251017 Hartrees.
 NAtoms=    4 NActive=    4 NUniq=    4 SFac= 1.00D+00 NAtFMM=   60 NAOKFM=F Big=F
 Integral buffers will be    131072 words long.
 Raffenetti 2 integral format.
 Two-electron integral symmetry is turned on.
 Nuclear repulsion after empirical dispersion term =       63.1723384331 Hartrees.
 One-electron integrals computed using PRISM.
 NBasis=    90 RedAO= T EigKep=  9.61D-04  NBF=    90
 NBsUse=    90 1.00D-06 EigRej= -1.00D+00 NBFU=    90
 Initial guess from the checkpoint file:  "co2h.chk"
 B after Tr=    -0.000000   -0.000000   -0.000000
         Rot=    0.999963    0.000000    0.000000    0.008562 Ang=   0.98 deg.
 Initial guess <Sx>= 0.0000 <Sy>= 0.0000 <Sz>= 0.5000 <S**2>= 0.7538 S= 0.5019
 ExpMin= 4.38D-02 ExpMax= 8.59D+03 ExpMxC= 1.30D+03 IAcc=2 IRadAn=         4 AccDes= 0.00D+00
 Harris functional with IExCor= 4639 and IRadAn=       4 diagonalized for initial guess.
 HarFok:  IExCor= 4639 AccDes= 0.00D+00 IRadAn=         4 IDoV= 1 UseB2=F ITyADJ=14
 ICtDFT=  3500011 ScaDFX=  1.000000  1.000000  1.000000  1.000000
 FoFCou: FMM=F IPFlag=           0 FMFlag=      100000 FMFlg1=           0
         NFxFlg=           0 DoJE=T BraDBF=F KetDBF=T FulRan=T
         wScrn=  0.000000 ICntrl=       500 IOpCl=  0 I1Cent=   200000004 NGrid=           0
         NMat0=    1 NMatS0=      1 NMatT0=    0 NMatD0=    1 NMtDS0=    0 NMtDT0=    0
 Petite list used in FoFCou.
 Keep R1 and R2 ints in memory in canonical form, NReq=55649328.
 Requested convergence on RMS density matrix=1.00D-08 within 128 cycles.
 Requested convergence on MAX density matrix=1.00D-06.
 Requested convergence on             energy=1.00D-06.
 No special actions if energy rises.
 SCF Done:  E(UwB97XD) =  -189.095862395     A.U. after   13 cycles
            NFock= 13  Conv=0.91D-08     -V/T= 2.0028
 <Sx>= 0.0000 <Sy>= 0.0000 <Sz>= 0.5000 <S**2>= 0.7536 S= 0.5018
 <L.S>= 0.000000000000E+00
 Annihilation of the first spin contaminant:
 S**2 before annihilation     0.7536,   after     0.7500
 Calling FoFJK, ICntrl=      2127 FMM=F ISym2X=0 I1Cent= 0 IOpClX= 1 NMat=1 NMatS=1 NMatT=0.
 ***** Axes restored to original set *****
 -------------------------------------------------------------------
 Center     Atomic                   Forces (Hartrees/Bohr)
 Number     Number              X              Y              Z
 -------------------------------------------------------------------
      1        6          -0.027000489    0.015431594   -0.000000023
      2        8           0.008180403   -0.012021117   -0.000000081
      3        8           0.022305925   -0.000961702    0.000000165
      4        1          -0.003485838   -0.002448775   -0.000000060
 -------------------------------------------------------------------
 Cartesian Forces:  Max     0.027000489 RMS     0.011885613

 GradGradGradGradGradGradGradGradGradGradGradGradGradGradGradGradGradGrad
 Berny optimization.
 Using GEDIIS/GDIIS optimizer.
 FormGI is forming the generalized inverse of G from B-inverse, IUseBI=4.
 Internal  Forces:  Max     0.019039137 RMS     0.010040889
 Search for a local minimum.
 Step number   2 out of a maximum of   20
 All quantities printed in internal units (Hartrees-Bohrs-Radians)
 Mixed Optimization -- RFO/linear search
 Update second derivatives using D2CorX and points    1    2
 DE= -5.01D-03 DEPred=-3.95D-03 R= 1.27D+00
 TightC=F SS=  1.41D+00  RLast= 1.54D-01 DXNew= 5.0454D-01 4.6073D-01
 Trust test= 1.27D+00 RLast= 1.54D-01 DXMaxT set to 4.61D-01
 The second derivative matrix:
                          R1        R2        R3        A1        A2
           R1           1.23363
           R2           0.10005   0.28181
           R3          -0.01408   0.02554   0.55092
           A1          -0.00491   0.00122  -0.00092   0.25108
           A2           0.02178   0.00686   0.00341  -0.00706   0.20451
           D1           0.00000  -0.00000   0.00000  -0.00000   0.00000
                          D1
           D1           0.01511
 ITU=  1  0
 Use linear search instead of GDIIS.
     Eigenvalues ---    0.01511   0.20268   0.25198   0.26922   0.55335
     Eigenvalues ---    1.24472
 RFO step:  Lambda=-1.19947007D-03 EMin= 1.51120151D-02
 Quartic linear search produced a step of  0.27002.
 Iteration  1 RMS(Cart)=  0.02091289 RMS(Int)=  0.00022473
 Iteration  2 RMS(Cart)=  0.00019253 RMS(Int)=  0.00000001
 Iteration  3 RMS(Cart)=  0.00000001 RMS(Int)=  0.00000000
 Variable       Old X    -DE/DX   Delta X   Delta X   Delta X     New X
                                 (Linear)    (Quad)   (Total)
    R1        2.20654   0.01454   0.00436   0.01232   0.01669   2.22323
    R2        2.56013  -0.01904  -0.03005  -0.03828  -0.06833   2.49181
    R3        1.82530   0.00356   0.00302   0.00651   0.00953   1.83483
    A1        2.26484  -0.00041   0.00357  -0.00456  -0.00099   2.26385
    A2        1.86537   0.00426  -0.02785   0.05707   0.02922   1.89459
    D1        0.00000  -0.00000  -0.00000   0.00000   0.00000   0.00000
         Item               Value     Threshold  Converged?
 Maximum Force            0.019039     0.000450     NO 
 RMS     Force            0.010041     0.000300     NO 
 Maximum Displacement     0.040128     0.001800     NO 
 RMS     Displacement     0.020903     0.001200     NO 
 Predicted change in Energy=-8.951200D-04
 GradGradGradGradGradGradGradGradGradGradGradGradGradGradGradGradGradGrad

                          Input orientation:                          
 ---------------------------------------------------------------------
 Center     Atomic      Atomic             Coordinates (Angstroms)
 Number     Number       Type             X           Y           Z
 ---------------------------------------------------------------------
      1          6           0        0.668228    0.525085    0.000011
      2          8           0        1.346834   -0.435957    0.000005
      3          8           0       -0.646345    0.628143    0.000003
      4          1           0       -1.026270   -0.265391   -0.000011
 ---------------------------------------------------------------------
                    Distance matrix (angstroms):
                    1          2          3          4
     1  C    0.000000
     2  O    1.176482   0.000000
     3  O    1.318607   2.259441   0.000000
     4  H    1.869806   2.379226   0.970951   0.000000
 Stoichiometry    CHO2(2)
 Framework group  C1[X(CHO2)]
 Deg. of freedom     6
 Full point group                 C1      NOp   1
 Largest Abelian subgroup         C1      NOp   1
 Largest concise Abelian subgroup C1      NOp   1
                         Standard orientation:                         
 ---------------------------------------------------------------------
 Center     Atomic      Atomic             Coordinates (Angstroms)
 Number     Number       Type             X           Y           Z
 ---------------------------------------------------------------------
      1          6           0        0.132631   -0.424402   -0.000006
      2          8           0        1.145432    0.174216    0.000000
      3          8           0       -1.108754    0.020215    0.000002
      4          1           0       -1.089210    0.990970    0.000016
 ---------------------------------------------------------------------
 Rotational constants (GHZ):         140.7556469          12.0154913          11.0704696
 Standard basis: 6-311+G(2d,2p) (5D, 7F)
 There are    96 symmetry adapted cartesian basis functions of A   symmetry.
 There are    90 symmetry adapted basis functions of A   symmetry.
    90 basis functions,   137 primitive gaussians,    96 cartesian basis functions
    12 alpha electrons       11 beta electrons
       nuclear repulsion energy        63.6800959151 Hartrees.
 NAtoms=    4 NActive=    4 NUniq=    4 SFac= 1.00D+00 NAtFMM=   60 NAOKFM=F Big=F
 Integral buffers will be    131072 words long.
 Raffenetti 2 integral format.
 Two-electron integral symmetry is turned on.
 Nuclear repulsion after empirical dispersion term =       63.6799135959 Hartrees.
 One-electron integrals computed using PRISM.
 NBasis=    90 RedAO= T EigKep=  9.60D-04  NBF=    90
 NBsUse=    90 1.00D-06 EigRej= -1.00D+00 NBFU=    90
 Initial guess from the checkpoint file:  "co2h.chk"
 B after Tr=     0.000000    0.000000    0.000000
         Rot=    0.999998   -0.000000   -0.000000    0.001780 Ang=  -0.20 deg.
 Initial guess <Sx>= 0.0000 <Sy>= 0.0000 <Sz>= 0.5000 <S**2>= 0.7536 S= 0.5018
 ExpMin= 4.38D-02 ExpMax= 8.59D+03 ExpMxC= 1.30D+03 IAcc=2 IRadAn=         4 AccDes= 0.00D+00
 Harris functional with IExCor= 4639 and IRadAn=       4 diagonalized for initial guess.
 HarFok:  IExCor= 4639 AccDes= 0.00D+00 IRadAn=         4 IDoV= 1 UseB2=F ITyADJ=14
 ICtDFT=  3500011 ScaDFX=  1.000000  1.000000  1.000000  1.000000
 FoFCou: FMM=F IPFlag=           0 FMFlag=      100000 FMFlg1=           0
         NFxFlg=           0 DoJE=T BraDBF=F KetDBF=T FulRan=T
         wScrn=  0.000000 ICntrl=       500 IOpCl=  0 I1Cent=   200000004 NGrid=           0
         NMat0=    1 NMatS0=      1 NMatT0=    0 NMatD0=    1 NMtDS0=    0 NMtDT0=    0
 Petite list used in FoFCou.
 Keep R1 and R2 ints in memory in canonical form, NReq=55649328.
 Requested convergence on RMS density matrix=1.00D-08 within 128 cycles.
 Requested convergence on MAX density matrix=1.00D-06.
 Requested convergence on             energy=1.00D-06.
 No special actions if energy rises.
 SCF Done:  E(UwB97XD) =  -189.096716723     A.U. after   13 cycles
            NFock= 13  Conv=0.52D-08     -V/T= 2.0026
 <Sx>= 0.0000 <Sy>= 0.0000 <Sz>= 0.5000 <S**2>= 0.7536 S= 0.5018
 <L.S>= 0.000000000000E+00
 Annihilation of the first spin contaminant:
 S**2 before annihilation     0.7536,   after     0.7500
 Calling FoFJK, ICntrl=      2127 FMM=F ISym2X=0 I1Cent= 0 IOpClX= 1 NMat=1 NMatS=1 NMatT=0.
 ***** Axes restored to original set *****
 -------------------------------------------------------------------
 Center     Atomic                   Forces (Hartrees/Bohr)
 Number     Number              X              Y              Z
 -------------------------------------------------------------------
      1        6          -0.001083345    0.002350144   -0.000000005
      2        8           0.004043345   -0.003043887    0.000000007
      3        8          -0.002058663   -0.000368236    0.000000007
      4        1          -0.000901337    0.001061979   -0.000000008
 -------------------------------------------------------------------
 Cartesian Forces:  Max     0.004043345 RMS     0.001794078

 GradGradGradGradGradGradGradGradGradGradGradGradGradGradGradGradGradGrad
 Berny optimization.
 Using GEDIIS/GDIIS optimizer.
 FormGI is forming the generalized inverse of G from B-inverse, IUseBI=4.
 Internal  Forces:  Max     0.004819421 RMS     0.002877736
 Search for a local minimum.
 Step number   3 out of a maximum of   20
 All quantities printed in internal units (Hartrees-Bohrs-Radians)
 Mixed Optimization -- RFO/linear search
 Update second derivatives using D2CorX and points    1    2    3
 DE= -8.54D-04 DEPred=-8.95D-04 R= 9.54D-01
 TightC=F SS=  1.41D+00  RLast= 7.68D-02 DXNew= 7.7485D-01 2.3029D-01
 Trust test= 9.54D-01 RLast= 7.68D-02 DXMaxT set to 4.61D-01
 The second derivative matrix:
                          R1        R2        R3        A1        A2
           R1           1.16974
           R2           0.13951   0.38108
           R3          -0.02101   0.00859   0.55376
           A1          -0.01982   0.04594  -0.00841   0.25691
           A2          -0.00293   0.05578  -0.00544  -0.00162   0.20148
           D1           0.00000  -0.00000   0.00000  -0.00000   0.00000
                          D1
           D1           0.01511
 ITU=  1  1  0
 Use linear search instead of GDIIS.
     Eigenvalues ---    0.01511   0.17937   0.24466   0.39044   0.55404
     Eigenvalues ---    1.19446
 RFO step:  Lambda=-9.71078217D-05 EMin= 1.51120151D-02
 Quartic linear search produced a step of -0.03396.
 Iteration  1 RMS(Cart)=  0.01425660 RMS(Int)=  0.00008400
 Iteration  2 RMS(Cart)=  0.00006373 RMS(Int)=  0.00000000
 Iteration  3 RMS(Cart)=  0.00000000 RMS(Int)=  0.00000000
 Variable       Old X    -DE/DX   Delta X   Delta X   Delta X     New X
                                 (Linear)    (Quad)   (Total)
    R1        2.22323   0.00482  -0.00057   0.00458   0.00401   2.22724
    R2        2.49181   0.00301   0.00232   0.00071   0.00303   2.49484
    R3        1.83483  -0.00063  -0.00032  -0.00037  -0.00070   1.83414
    A1        2.26385   0.00344   0.00003   0.01315   0.01318   2.27703
    A2        1.89459   0.00229  -0.00099   0.01182   0.01083   1.90542
    D1        0.00000  -0.00000  -0.00000  -0.00000  -0.00000  -0.00000
         Item               Value     Threshold  Converged?
 Maximum Force            0.004819     0.000450     NO 
 RMS     Force            0.002878     0.000300     NO 
 Maximum Displacement     0.023804     0.001800     NO 
 RMS     Displacement     0.014255     0.001200     NO 
 Predicted change in Energy=-4.939418D-05
 GradGradGradGradGradGradGradGradGradGradGradGradGradGradGradGradGradGrad

                          Input orientation:                          
 ---------------------------------------------------------------------
 Center     Atomic      Atomic             Coordinates (Angstroms)
 Number     Number       Type             X           Y           Z
 ---------------------------------------------------------------------
      1          6           0        0.668668    0.521031    0.000011
      2          8           0        1.359431   -0.433934    0.000005
      3          8           0       -0.647319    0.626559    0.000003
      4          1           0       -1.038332   -0.261776   -0.000011
 ---------------------------------------------------------------------
                    Distance matrix (angstroms):
                    1          2          3          4
     1  C    0.000000
     2  O    1.178606   0.000000
     3  O    1.320212   2.269734   0.000000
     4  H    1.877934   2.403935   0.970583   0.000000
 Stoichiometry    CHO2(2)
 Framework group  C1[X(CHO2)]
 Deg. of freedom     6
 Full point group                 C1      NOp   1
 Largest Abelian subgroup         C1      NOp   1
 Largest concise Abelian subgroup C1      NOp   1
                         Standard orientation:                         
 ---------------------------------------------------------------------
 Center     Atomic      Atomic             Coordinates (Angstroms)
 Number     Number       Type             X           Y           Z
 ---------------------------------------------------------------------
      1          6           0        0.132850   -0.419519   -0.000006
      2          8           0        1.151752    0.172892    0.000000
      3          8           0       -1.112701    0.018156    0.000002
      4          1           0       -1.109510    0.988734    0.000016
 ---------------------------------------------------------------------
 Rotational constants (GHZ):         143.2718875          11.8973158          10.9851108
 Standard basis: 6-311+G(2d,2p) (5D, 7F)
 There are    96 symmetry adapted cartesian basis functions of A   symmetry.
 There are    90 symmetry adapted basis functions of A   symmetry.
    90 basis functions,   137 primitive gaussians,    96 cartesian basis functions
    12 alpha electrons       11 beta electrons
       nuclear repulsion energy        63.5258104301 Hartrees.
 NAtoms=    4 NActive=    4 NUniq=    4 SFac= 1.00D+00 NAtFMM=   60 NAOKFM=F Big=F
 Integral buffers will be    131072 words long.
 Raffenetti 2 integral format.
 Two-electron integral symmetry is turned on.
 Nuclear repulsion after empirical dispersion term =       63.5256217637 Hartrees.
 One-electron integrals computed using PRISM.
 NBasis=    90 RedAO= T EigKep=  9.68D-04  NBF=    90
 NBsUse=    90 1.00D-06 EigRej= -1.00D+00 NBFU=    90
 Initial guess from the checkpoint file:  "co2h.chk"
 B after Tr=    -0.000000    0.000000    0.000000
         Rot=    1.000000    0.000000    0.000000   -0.000519 Ang=   0.06 deg.
 Initial guess <Sx>= 0.0000 <Sy>= 0.0000 <Sz>= 0.5000 <S**2>= 0.7536 S= 0.5018
 ExpMin= 4.38D-02 ExpMax= 8.59D+03 ExpMxC= 1.30D+03 IAcc=2 IRadAn=         4 AccDes= 0.00D+00
 Harris functional with IExCor= 4639 and IRadAn=       4 diagonalized for initial guess.
 HarFok:  IExCor= 4639 AccDes= 0.00D+00 IRadAn=         4 IDoV= 1 UseB2=F ITyADJ=14
 ICtDFT=  3500011 ScaDFX=  1.000000  1.000000  1.000000  1.000000
 FoFCou: FMM=F IPFlag=           0 FMFlag=      100000 FMFlg1=           0
         NFxFlg=           0 DoJE=T BraDBF=F KetDBF=T FulRan=T
         wScrn=  0.000000 ICntrl=       500 IOpCl=  0 I1Cent=   200000004 NGrid=           0
         NMat0=    1 NMatS0=      1 NMatT0=    0 NMatD0=    1 NMtDS0=    0 NMtDT0=    0
 Petite list used in FoFCou.
 Keep R1 and R2 ints in memory in canonical form, NReq=55649328.
 Requested convergence on RMS density matrix=1.00D-08 within 128 cycles.
 Requested convergence on MAX density matrix=1.00D-06.
 Requested convergence on             energy=1.00D-06.
 No special actions if energy rises.
 SCF Done:  E(UwB97XD) =  -189.096765167     A.U. after   12 cycles
            NFock= 12  Conv=0.56D-08     -V/T= 2.0027
 <Sx>= 0.0000 <Sy>= 0.0000 <Sz>= 0.5000 <S**2>= 0.7536 S= 0.5018
 <L.S>= 0.000000000000E+00
 Annihilation of the first spin contaminant:
 S**2 before annihilation     0.7536,   after     0.7500
 Calling FoFJK, ICntrl=      2127 FMM=F ISym2X=0 I1Cent= 0 IOpClX= 1 NMat=1 NMatS=1 NMatT=0.
 ***** Axes restored to original set *****
 -------------------------------------------------------------------
 Center     Atomic                   Forces (Hartrees/Bohr)
 Number     Number              X              Y              Z
 -------------------------------------------------------------------
      1        6           0.000527618    0.000749401    0.000000029
      2        8          -0.000299852   -0.000165349   -0.000000013
      3        8           0.000031446   -0.000985052   -0.000000028
      4        1          -0.000259212    0.000401001    0.000000012
 -------------------------------------------------------------------
 Cartesian Forces:  Max     0.000985052 RMS     0.000423925

 GradGradGradGradGradGradGradGradGradGradGradGradGradGradGradGradGradGrad
 Berny optimization.
 Using GEDIIS/GDIIS optimizer.
 FormGI is forming the generalized inverse of G from B-inverse, IUseBI=4.
 Internal  Forces:  Max     0.000759825 RMS     0.000450615
 Search for a local minimum.
 Step number   4 out of a maximum of   20
 All quantities printed in internal units (Hartrees-Bohrs-Radians)
 Mixed Optimization -- En-DIIS/RFO-DIIS
 Update second derivatives using D2CorX and points    1    2    3    4
 DE= -4.84D-05 DEPred=-4.94D-05 R= 9.81D-01
 TightC=F SS=  1.41D+00  RLast= 1.78D-02 DXNew= 7.7485D-01 5.3397D-02
 Trust test= 9.81D-01 RLast= 1.78D-02 DXMaxT set to 4.61D-01
 The second derivative matrix:
                          R1        R2        R3        A1        A2
           R1           1.16707
           R2           0.13340   0.37824
           R3          -0.00634   0.01260   0.55247
           A1           0.02001   0.05526  -0.00076   0.31327
           A2          -0.04588   0.03902   0.00184  -0.01671   0.16995
           D1          -0.00000  -0.00000  -0.00000  -0.00000  -0.00000
                          D1
           D1           0.01511
 ITU=  1  1  1  0
 Use linear search instead of GDIIS.
     Eigenvalues ---    0.01511   0.15303   0.28954   0.39345   0.55346
     Eigenvalues ---    1.19152
 RFO step:  Lambda=-4.86521086D-06 EMin= 1.51120151D-02
 Quartic linear search produced a step of -0.01531.
 Iteration  1 RMS(Cart)=  0.00184211 RMS(Int)=  0.00000278
 Iteration  2 RMS(Cart)=  0.00000267 RMS(Int)=  0.00000000
 Iteration  3 RMS(Cart)=  0.00000000 RMS(Int)=  0.00000000
 Variable       Old X    -DE/DX   Delta X   Delta X   Delta X     New X
                                 (Linear)    (Quad)   (Total)
    R1        2.22724  -0.00004  -0.00006   0.00018   0.00012   2.22736
    R2        2.49484   0.00018  -0.00005   0.00042   0.00037   2.49521
    R3        1.83414  -0.00026   0.00001  -0.00051  -0.00050   1.83364
    A1        2.27703  -0.00076  -0.00020  -0.00209  -0.00229   2.27475
    A2        1.90542   0.00073  -0.00017   0.00420   0.00404   1.90946
    D1       -0.00000   0.00000   0.00000   0.00000   0.00000   0.00000
         Item               Value     Threshold  Converged?
 Maximum Force            0.000760     0.000450     NO 
 RMS     Force            0.000451     0.000300     NO 
 Maximum Displacement     0.003085     0.001800     NO 
 RMS     Displacement     0.001841     0.001200     NO 
 Predicted change in Energy=-2.445596D-06
 GradGradGradGradGradGradGradGradGradGradGradGradGradGradGradGradGradGrad

                          Input orientation:                          
 ---------------------------------------------------------------------
 Center     Atomic      Atomic             Coordinates (Angstroms)
 Number     Number       Type             X           Y           Z
 ---------------------------------------------------------------------
      1          6           0        0.669589    0.521806    0.000011
      2          8           0        1.359565   -0.433804    0.000005
      3          8           0       -0.646742    0.625474    0.000003
      4          1           0       -1.039965   -0.261596   -0.000011
 ---------------------------------------------------------------------
                    Distance matrix (angstroms):
                    1          2          3          4
     1  C    0.000000
     2  O    1.178668   0.000000
     3  O    1.320407   2.268775   0.000000
     4  H    1.880503   2.405701   0.970318   0.000000
 Stoichiometry    CHO2(2)
 Framework group  C1[X(CHO2)]
 Deg. of freedom     6
 Full point group                 C1      NOp   1
 Largest Abelian subgroup         C1      NOp   1
 Largest concise Abelian subgroup C1      NOp   1
                         Standard orientation:                         
 ---------------------------------------------------------------------
 Center     Atomic      Atomic             Coordinates (Angstroms)
 Number     Number       Type             X           Y           Z
 ---------------------------------------------------------------------
      1          6           0        0.133213   -0.420460   -0.000006
      2          8           0        1.151282    0.173505    0.000000
      3          8           0       -1.112175    0.018267    0.000002
      4          1           0       -1.112132    0.988585    0.000016
 ---------------------------------------------------------------------
 Rotational constants (GHZ):         142.7667544          11.9054308          10.9890458
 Standard basis: 6-311+G(2d,2p) (5D, 7F)
 There are    96 symmetry adapted cartesian basis functions of A   symmetry.
 There are    90 symmetry adapted basis functions of A   symmetry.
    90 basis functions,   137 primitive gaussians,    96 cartesian basis functions
    12 alpha electrons       11 beta electrons
       nuclear repulsion energy        63.5257230325 Hartrees.
 NAtoms=    4 NActive=    4 NUniq=    4 SFac= 1.00D+00 NAtFMM=   60 NAOKFM=F Big=F
 Integral buffers will be    131072 words long.
 Raffenetti 2 integral format.
 Two-electron integral symmetry is turned on.
 Nuclear repulsion after empirical dispersion term =       63.5255339171 Hartrees.
 One-electron integrals computed using PRISM.
 NBasis=    90 RedAO= T EigKep=  9.69D-04  NBF=    90
 NBsUse=    90 1.00D-06 EigRej= -1.00D+00 NBFU=    90
 Initial guess from the checkpoint file:  "co2h.chk"
 B after Tr=     0.000000   -0.000000   -0.000000
         Rot=    1.000000   -0.000000   -0.000000   -0.000169 Ang=  -0.02 deg.
 Initial guess <Sx>= 0.0000 <Sy>= 0.0000 <Sz>= 0.5000 <S**2>= 0.7536 S= 0.5018
 Keep R1 and R2 ints in memory in canonical form, NReq=55649328.
 Requested convergence on RMS density matrix=1.00D-08 within 128 cycles.
 Requested convergence on MAX density matrix=1.00D-06.
 Requested convergence on             energy=1.00D-06.
 No special actions if energy rises.
 SCF Done:  E(UwB97XD) =  -189.096767473     A.U. after   11 cycles
            NFock= 11  Conv=0.33D-08     -V/T= 2.0027
 <Sx>= 0.0000 <Sy>= 0.0000 <Sz>= 0.5000 <S**2>= 0.7536 S= 0.5018
 <L.S>= 0.000000000000E+00
 Annihilation of the first spin contaminant:
 S**2 before annihilation     0.7536,   after     0.7500
 Calling FoFJK, ICntrl=      2127 FMM=F ISym2X=0 I1Cent= 0 IOpClX= 1 NMat=1 NMatS=1 NMatT=0.
 ***** Axes restored to original set *****
 -------------------------------------------------------------------
 Center     Atomic                   Forces (Hartrees/Bohr)
 Number     Number              X              Y              Z
 -------------------------------------------------------------------
      1        6          -0.000051638   -0.000100510   -0.000000010
      2        8          -0.000012066    0.000065593    0.000000006
      3        8          -0.000022706   -0.000099668    0.000000007
      4        1           0.000086410    0.000134586   -0.000000003
 -------------------------------------------------------------------
 Cartesian Forces:  Max     0.000134586 RMS     0.000066612

 GradGradGradGradGradGradGradGradGradGradGradGradGradGradGradGradGradGrad
 Berny optimization.
 Using GEDIIS/GDIIS optimizer.
 FormGI is forming the generalized inverse of G from B-inverse, IUseBI=4.
 Internal  Forces:  Max     0.000158982 RMS     0.000079681
 Search for a local minimum.
 Step number   5 out of a maximum of   20
 All quantities printed in internal units (Hartrees-Bohrs-Radians)
 Mixed Optimization -- En-DIIS/RFO-DIIS
 Swapping is turned off.
 Update second derivatives using D2CorX and points    1    2    3    4    5
 DE= -2.31D-06 DEPred=-2.45D-06 R= 9.43D-01
 TightC=F SS=  1.41D+00  RLast= 4.68D-03 DXNew= 7.7485D-01 1.4045D-02
 Trust test= 9.43D-01 RLast= 4.68D-03 DXMaxT set to 4.61D-01
 The second derivative matrix:
                          R1        R2        R3        A1        A2
           R1           1.17297
           R2           0.13981   0.38436
           R3           0.00032   0.02051   0.53953
           A1           0.01151   0.04663  -0.01864   0.32379
           A2          -0.03582   0.04948   0.02857  -0.02677   0.17726
           D1          -0.00000   0.00000   0.00000  -0.00000   0.00000
                          D1
           D1           0.01511
 ITU=  1  1  1  1  0
     Eigenvalues ---    0.01511   0.15238   0.30757   0.39357   0.54619
     Eigenvalues ---    1.19819
 En-DIIS/RFO-DIIS/Sim-DIIS IScMMF=       -3 using points:     5    4
 RFO step:  Lambda=-6.67536422D-08.
 DidBck=F Rises=F RFO-DIIS coefs:    0.95847    0.04153
 Iteration  1 RMS(Cart)=  0.00015017 RMS(Int)=  0.00000001
 Iteration  2 RMS(Cart)=  0.00000001 RMS(Int)=  0.00000000
 Variable       Old X    -DE/DX   Delta X   Delta X   Delta X     New X
                                 (Linear)    (Quad)   (Total)
    R1        2.22736  -0.00006  -0.00000  -0.00004  -0.00004   2.22732
    R2        2.49521  -0.00006  -0.00002  -0.00012  -0.00013   2.49508
    R3        1.83364  -0.00016   0.00002  -0.00030  -0.00028   1.83336
    A1        2.27475   0.00006   0.00010   0.00009   0.00018   2.27493
    A2        1.90946  -0.00004  -0.00017   0.00002  -0.00014   1.90931
    D1        0.00000  -0.00000  -0.00000  -0.00000  -0.00000  -0.00000
         Item               Value     Threshold  Converged?
 Maximum Force            0.000159     0.000450     YES
 RMS     Force            0.000080     0.000300     YES
 Maximum Displacement     0.000216     0.001800     YES
 RMS     Displacement     0.000150     0.001200     YES
 Predicted change in Energy=-3.577646D-08
 Optimization completed.
    -- Stationary point found.
                           ----------------------------
                           !   Optimized Parameters   !
                           ! (Angstroms and Degrees)  !
 --------------------------                            --------------------------
 ! Name  Definition              Value          Derivative Info.                !
 --------------------------------------------------------------------------------
 ! R1    R(1,2)                  1.1787         -DE/DX =   -0.0001              !
 ! R2    R(1,3)                  1.3204         -DE/DX =   -0.0001              !
 ! R3    R(3,4)                  0.9703         -DE/DX =   -0.0002              !
 ! A1    A(2,1,3)              130.3333         -DE/DX =    0.0001              !
 ! A2    A(1,3,4)              109.4038         -DE/DX =    0.0                 !
 ! D1    D(2,1,3,4)              0.0            -DE/DX =    0.0                 !
 --------------------------------------------------------------------------------
 GradGradGradGradGradGradGradGradGradGradGradGradGradGradGradGradGradGrad

                          Input orientation:                          
 ---------------------------------------------------------------------
 Center     Atomic      Atomic             Coordinates (Angstroms)
 Number     Number       Type             X           Y           Z
 ---------------------------------------------------------------------
      1          6           0        0.669589    0.521806    0.000011
      2          8           0        1.359565   -0.433804    0.000005
      3          8           0       -0.646742    0.625474    0.000003
      4          1           0       -1.039965   -0.261596   -0.000011
 ---------------------------------------------------------------------
                    Distance matrix (angstroms):
                    1          2          3          4
     1  C    0.000000
     2  O    1.178668   0.000000
     3  O    1.320407   2.268775   0.000000
     4  H    1.880503   2.405701   0.970318   0.000000
 Stoichiometry    CHO2(2)
 Framework group  C1[X(CHO2)]
 Deg. of freedom     6
 Full point group                 C1      NOp   1
 Largest Abelian subgroup         C1      NOp   1
 Largest concise Abelian subgroup C1      NOp   1
                         Standard orientation:                         
 ---------------------------------------------------------------------
 Center     Atomic      Atomic             Coordinates (Angstroms)
 Number     Number       Type             X           Y           Z
 ---------------------------------------------------------------------
      1          6           0        0.133213   -0.420460   -0.000006
      2          8           0        1.151282    0.173505    0.000000
      3          8           0       -1.112175    0.018267    0.000002
      4          1           0       -1.112132    0.988585    0.000016
 ---------------------------------------------------------------------
 Rotational constants (GHZ):         142.7667544          11.9054308          10.9890458

 **********************************************************************

            Population analysis using the SCF density.

 **********************************************************************

 Orbital symmetries:
 Alpha Orbitals:
       Occupied  (A) (A) (A) (A) (A) (A) (A) (A) (A) (A) (A) (A)
       Virtual   (A) (A) (A) (A) (A) (A) (A) (A) (A) (A) (A) (A)
                 (A) (A) (A) (A) (A) (A) (A) (A) (A) (A) (A) (A)
                 (A) (A) (A) (A) (A) (A) (A) (A) (A) (A) (A) (A)
                 (A) (A) (A) (A) (A) (A) (A) (A) (A) (A) (A) (A)
                 (A) (A) (A) (A) (A) (A) (A) (A) (A) (A) (A) (A)
                 (A) (A) (A) (A) (A) (A) (A) (A) (A) (A) (A) (A)
                 (A) (A) (A) (A) (A) (A)
 Beta  Orbitals:
       Occupied  (A) (A) (A) (A) (A) (A) (A) (A) (A) (A) (A)
       Virtual   (A) (A) (A) (A) (A) (A) (A) (A) (A) (A) (A) (A)
                 (A) (A) (A) (A) (A) (A) (A) (A) (A) (A) (A) (A)
                 (A) (A) (A) (A) (A) (A) (A) (A) (A) (A) (A) (A)
                 (A) (A) (A) (A) (A) (A) (A) (A) (A) (A) (A) (A)
                 (A) (A) (A) (A) (A) (A) (A) (A) (A) (A) (A) (A)
                 (A) (A) (A) (A) (A) (A) (A) (A) (A) (A) (A) (A)
                 (A) (A) (A) (A) (A) (A) (A)
 The electronic state is 2-A.
 Alpha  occ. eigenvalues --  -19.34312 -19.30108 -10.44305  -1.26239  -1.18552
 Alpha  occ. eigenvalues --   -0.77096  -0.62513  -0.59953  -0.57824  -0.49026
 Alpha  occ. eigenvalues --   -0.45759  -0.33607
 Alpha virt. eigenvalues --    0.05952   0.06162   0.09952   0.10405   0.10959
 Alpha virt. eigenvalues --    0.17948   0.22235   0.25296   0.25933   0.28399
 Alpha virt. eigenvalues --    0.29833   0.32270   0.32485   0.35263   0.39131
 Alpha virt. eigenvalues --    0.49983   0.53164   0.59648   0.63152   0.68765
 Alpha virt. eigenvalues --    0.68772   0.72710   0.79306   0.86161   0.97247
 Alpha virt. eigenvalues --    0.98076   1.05344   1.08896   1.10318   1.12327
 Alpha virt. eigenvalues --    1.13138   1.15755   1.32698   1.37280   1.49052
 Alpha virt. eigenvalues --    1.53598   1.57469   1.60994   1.73362   1.79431
 Alpha virt. eigenvalues --    1.95322   1.98778   2.10515   2.23860   2.34671
 Alpha virt. eigenvalues --    2.40067   2.59901   2.79447   2.84311   3.03740
 Alpha virt. eigenvalues --    3.27391   3.37669   3.38949   3.45004   3.58579
 Alpha virt. eigenvalues --    3.80455   3.85147   4.02106   4.17737   5.04349
 Alpha virt. eigenvalues --    5.08949   5.12900   5.46755   5.91428   6.26410
 Alpha virt. eigenvalues --    6.78390   6.84352   6.88736   7.00404   7.04077
 Alpha virt. eigenvalues --    7.09889   7.14774   7.24429   7.28582   7.46951
 Alpha virt. eigenvalues --   24.14651  49.96892  50.01444
  Beta  occ. eigenvalues --  -19.34003 -19.29476 -10.43255  -1.24943  -1.17123
  Beta  occ. eigenvalues --   -0.74826  -0.61521  -0.56988  -0.56815  -0.45618
  Beta  occ. eigenvalues --   -0.45404
  Beta virt. eigenvalues --   -0.03901   0.08181   0.08306   0.10927   0.12416
  Beta virt. eigenvalues --    0.12564   0.18899   0.22850   0.25662   0.26170
  Beta virt. eigenvalues --    0.29572   0.30362   0.32814   0.33039   0.35930
  Beta virt. eigenvalues --    0.40599   0.51211   0.54919   0.60412   0.65142
  Beta virt. eigenvalues --    0.69636   0.69904   0.74563   0.80424   0.87545
  Beta virt. eigenvalues --    0.98232   0.98761   1.05860   1.09182   1.11016
  Beta virt. eigenvalues --    1.13286   1.14027   1.16023   1.33955   1.38614
  Beta virt. eigenvalues --    1.50042   1.54022   1.58269   1.61751   1.74421
  Beta virt. eigenvalues --    1.79798   1.96433   1.99217   2.11037   2.24718
  Beta virt. eigenvalues --    2.35784   2.41274   2.60866   2.80513   2.86001
  Beta virt. eigenvalues --    3.07606   3.31834   3.41343   3.41623   3.48627
  Beta virt. eigenvalues --    3.60317   3.81127   3.87856   4.02954   4.18102
  Beta virt. eigenvalues --    5.04608   5.09442   5.15394   5.47402   5.92417
  Beta virt. eigenvalues --    6.27434   6.80188   6.86486   6.89415   7.01266
  Beta virt. eigenvalues --    7.05493   7.10760   7.15839   7.25858   7.29963
  Beta virt. eigenvalues --    7.47723  24.16409  49.97195  50.01996
          Condensed to atoms (all electrons):
               1          2          3          4
     1  C    5.191648   0.368257   0.125885   0.012793
     2  O    0.368257   7.948249  -0.029824   0.013945
     3  O    0.125885  -0.029824   7.958514   0.211822
     4  H    0.012793   0.013945   0.211822   0.495834
          Atomic-Atomic Spin Densities.
               1          2          3          4
     1  C    1.064950  -0.122212  -0.225397   0.033050
     2  O   -0.122212   0.321468  -0.000736   0.012926
     3  O   -0.225397  -0.000736   0.254235  -0.052280
     4  H    0.033050   0.012926  -0.052280   0.068646
 Mulliken charges and spin densities:
               1          2
     1  C    0.301417   0.750392
     2  O   -0.300626   0.211445
     3  O   -0.266396  -0.024178
     4  H    0.265606   0.062341
 Sum of Mulliken charges =  -0.00000   1.00000
 Mulliken charges and spin densities with hydrogens summed into heavy atoms:
               1          2
     1  C    0.301417   0.750392
     2  O   -0.300626   0.211445
     3  O   -0.000791   0.038163
 Electronic spatial extent (au):  <R**2>=            123.7592
 Charge=             -0.0000 electrons
 Dipole moment (field-independent basis, Debye):
    X=             -1.5452    Y=              1.3215    Z=              0.0000  Tot=              2.0332
 Quadrupole moment (field-independent basis, Debye-Ang):
   XX=            -19.2352   YY=            -14.9831   ZZ=            -16.3700
   XY=             -2.4346   XZ=             -0.0000   YZ=              0.0000
 Traceless Quadrupole moment (field-independent basis, Debye-Ang):
   XX=             -2.3724   YY=              1.8797   ZZ=              0.4928
   XY=             -2.4346   XZ=             -0.0000   YZ=              0.0000
 Octapole moment (field-independent basis, Debye-Ang**2):
  XXX=             -2.9268  YYY=              5.4844  ZZZ=              0.0000  XYY=             -3.1121
  XXY=              3.1593  XXZ=              0.0000  XZZ=             -0.0325  YZZ=              0.7547
  YYZ=              0.0001  XYZ=             -0.0000
 Hexadecapole moment (field-independent basis, Debye-Ang**3):
 XXXX=           -106.9416 YYYY=            -24.5700 ZZZZ=            -14.3792 XXXY=             -4.0502
 XXXZ=              0.0000 YYYX=             -2.9991 YYYZ=             -0.0001 ZZZX=              0.0001
 ZZZY=             -0.0001 XXYY=            -18.6740 XXZZ=            -20.0570 YYZZ=             -6.6841
 XXYZ=              0.0000 YYXZ=             -0.0000 ZZXY=             -0.2106
 N-N= 6.352553391711D+01 E-N=-5.725916060410D+02  KE= 1.885817675228D+02
                          Isotropic Fermi Contact Couplings
        Atom                 a.u.       MegaHertz       Gauss      10(-4) cm-1
     1  C(13)              0.54886     617.02560     220.17008     205.81759
     2  O(17)              0.09362     -56.75080     -20.25010     -18.93003
     3  O(17)              0.37586    -227.84194     -81.29967     -75.99989
     4  H(1)               0.01770      79.12425      28.23350      26.39301
 --------------------------------------------------------
       Center         ----  Spin Dipole Couplings  ----
                      3XX-RR        3YY-RR        3ZZ-RR
 --------------------------------------------------------
     1   Atom       -0.361501      0.658161     -0.296660
     2   Atom       -0.512569      1.198804     -0.686235
     3   Atom        0.176366     -0.009234     -0.167132
     4   Atom        0.002439      0.013700     -0.016139
 --------------------------------------------------------
                        XY            XZ            YZ
 --------------------------------------------------------
     1   Atom        0.121522      0.000002      0.000013
     2   Atom       -0.236081     -0.000004      0.000027
     3   Atom       -0.207273     -0.000004      0.000003
     4   Atom       -0.009425     -0.000000      0.000000
 --------------------------------------------------------


 ---------------------------------------------------------------------------------
              Anisotropic Spin Dipole Couplings in Principal Axis System
 ---------------------------------------------------------------------------------

       Atom             a.u.   MegaHertz   Gauss  10(-4) cm-1        Axes

              Baa    -0.3758   -50.427   -17.993   -16.820  0.9932 -0.1167 -0.0000
     1 C(13)  Bbb    -0.2967   -39.809   -14.205   -13.279  0.0000 -0.0000  1.0000
              Bcc     0.6724    90.236    32.198    30.099  0.1167  0.9932  0.0000
 
              Baa    -0.6862    49.655    17.718    16.563  0.0000 -0.0000  1.0000
     2 O(17)  Bbb    -0.5445    39.402    14.060    13.143  0.9910  0.1342  0.0000
              Bcc     1.2308   -89.058   -31.778   -29.707 -0.1342  0.9910  0.0000
 
              Baa    -0.1671    12.094     4.315     4.034  0.0000 -0.0000  1.0000
     3 O(17)  Bbb    -0.1435    10.386     3.706     3.464  0.5438  0.8392  0.0000
              Bcc     0.3107   -22.480    -8.021    -7.498  0.8392 -0.5438 -0.0000
 
              Baa    -0.0161    -8.611    -3.073    -2.872  0.0000 -0.0000  1.0000
     4 H(1)   Bbb    -0.0029    -1.552    -0.554    -0.518  0.8697  0.4935  0.0000
              Bcc     0.0190    10.163     3.627     3.390 -0.4935  0.8697  0.0000
 

 ---------------------------------------------------------------------------------

 1\1\GINC-CCLEARTI\FOpt\UwB97XD\6-311+G(2d,2p)\C1H1O2(2)\RAPPE\07-Oct-2
 024\0\\# opt freq uwb97xd/6-311+g(2d,2p) geom=connectivity\\Title Card
  Required\\0,2\C,0.6695889466,0.5218063407,0.0000113192\O,1.3595649862
 ,-0.433804,0.000004739\O,-0.6467421081,0.6254738581,0.0000027097\H,-1.
 0399646647,-0.2615961788,-0.000010868\\Version=EM64M-G16RevA.03\State=
 2-A\HF=-189.0967675\S2=0.753646\S2-1=0.\S2A=0.750008\RMSD=3.300e-09\RM
 SF=6.661e-05\Dipole=-0.7664652,-0.2289021,-0.0000084\Quadrupole=0.0967
 735,-0.4631246,0.3663511,2.3867482,0.0000267,0.0000074\PG=C01 [X(C1H1O
 2)]\\@


 CONFIDENCE: THAT QUIET ASSURED FEELING YOU HAVE
 JUST BEFORE YOU FALL FLAT ON YOUR FACE.
 Job cpu time:       0 days  0 hours 10 minutes 47.4 seconds.
 Elapsed time:       0 days  0 hours  0 minutes 29.3 seconds.
 File lengths (MBytes):  RWF=     10 Int=      0 D2E=      0 Chk=      2 Scr=      1
 Normal termination of Gaussian 16 at Mon Oct  7 10:54:10 2024.
 Link1:  Proceeding to internal job step number  2.
 ----------------------------------------------------------------------
 #N Geom=AllCheck Guess=TCheck SCRF=Check GenChk UwB97XD/6-311+G(2d,2p)
  Freq
 ----------------------------------------------------------------------
 1/10=4,29=7,30=1,38=1,40=1/1,3;
 2/12=2,40=1/2;
 3/5=4,6=6,7=212,11=2,14=-4,25=1,30=1,70=2,71=2,74=-58,116=2,140=1/1,2,3;
 4/5=101/1;
 5/5=2,38=6,98=1/2;
 8/6=4,10=90,11=11/1;
 11/6=1,8=1,9=11,15=111,16=1/1,2,10;
 10/6=1/2;
 6/7=2,8=2,9=2,10=2,28=1/1;
 7/8=1,10=1,25=1/1,2,3,16;
 1/10=4,30=1/3;
 99//99;
 Structure from the checkpoint file:  "co2h.chk"
 -------------------
 Title Card Required
 -------------------
 Charge =  0 Multiplicity = 2
 Redundant internal coordinates found in file.  (old form).
 C,0,0.6695889466,0.5218063407,0.0000113192
 O,0,1.3595649862,-0.433804,0.000004739
 O,0,-0.6467421081,0.6254738581,0.0000027097
 H,0,-1.0399646647,-0.2615961788,-0.000010868
 Recover connectivity data from disk.

 GradGradGradGradGradGradGradGradGradGradGradGradGradGradGradGradGradGrad
 Berny optimization.
 Initialization pass.
                           ----------------------------
                           !    Initial Parameters    !
                           ! (Angstroms and Degrees)  !
 --------------------------                            --------------------------
 ! Name  Definition              Value          Derivative Info.                !
 --------------------------------------------------------------------------------
 ! R1    R(1,2)                  1.1787         calculate D2E/DX2 analytically  !
 ! R2    R(1,3)                  1.3204         calculate D2E/DX2 analytically  !
 ! R3    R(3,4)                  0.9703         calculate D2E/DX2 analytically  !
 ! A1    A(2,1,3)              130.3333         calculate D2E/DX2 analytically  !
 ! A2    A(1,3,4)              109.4038         calculate D2E/DX2 analytically  !
 ! D1    D(2,1,3,4)              0.0            calculate D2E/DX2 analytically  !
 --------------------------------------------------------------------------------
 Trust Radius=3.00D-01 FncErr=1.00D-07 GrdErr=1.00D-07 EigMax=2.50D+02 EigMin=1.00D-04
 Number of steps in this run=      2 maximum allowed number of steps=      2.
 GradGradGradGradGradGradGradGradGradGradGradGradGradGradGradGradGradGrad

                          Input orientation:                          
 ---------------------------------------------------------------------
 Center     Atomic      Atomic             Coordinates (Angstroms)
 Number     Number       Type             X           Y           Z
 ---------------------------------------------------------------------
      1          6           0        0.669589    0.521806    0.000011
      2          8           0        1.359565   -0.433804    0.000005
      3          8           0       -0.646742    0.625474    0.000003
      4          1           0       -1.039965   -0.261596   -0.000011
 ---------------------------------------------------------------------
                    Distance matrix (angstroms):
                    1          2          3          4
     1  C    0.000000
     2  O    1.178668   0.000000
     3  O    1.320407   2.268775   0.000000
     4  H    1.880503   2.405701   0.970318   0.000000
 Stoichiometry    CHO2(2)
 Framework group  C1[X(CHO2)]
 Deg. of freedom     6
 Full point group                 C1      NOp   1
 Largest Abelian subgroup         C1      NOp   1
 Largest concise Abelian subgroup C1      NOp   1
                         Standard orientation:                         
 ---------------------------------------------------------------------
 Center     Atomic      Atomic             Coordinates (Angstroms)
 Number     Number       Type             X           Y           Z
 ---------------------------------------------------------------------
      1          6           0        0.133213   -0.420460   -0.000006
      2          8           0        1.151282    0.173505    0.000000
      3          8           0       -1.112175    0.018267    0.000002
      4          1           0       -1.112132    0.988585    0.000016
 ---------------------------------------------------------------------
 Rotational constants (GHZ):         142.7667544          11.9054308          10.9890458
 Standard basis: 6-311+G(2d,2p) (5D, 7F)
 There are    96 symmetry adapted cartesian basis functions of A   symmetry.
 There are    90 symmetry adapted basis functions of A   symmetry.
    90 basis functions,   137 primitive gaussians,    96 cartesian basis functions
    12 alpha electrons       11 beta electrons
       nuclear repulsion energy        63.5257230325 Hartrees.
 NAtoms=    4 NActive=    4 NUniq=    4 SFac= 1.00D+00 NAtFMM=   60 NAOKFM=F Big=F
 Integral buffers will be    131072 words long.
 Raffenetti 2 integral format.
 Two-electron integral symmetry is turned on.
 Nuclear repulsion after empirical dispersion term =       63.5255339171 Hartrees.
 One-electron integrals computed using PRISM.
 NBasis=    90 RedAO= T EigKep=  9.69D-04  NBF=    90
 NBsUse=    90 1.00D-06 EigRej= -1.00D+00 NBFU=    90
 Initial guess from the checkpoint file:  "co2h.chk"
 B after Tr=     0.000000    0.000000    0.000000
         Rot=    1.000000    0.000000    0.000000    0.000000 Ang=   0.00 deg.
 Initial guess <Sx>= 0.0000 <Sy>= 0.0000 <Sz>= 0.5000 <S**2>= 0.7536 S= 0.5018
 Keep R1 and R2 ints in memory in canonical form, NReq=55649328.
 Requested convergence on RMS density matrix=1.00D-08 within 128 cycles.
 Requested convergence on MAX density matrix=1.00D-06.
 Requested convergence on             energy=1.00D-06.
 No special actions if energy rises.
 SCF Done:  E(UwB97XD) =  -189.096767473     A.U. after    1 cycles
            NFock=  1  Conv=0.72D-09     -V/T= 2.0027
 <Sx>= 0.0000 <Sy>= 0.0000 <Sz>= 0.5000 <S**2>= 0.7536 S= 0.5018
 <L.S>= 0.000000000000E+00
 Annihilation of the first spin contaminant:
 S**2 before annihilation     0.7536,   after     0.7500
 DoSCS=F DFT=T ScalE2(SS,OS)=  1.000000  1.000000
 Range of M.O.s used for correlation:     1    90
 NBasis=    90 NAE=    12 NBE=    11 NFC=     0 NFV=     0
 NROrb=     90 NOA=    12 NOB=    11 NVA=    78 NVB=    79
 Symmetrizing basis deriv contribution to polar:
 IMax=3 JMax=2 DiffMx= 0.00D+00
 G2DrvN: will do     5 centers at a time, making    1 passes.
 Calling FoFCou, ICntrl=  3107 FMM=F I1Cent=   0 AccDes= 0.00D+00.
 End of G2Drv F.D. properties file   721 does not exist.
 End of G2Drv F.D. properties file   722 does not exist.
 End of G2Drv F.D. properties file   788 does not exist.
          IDoAtm=1111
          Differentiating once with respect to electric field.
                with respect to dipole field.
          Differentiating once with respect to nuclear coordinates.
 Keep R1 and R2 ints in memory in canonical form, NReq=55569072.
          There are    15 degrees of freedom in the 1st order CPHF.  IDoFFX=6 NUNeed=     3.
     12 vectors produced by pass  0 Test12= 1.20D-14 6.67D-09 XBig12= 2.17D+01 2.13D+00.
 AX will form    12 AO Fock derivatives at one time.
     12 vectors produced by pass  1 Test12= 1.20D-14 6.67D-09 XBig12= 6.10D+00 5.63D-01.
     12 vectors produced by pass  2 Test12= 1.20D-14 6.67D-09 XBig12= 3.13D-01 1.91D-01.
     12 vectors produced by pass  3 Test12= 1.20D-14 6.67D-09 XBig12= 9.45D-03 2.38D-02.
     12 vectors produced by pass  4 Test12= 1.20D-14 6.67D-09 XBig12= 1.26D-04 3.83D-03.
     12 vectors produced by pass  5 Test12= 1.20D-14 6.67D-09 XBig12= 2.80D-06 3.68D-04.
     12 vectors produced by pass  6 Test12= 1.20D-14 6.67D-09 XBig12= 2.64D-08 3.14D-05.
     12 vectors produced by pass  7 Test12= 1.20D-14 6.67D-09 XBig12= 2.07D-10 2.98D-06.
      5 vectors produced by pass  8 Test12= 1.20D-14 6.67D-09 XBig12= 1.81D-12 3.11D-07.
      3 vectors produced by pass  9 Test12= 1.20D-14 6.67D-09 XBig12= 1.28D-14 1.96D-08.
 InvSVY:  IOpt=1 It=  1 EMax= 1.11D-15
 Solved reduced A of dimension   104 with    12 vectors.
 Isotropic polarizability for W=    0.000000       20.44 Bohr**3.
 End of Minotr F.D. properties file   721 does not exist.
 End of Minotr F.D. properties file   722 does not exist.
 End of Minotr F.D. properties file   788 does not exist.

 **********************************************************************

            Population analysis using the SCF density.

 **********************************************************************

 Orbital symmetries:
 Alpha Orbitals:
       Occupied  (A) (A) (A) (A) (A) (A) (A) (A) (A) (A) (A) (A)
       Virtual   (A) (A) (A) (A) (A) (A) (A) (A) (A) (A) (A) (A)
                 (A) (A) (A) (A) (A) (A) (A) (A) (A) (A) (A) (A)
                 (A) (A) (A) (A) (A) (A) (A) (A) (A) (A) (A) (A)
                 (A) (A) (A) (A) (A) (A) (A) (A) (A) (A) (A) (A)
                 (A) (A) (A) (A) (A) (A) (A) (A) (A) (A) (A) (A)
                 (A) (A) (A) (A) (A) (A) (A) (A) (A) (A) (A) (A)
                 (A) (A) (A) (A) (A) (A)
 Beta  Orbitals:
       Occupied  (A) (A) (A) (A) (A) (A) (A) (A) (A) (A) (A)
       Virtual   (A) (A) (A) (A) (A) (A) (A) (A) (A) (A) (A) (A)
                 (A) (A) (A) (A) (A) (A) (A) (A) (A) (A) (A) (A)
                 (A) (A) (A) (A) (A) (A) (A) (A) (A) (A) (A) (A)
                 (A) (A) (A) (A) (A) (A) (A) (A) (A) (A) (A) (A)
                 (A) (A) (A) (A) (A) (A) (A) (A) (A) (A) (A) (A)
                 (A) (A) (A) (A) (A) (A) (A) (A) (A) (A) (A) (A)
                 (A) (A) (A) (A) (A) (A) (A)
 The electronic state is 2-A.
 Alpha  occ. eigenvalues --  -19.34312 -19.30108 -10.44305  -1.26239  -1.18552
 Alpha  occ. eigenvalues --   -0.77096  -0.62513  -0.59953  -0.57824  -0.49026
 Alpha  occ. eigenvalues --   -0.45759  -0.33607
 Alpha virt. eigenvalues --    0.05952   0.06162   0.09952   0.10405   0.10959
 Alpha virt. eigenvalues --    0.17948   0.22235   0.25296   0.25933   0.28399
 Alpha virt. eigenvalues --    0.29833   0.32270   0.32485   0.35263   0.39131
 Alpha virt. eigenvalues --    0.49983   0.53164   0.59648   0.63152   0.68765
 Alpha virt. eigenvalues --    0.68772   0.72710   0.79306   0.86161   0.97247
 Alpha virt. eigenvalues --    0.98076   1.05344   1.08896   1.10318   1.12327
 Alpha virt. eigenvalues --    1.13138   1.15755   1.32698   1.37280   1.49052
 Alpha virt. eigenvalues --    1.53598   1.57469   1.60994   1.73362   1.79431
 Alpha virt. eigenvalues --    1.95322   1.98778   2.10515   2.23860   2.34671
 Alpha virt. eigenvalues --    2.40067   2.59901   2.79447   2.84311   3.03740
 Alpha virt. eigenvalues --    3.27391   3.37669   3.38949   3.45004   3.58579
 Alpha virt. eigenvalues --    3.80455   3.85147   4.02106   4.17737   5.04349
 Alpha virt. eigenvalues --    5.08949   5.12900   5.46755   5.91428   6.26410
 Alpha virt. eigenvalues --    6.78390   6.84352   6.88736   7.00404   7.04077
 Alpha virt. eigenvalues --    7.09889   7.14774   7.24429   7.28582   7.46951
 Alpha virt. eigenvalues --   24.14651  49.96892  50.01444
  Beta  occ. eigenvalues --  -19.34003 -19.29476 -10.43255  -1.24943  -1.17123
  Beta  occ. eigenvalues --   -0.74826  -0.61521  -0.56988  -0.56815  -0.45618
  Beta  occ. eigenvalues --   -0.45404
  Beta virt. eigenvalues --   -0.03901   0.08181   0.08306   0.10927   0.12416
  Beta virt. eigenvalues --    0.12564   0.18899   0.22850   0.25662   0.26170
  Beta virt. eigenvalues --    0.29572   0.30362   0.32814   0.33039   0.35930
  Beta virt. eigenvalues --    0.40599   0.51211   0.54919   0.60412   0.65142
  Beta virt. eigenvalues --    0.69636   0.69904   0.74563   0.80424   0.87545
  Beta virt. eigenvalues --    0.98232   0.98761   1.05860   1.09182   1.11016
  Beta virt. eigenvalues --    1.13286   1.14027   1.16023   1.33955   1.38614
  Beta virt. eigenvalues --    1.50042   1.54022   1.58269   1.61751   1.74421
  Beta virt. eigenvalues --    1.79798   1.96433   1.99217   2.11037   2.24718
  Beta virt. eigenvalues --    2.35784   2.41274   2.60866   2.80513   2.86001
  Beta virt. eigenvalues --    3.07606   3.31834   3.41343   3.41623   3.48627
  Beta virt. eigenvalues --    3.60317   3.81127   3.87856   4.02954   4.18102
  Beta virt. eigenvalues --    5.04608   5.09442   5.15394   5.47402   5.92417
  Beta virt. eigenvalues --    6.27434   6.80188   6.86486   6.89415   7.01266
  Beta virt. eigenvalues --    7.05493   7.10760   7.15839   7.25858   7.29963
  Beta virt. eigenvalues --    7.47723  24.16409  49.97195  50.01996
          Condensed to atoms (all electrons):
               1          2          3          4
     1  C    5.191647   0.368257   0.125885   0.012793
     2  O    0.368257   7.948249  -0.029824   0.013945
     3  O    0.125885  -0.029824   7.958514   0.211822
     4  H    0.012793   0.013945   0.211822   0.495834
          Atomic-Atomic Spin Densities.
               1          2          3          4
     1  C    1.064950  -0.122212  -0.225397   0.033050
     2  O   -0.122212   0.321468  -0.000736   0.012926
     3  O   -0.225397  -0.000736   0.254235  -0.052280
     4  H    0.033050   0.012926  -0.052280   0.068646
 Mulliken charges and spin densities:
               1          2
     1  C    0.301417   0.750392
     2  O   -0.300626   0.211445
     3  O   -0.266396  -0.024178
     4  H    0.265606   0.062341
 Sum of Mulliken charges =  -0.00000   1.00000
 Mulliken charges and spin densities with hydrogens summed into heavy atoms:
               1          2
     1  C    0.301417   0.750392
     2  O   -0.300626   0.211445
     3  O   -0.000791   0.038163
 APT charges:
               1
     1  C    0.813027
     2  O   -0.551714
     3  O   -0.533188
     4  H    0.271875
 Sum of APT charges =  -0.00000
 APT charges with hydrogens summed into heavy atoms:
               1
     1  C    0.813027
     2  O   -0.551714
     3  O   -0.261313
 Electronic spatial extent (au):  <R**2>=            123.7592
 Charge=             -0.0000 electrons
 Dipole moment (field-independent basis, Debye):
    X=             -1.5452    Y=              1.3215    Z=              0.0000  Tot=              2.0332
 Quadrupole moment (field-independent basis, Debye-Ang):
   XX=            -19.2352   YY=            -14.9831   ZZ=            -16.3700
   XY=             -2.4346   XZ=             -0.0000   YZ=              0.0000
 Traceless Quadrupole moment (field-independent basis, Debye-Ang):
   XX=             -2.3724   YY=              1.8797   ZZ=              0.4928
   XY=             -2.4346   XZ=             -0.0000   YZ=              0.0000
 Octapole moment (field-independent basis, Debye-Ang**2):
  XXX=             -2.9268  YYY=              5.4844  ZZZ=              0.0000  XYY=             -3.1121
  XXY=              3.1593  XXZ=              0.0000  XZZ=             -0.0325  YZZ=              0.7547
  YYZ=              0.0001  XYZ=             -0.0000
 Hexadecapole moment (field-independent basis, Debye-Ang**3):
 XXXX=           -106.9416 YYYY=            -24.5700 ZZZZ=            -14.3792 XXXY=             -4.0502
 XXXZ=              0.0000 YYYX=             -2.9991 YYYZ=             -0.0001 ZZZX=              0.0001
 ZZZY=             -0.0001 XXYY=            -18.6740 XXZZ=            -20.0570 YYZZ=             -6.6841
 XXYZ=              0.0000 YYXZ=             -0.0000 ZZXY=             -0.2106
 N-N= 6.352553391711D+01 E-N=-5.725916060107D+02  KE= 1.885817674837D+02
  Exact polarizability:  25.663   0.580  21.004  -0.000   0.000  14.661
 Approx polarizability:  28.157   2.457  21.259   0.000   0.000  14.947
                          Isotropic Fermi Contact Couplings
        Atom                 a.u.       MegaHertz       Gauss      10(-4) cm-1
     1  C(13)              0.54886     617.02565     220.17010     205.81760
     2  O(17)              0.09362     -56.75083     -20.25011     -18.93004
     3  O(17)              0.37586    -227.84194     -81.29967     -75.99989
     4  H(1)               0.01770      79.12425      28.23350      26.39301
 --------------------------------------------------------
       Center         ----  Spin Dipole Couplings  ----
                      3XX-RR        3YY-RR        3ZZ-RR
 --------------------------------------------------------
     1   Atom       -0.361501      0.658161     -0.296660
     2   Atom       -0.512569      1.198804     -0.686234
     3   Atom        0.176366     -0.009234     -0.167132
     4   Atom        0.002439      0.013700     -0.016139
 --------------------------------------------------------
                        XY            XZ            YZ
 --------------------------------------------------------
     1   Atom        0.121522      0.000002      0.000013
     2   Atom       -0.236081     -0.000004      0.000027
     3   Atom       -0.207273     -0.000004      0.000003
     4   Atom       -0.009425     -0.000000      0.000000
 --------------------------------------------------------


 ---------------------------------------------------------------------------------
              Anisotropic Spin Dipole Couplings in Principal Axis System
 ---------------------------------------------------------------------------------

       Atom             a.u.   MegaHertz   Gauss  10(-4) cm-1        Axes

              Baa    -0.3758   -50.427   -17.993   -16.820  0.9932 -0.1167 -0.0000
     1 C(13)  Bbb    -0.2967   -39.809   -14.205   -13.279  0.0000 -0.0000  1.0000
              Bcc     0.6724    90.236    32.198    30.099  0.1167  0.9932  0.0000
 
              Baa    -0.6862    49.655    17.718    16.563  0.0000 -0.0000  1.0000
     2 O(17)  Bbb    -0.5445    39.402    14.060    13.143  0.9910  0.1342  0.0000
              Bcc     1.2308   -89.058   -31.778   -29.707 -0.1342  0.9910  0.0000
 
              Baa    -0.1671    12.094     4.315     4.034  0.0000 -0.0000  1.0000
     3 O(17)  Bbb    -0.1435    10.386     3.706     3.464  0.5438  0.8392  0.0000
              Bcc     0.3107   -22.480    -8.021    -7.498  0.8392 -0.5438 -0.0000
 
              Baa    -0.0161    -8.611    -3.073    -2.872  0.0000 -0.0000  1.0000
     4 H(1)   Bbb    -0.0029    -1.552    -0.554    -0.518  0.8697  0.4935  0.0000
              Bcc     0.0190    10.163     3.627     3.390 -0.4935  0.8697  0.0000
 

 ---------------------------------------------------------------------------------

 Calling FoFJK, ICntrl=    100127 FMM=F ISym2X=0 I1Cent= 0 IOpClX= 1 NMat=1 NMatS=1 NMatT=0.
 Full mass-weighted force constant matrix:
 Low frequencies ---   -7.0210   -0.0007    0.0008    0.0010    5.3585   34.9977
 Low frequencies ---  590.9052  612.0038 1106.0881
 Diagonal vibrational polarizability:
        8.4177274       1.1210370       8.9398620
 Harmonic frequencies (cm**-1), IR intensities (KM/Mole), Raman scattering
 activities (A**4/AMU), depolarization ratios for plane and unpolarized
 incident light, reduced masses (AMU), force constants (mDyne/A),
 and normal coordinates:
                      1                      2                      3
                      A                      A                      A
 Frequencies --    590.9032               612.0038              1106.0881
 Red. masses --      1.5140                 3.8915                 5.1992
 Frc consts  --      0.3115                 0.8588                 3.7477
 IR Inten    --    115.9926                35.1103               193.2360
  Atom  AN      X      Y      Z        X      Y      Z        X      Y      Z
     1   6     0.00  -0.00   0.15    -0.01   0.30   0.00    -0.25   0.22   0.00
     2   8    -0.00   0.00  -0.06     0.25  -0.13  -0.00    -0.16  -0.09  -0.00
     3   8     0.00   0.00  -0.11    -0.19  -0.09  -0.00     0.40  -0.07  -0.00
     4   1     0.00  -0.00   0.98    -0.88  -0.09   0.00    -0.83  -0.07   0.00
                      4                      5                      6
                      A                      A                      A
 Frequencies --   1322.6965              1899.7816              3708.4819
 Red. masses --      1.5479                12.9969                 1.0632
 Frc consts  --      1.5956                27.6374                 8.6148
 IR Inten    --      0.0178               361.4681                35.8122
  Atom  AN      X      Y      Z        X      Y      Z        X      Y      Z
     1   6    -0.10   0.16   0.00     0.71   0.38   0.00     0.00  -0.00  -0.00
     2   8     0.02  -0.02  -0.00    -0.48  -0.29  -0.00    -0.00   0.00   0.00
     3   8    -0.00  -0.09  -0.00    -0.06   0.00   0.00     0.00  -0.06  -0.00
     4   1     0.98  -0.06  -0.00     0.16   0.01  -0.00    -0.02   1.00   0.00

 -------------------
 - Thermochemistry -
 -------------------
 Temperature   298.150 Kelvin.  Pressure   1.00000 Atm.
 Atom     1 has atomic number  6 and mass  12.00000
 Atom     2 has atomic number  8 and mass  15.99491
 Atom     3 has atomic number  8 and mass  15.99491
 Atom     4 has atomic number  1 and mass   1.00783
 Molecular mass:    44.99765 amu.
 Principal axes and moments of inertia in atomic units:
                           1         2         3
     Eigenvalues --    12.64119 151.58974 164.23093
           X            0.99959  -0.02864   0.00000
           Y            0.02864   0.99959  -0.00001
           Z           -0.00000   0.00001   1.00000
 This molecule is an asymmetric top.
 Rotational symmetry number  1.
 Rotational temperatures (Kelvin)      6.85172     0.57137     0.52739
 Rotational constants (GHZ):         142.76675    11.90543    10.98905
 Zero-point vibrational energy      55267.2 (Joules/Mol)
                                   13.20918 (Kcal/Mol)
 Warning -- explicit consideration of   2 degrees of freedom as
           vibrations may cause significant error
 Vibrational temperatures:    850.18   880.54  1591.41  1903.07  2733.36
          (Kelvin)           5335.68
 
 Zero-point correction=                           0.021050 (Hartree/Particle)
 Thermal correction to Energy=                    0.024237
 Thermal correction to Enthalpy=                  0.025181
 Thermal correction to Gibbs Free Energy=        -0.003365
 Sum of electronic and zero-point Energies=           -189.075717
 Sum of electronic and thermal Energies=              -189.072531
 Sum of electronic and thermal Enthalpies=            -189.071587
 Sum of electronic and thermal Free Energies=         -189.100132
 
                     E (Thermal)             CV                S
                      KCal/Mol        Cal/Mol-Kelvin    Cal/Mol-Kelvin
 Total                   15.209              8.449             60.079
 Electronic               0.000              0.000              1.377
 Translational            0.889              2.981             37.338
 Rotational               0.889              2.981             20.381
 Vibrational             13.431              2.487              0.983
 Vibration     1          0.948              1.051              0.466
 Vibration     2          0.971              1.006              0.429
                       Q            Log10(Q)             Ln(Q)
 Total Bot       0.352900D+02          1.547652          3.563601
 Total V=0       0.169843D+12         11.230048         25.858141
 Vib (Bot)       0.234197D-09         -9.630418        -22.174858
 Vib (Bot)    1  0.255058D+00         -0.593361         -1.366263
 Vib (Bot)    2  0.240968D+00         -0.618041         -1.423092
 Vib (V=0)       0.112714D+01          0.051977          0.119682
 Vib (V=0)    1  0.106130D+01          0.025837          0.059492
 Vib (V=0)    2  0.105504D+01          0.023267          0.053575
 Electronic      0.200000D+01          0.301030          0.693147
 Translational   0.118642D+08          7.074239         16.289037
 Rotational      0.635041D+04          3.802802          8.756275
 ***** Axes restored to original set *****
 -------------------------------------------------------------------
 Center     Atomic                   Forces (Hartrees/Bohr)
 Number     Number              X              Y              Z
 -------------------------------------------------------------------
      1        6          -0.000051633   -0.000100514   -0.000000010
      2        8          -0.000012066    0.000065594    0.000000006
      3        8          -0.000022711   -0.000099666    0.000000007
      4        1           0.000086409    0.000134586   -0.000000003
 -------------------------------------------------------------------
 Cartesian Forces:  Max     0.000134586 RMS     0.000066612
 FormGI is forming the generalized inverse of G from B-inverse, IUseBI=4.

 GradGradGradGradGradGradGradGradGradGradGradGradGradGradGradGradGradGrad
 Berny optimization.
 Internal  Forces:  Max     0.000158981 RMS     0.000079681
 Search for a local minimum.
 Step number   1 out of a maximum of    2
 All quantities printed in internal units (Hartrees-Bohrs-Radians)
 Second derivative matrix not updated -- analytic derivatives used.
 The second derivative matrix:
                          R1        R2        R3        A1        A2
           R1           0.94931
           R2           0.09763   0.41355
           R3           0.00051   0.01961   0.49543
           A1           0.05449   0.04759  -0.02309   0.31393
           A2          -0.00116   0.04826   0.02050  -0.03438   0.17064
           D1          -0.00000  -0.00000   0.00000  -0.00000  -0.00000
                          D1
           D1           0.02536
 ITU=  0
     Eigenvalues ---    0.02536   0.14954   0.30501   0.41245   0.50344
     Eigenvalues ---    0.97242
 Angle between quadratic step and forces=  15.09 degrees.
 Linear search not attempted -- first point.
 Iteration  1 RMS(Cart)=  0.00015655 RMS(Int)=  0.00000001
 Iteration  2 RMS(Cart)=  0.00000001 RMS(Int)=  0.00000000
 Variable       Old X    -DE/DX   Delta X   Delta X   Delta X     New X
                                 (Linear)    (Quad)   (Total)
    R1        2.22736  -0.00006   0.00000  -0.00006  -0.00006   2.22730
    R2        2.49521  -0.00006   0.00000  -0.00012  -0.00012   2.49508
    R3        1.83364  -0.00016   0.00000  -0.00030  -0.00030   1.83333
    A1        2.27475   0.00006   0.00000   0.00019   0.00019   2.27493
    A2        1.90946  -0.00004   0.00000  -0.00015  -0.00015   1.90931
    D1        0.00000  -0.00000   0.00000  -0.00000  -0.00000   0.00000
         Item               Value     Threshold  Converged?
 Maximum Force            0.000159     0.000450     YES
 RMS     Force            0.000080     0.000300     YES
 Maximum Displacement     0.000222     0.001800     YES
 RMS     Displacement     0.000157     0.001200     YES
 Predicted change in Energy=-3.828073D-08
 Optimization completed.
    -- Stationary point found.
                           ----------------------------
                           !   Optimized Parameters   !
                           ! (Angstroms and Degrees)  !
 --------------------------                            --------------------------
 ! Name  Definition              Value          Derivative Info.                !
 --------------------------------------------------------------------------------
 ! R1    R(1,2)                  1.1787         -DE/DX =   -0.0001              !
 ! R2    R(1,3)                  1.3204         -DE/DX =   -0.0001              !
 ! R3    R(3,4)                  0.9703         -DE/DX =   -0.0002              !
 ! A1    A(2,1,3)              130.3333         -DE/DX =    0.0001              !
 ! A2    A(1,3,4)              109.4038         -DE/DX =    0.0                 !
 ! D1    D(2,1,3,4)              0.0            -DE/DX =    0.0                 !
 --------------------------------------------------------------------------------
 GradGradGradGradGradGradGradGradGradGradGradGradGradGradGradGradGradGrad


 ----------------------------------------------------------------------

 Electric dipole moment (input orientation):
 (Debye = 10**-18 statcoulomb cm , SI units = C m)
                  (au)            (Debye)         (10**-30 SI)
   Tot        0.799916D+00      0.203318D+01      0.678197D+01
   x         -0.766465D+00     -0.194816D+01     -0.649836D+01
   y         -0.228902D+00     -0.581811D+00     -0.194071D+01
   z          0.000000D+00      0.000000D+00      0.000000D+00

 Dipole polarizability, Alpha (input orientation).
 (esu units = cm**3 , SI units = C**2 m**2 J**-1)
 Alpha(0;0):
               (au)            (10**-24 esu)      (10**-40 SI)
   iso        0.204428D+02      0.302931D+01      0.337056D+01
   aniso      0.961768D+01      0.142519D+01      0.158574D+01
   xx         0.244678D+02      0.362575D+01      0.403419D+01
   yx        -0.211554D+01     -0.313491D+00     -0.348806D+00
   yy         0.221995D+02      0.328963D+01      0.366021D+01
   zx         0.470066D-04      0.696566D-05      0.775034D-05
   zy         0.763449D-04      0.113131D-04      0.125876D-04
   zz         0.146610D+02      0.217254D+01      0.241728D+01

 ----------------------------------------------------------------------

 Dipole orientation:
     6         -0.16675271          0.55838185         -1.49459828
     8          0.43514291         -1.45710081         -2.22718403
     8         -0.42415242          1.42029800          0.83282649
     1         -0.02538106          0.08498923          2.02452735

 Electric dipole moment (dipole orientation):
 (Debye = 10**-18 statcoulomb cm , SI units = C m)
                  (au)            (Debye)         (10**-30 SI)
   Tot        0.799916D+00      0.203318D+01      0.678197D+01
   x          0.000000D+00      0.000000D+00      0.000000D+00
   y          0.000000D+00      0.000000D+00      0.000000D+00
   z          0.799916D+00      0.203318D+01      0.678197D+01

 Dipole polarizability, Alpha (dipole orientation).
 (esu units = cm**3 , SI units = C**2 m**2 J**-1)
 Alpha(0;0):
               (au)            (10**-24 esu)      (10**-40 SI)
   iso        0.204428D+02      0.302931D+01      0.337056D+01
   aniso      0.961768D+01      0.142519D+01      0.158574D+01
   xx         0.153885D+02      0.228034D+01      0.253722D+01
   yx        -0.243594D+01     -0.360970D+00     -0.401633D+00
   yy         0.228179D+02      0.338127D+01      0.376217D+01
   zx        -0.684187D+00     -0.101386D+00     -0.112807D+00
   zy         0.229104D+01      0.339496D+00      0.377741D+00
   zz         0.231219D+02      0.342631D+01      0.381229D+01

 ----------------------------------------------------------------------
 1\1\GINC-CCLEARTI\Freq\UwB97XD\6-311+G(2d,2p)\C1H1O2(2)\RAPPE\07-Oct-2
 024\0\\#N Geom=AllCheck Guess=TCheck SCRF=Check GenChk UwB97XD/6-311+G
 (2d,2p) Freq\\Title Card Required\\0,2\C,0.6695889466,0.5218063407,0.0
 000113192\O,1.3595649862,-0.433804,0.000004739\O,-0.6467421081,0.62547
 38581,0.0000027097\H,-1.0399646647,-0.2615961788,-0.000010868\\Version
 =EM64M-G16RevA.03\State=2-A\HF=-189.0967675\S2=0.753646\S2-1=0.\S2A=0.
 750008\RMSD=7.192e-10\RMSF=6.661e-05\ZeroPoint=0.0210502\Thermal=0.024
 2367\Dipole=-0.7664652,-0.2289021,-0.0000084\DipoleDeriv=1.7640259,-0.
 5305208,0.0000058,-0.6171763,0.558049,0.0000008,0.0000048,0.0000014,0.
 1170058,-0.8369402,0.1600872,-0.0000027,0.6837963,-0.611684,0.0000001,
 0.0000037,-0.0000038,-0.2065168,-1.2058567,0.3269886,-0.0000029,-0.022
 5027,-0.1138098,0.0000018,-0.0000072,0.0000044,-0.2798984,0.278771,0.0
 434451,-0.0000002,-0.0441173,0.1674449,-0.0000028,-0.0000012,-0.000002
 1,0.3694094\Polar=24.4677806,-2.1155436,22.1995122,0.000047,0.0000763,
 14.6610203\Quadrupole=0.0967734,-0.4631246,0.3663511,2.3867482,0.00002
 67,0.0000074\PG=C01 [X(C1H1O2)]\NImag=0\\0.66323752,-0.31593342,0.7399
 9551,0.00000086,0.00000634,0.02919685,-0.32088980,0.35869595,0.0000021
 1,0.39013787,0.36036404,-0.63575617,-0.00000489,-0.42823257,0.62238730
 ,0.00000214,-0.00000491,-0.01597169,-0.00000239,0.00000431,0.00877882,
 -0.29682009,0.00927852,-0.00000188,-0.07910502,0.06121886,0.00000003,0
 .47237815,-0.03281930,-0.10281294,-0.00000116,0.06503248,0.00920048,0.
 00000041,0.09460844,0.51050242,-0.00000239,-0.00000084,-0.02887007,0.0
 0000009,0.00000038,0.01582659,0.00000442,0.00000648,0.02861162,-0.0455
 2763,-0.05204105,-0.00000109,0.00985695,0.00664967,0.00000022,-0.09645
 305,-0.12682162,-0.00000211,0.13212374,-0.01161133,-0.00142640,-0.0000
 0030,0.00450415,0.00416839,0.00000019,-0.16510582,-0.41688996,-0.00000
 602,0.17221299,0.41414796,-0.00000060,-0.00000060,0.01564491,0.0000001
 9,0.00000020,-0.00863372,-0.00000257,-0.00000573,-0.01556814,0.0000029
 8,0.00000613,0.00855694\\0.00005163,0.00010051,0.00000001,0.00001207,-
 0.00006559,0.,0.00002271,0.00009967,0.,-0.00008641,-0.00013459,0.\\\@


 ... SUBJECTS WHICH DISCLOSE THEIR FULL POWER, MEANING AND BEAUTY AS SOON
 AS THEY ARE PRESENTED TO THE MIND HAVE VERY LITTLE OF THOSE QUALITIES
 TO DISCLOSE.
                           -- CHARLES DUTTON (1882)
 Job cpu time:       0 days  0 hours  7 minutes  6.0 seconds.
 Elapsed time:       0 days  0 hours  0 minutes 18.3 seconds.
 File lengths (MBytes):  RWF=     12 Int=      0 D2E=      0 Chk=      2 Scr=      1
 Normal termination of Gaussian 16 at Mon Oct  7 10:54:29 2024.
