 Entering Gaussian System, Link 0=/applications/g16/g16/g16
 Initial command:
 /applications/g16/g16/l1.exe "/scratch/g98/Gau-30528.inp" -scrdir="/scratch/g98/"
 Entering Link 1 = /applications/g16/g16/l1.exe PID=     30529.
  
 Copyright (c) 1988,1990,1992,1993,1995,1998,2003,2009,2016,
            Gaussian, Inc.  All Rights Reserved.
  
 This is part of the Gaussian(R) 16 program.  It is based on
 the Gaussian(R) 09 system (copyright 2009, Gaussian, Inc.),
 the Gaussian(R) 03 system (copyright 2003, Gaussian, Inc.),
 the Gaussian(R) 98 system (copyright 1998, Gaussian, Inc.),
 the Gaussian(R) 94 system (copyright 1995, Gaussian, Inc.),
 the Gaussian 92(TM) system (copyright 1992, Gaussian, Inc.),
 the Gaussian 90(TM) system (copyright 1990, Gaussian, Inc.),
 the Gaussian 88(TM) system (copyright 1988, Gaussian, Inc.),
 the Gaussian 86(TM) system (copyright 1986, Carnegie Mellon
 University), and the Gaussian 82(TM) system (copyright 1983,
 Carnegie Mellon University). Gaussian is a federally registered
 trademark of Gaussian, Inc.
  
 This software contains proprietary and confidential information,
 including trade secrets, belonging to Gaussian, Inc.
  
 This software is provided under written license and may be
 used, copied, transmitted, or stored only in accord with that
 written license.
  
 The following legend is applicable only to US Government
 contracts under FAR:
  
                    RESTRICTED RIGHTS LEGEND
  
 Use, reproduction and disclosure by the US Government is
 subject to restrictions as set forth in subparagraphs (a)
 and (c) of the Commercial Computer Software - Restricted
 Rights clause in FAR 52.227-19.
  
 Gaussian, Inc.
 340 Quinnipiac St., Bldg. 40, Wallingford CT 06492
  
  
 ---------------------------------------------------------------
 Warning -- This program may not be used in any manner that
 competes with the business of Gaussian, Inc. or will provide
 assistance to any competitor of Gaussian, Inc.  The licensee
 of this program is prohibited from giving any competitor of
 Gaussian, Inc. access to this program.  By using this program,
 the user acknowledges that Gaussian, Inc. is engaged in the
 business of creating and licensing software in the field of
 computational chemistry and represents and warrants to the
 licensee that it is not a competitor of Gaussian, Inc. and that
 it will not use this program in any manner prohibited above.
 ---------------------------------------------------------------
  

 Cite this work as:
 Gaussian 16, Revision A.03,
 M. J. Frisch, G. W. Trucks, H. B. Schlegel, G. E. Scuseria, 
 M. A. Robb, J. R. Cheeseman, G. Scalmani, V. Barone, 
 G. A. Petersson, H. Nakatsuji, X. Li, M. Caricato, A. V. Marenich, 
 J. Bloino, B. G. Janesko, R. Gomperts, B. Mennucci, H. P. Hratchian, 
 J. V. Ortiz, A. F. Izmaylov, J. L. Sonnenberg, D. Williams-Young, 
 F. Ding, F. Lipparini, F. Egidi, J. Goings, B. Peng, A. Petrone, 
 T. Henderson, D. Ranasinghe, V. G. Zakrzewski, J. Gao, N. Rega, 
 G. Zheng, W. Liang, M. Hada, M. Ehara, K. Toyota, R. Fukuda, 
 J. Hasegawa, M. Ishida, T. Nakajima, Y. Honda, O. Kitao, H. Nakai, 
 T. Vreven, K. Throssell, J. A. Montgomery, Jr., J. E. Peralta, 
 F. Ogliaro, M. J. Bearpark, J. J. Heyd, E. N. Brothers, K. N. Kudin, 
 V. N. Staroverov, T. A. Keith, R. Kobayashi, J. Normand, 
 K. Raghavachari, A. P. Rendell, J. C. Burant, S. S. Iyengar, 
 J. Tomasi, M. Cossi, J. M. Millam, M. Klene, C. Adamo, R. Cammi, 
 J. W. Ochterski, R. L. Martin, K. Morokuma, O. Farkas, 
 J. B. Foresman, and D. J. Fox, Gaussian, Inc., Wallingford CT, 2016.
 
 ******************************************
 Gaussian 16:  EM64M-G16RevA.03 25-Dec-2016
                 4-Nov-2025 
 ******************************************
 %mem=48GB
 %nprocshared=24
 Will use up to   24 processors via shared memory.
 %chk=c2f5cof_fragB.chk
 ----------------------------------------------------------------------
 # opt freq uwb97xd/6-311+g(2d) geom=connectivity integral=grid=superfi
 negrid scf=(xqc,tight)
 ----------------------------------------------------------------------
 1/18=20,19=15,26=5,38=1,57=2/1,3;
 2/9=110,12=2,17=6,18=5,40=1/2;
 3/5=4,6=6,7=12,11=2,25=1,30=1,71=1,74=-58,75=-7,116=2/1,2,3;
 4//1;
 5/5=2,8=3,13=1,32=2,38=5/2,8;
 6/7=2,8=2,9=2,10=2,28=1/1;
 7//1,2,3,16;
 1/18=20,19=15,26=5/3(2);
 2/9=110/2;
 99//99;
 2/9=110/2;
 3/5=4,6=6,7=12,11=2,25=1,30=1,71=1,74=-58,75=-7,116=2/1,2,3;
 4/5=5,16=3,69=1/1;
 5/5=2,8=3,13=1,32=2,38=5/2,8;
 7//1,2,3,16;
 1/18=20,19=15,26=5/3(-5);
 2/9=110/2;
 6/7=2,8=2,9=2,10=2,19=2,28=1/1;
 99/9=1/99;
 -------------------
 Title Card Required
 -------------------
 Symbolic Z-matrix:
 Charge =  0 Multiplicity = 2
 F                     2.54103  -1.22883   0.04986 
 C                     2.49447   0.09086   0.00017 
 O                     3.38574   0.83527  -0.04712 
 

 GradGradGradGradGradGradGradGradGradGradGradGradGradGradGradGradGradGrad
 Berny optimization.
 Initialization pass.
                           ----------------------------
                           !    Initial Parameters    !
                           ! (Angstroms and Degrees)  !
 --------------------------                            --------------------------
 ! Name  Definition              Value          Derivative Info.                !
 --------------------------------------------------------------------------------
 ! R1    R(1,2)                  1.3214         estimate D2E/DX2                !
 ! R2    R(2,3)                  1.1622         estimate D2E/DX2                !
 ! A1    A(1,2,3)              127.8911         estimate D2E/DX2                !
 --------------------------------------------------------------------------------
 Trust Radius=3.00D-01 FncErr=1.00D-07 GrdErr=1.00D-07 EigMax=2.50D+02 EigMin=1.00D-04
 Number of steps in this run=     20 maximum allowed number of steps=    100.
 GradGradGradGradGradGradGradGradGradGradGradGradGradGradGradGradGradGrad

                          Input orientation:                          
 ---------------------------------------------------------------------
 Center     Atomic      Atomic             Coordinates (Angstroms)
 Number     Number       Type             X           Y           Z
 ---------------------------------------------------------------------
      1          9           0        2.541034   -1.228828    0.049860
      2          6           0        2.494469    0.090861    0.000170
      3          8           0        3.385743    0.835268   -0.047122
 ---------------------------------------------------------------------
                    Distance matrix (angstroms):
                    1          2          3
     1  F    0.000000
     2  C    1.321445   0.000000
     3  O    2.232360   1.162217   0.000000
 Stoichiometry    CFO(2)
 Framework group  CS[SG(CFO)]
 Deg. of freedom     3
 Full point group                 CS      NOp   2
 Largest Abelian subgroup         CS      NOp   2
 Largest concise Abelian subgroup C1      NOp   1
                         Standard orientation:                         
 ---------------------------------------------------------------------
 Center     Atomic      Atomic             Coordinates (Angstroms)
 Number     Number       Type             X           Y           Z
 ---------------------------------------------------------------------
      1          9           0       -1.010539   -0.434308   -0.000000
      2          6           0       -0.000000    0.417178    0.000000
      3          8           0        1.136856    0.175713    0.000000
 ---------------------------------------------------------------------
 Rotational constants (GHZ):         193.2963451          11.5915717          10.9357764
 Standard basis: 6-311+G(2d) (5D, 7F)
 There are    63 symmetry adapted cartesian basis functions of A'  symmetry.
 There are    24 symmetry adapted cartesian basis functions of A"  symmetry.
 There are    57 symmetry adapted basis functions of A'  symmetry.
 There are    24 symmetry adapted basis functions of A"  symmetry.
    81 basis functions,   126 primitive gaussians,    87 cartesian basis functions
    12 alpha electrons       11 beta electrons
       nuclear repulsion energy        60.5471928121 Hartrees.
 NAtoms=    3 NActive=    3 NUniq=    3 SFac= 1.00D+00 NAtFMM=   60 NAOKFM=F Big=F
 Integral buffers will be    131072 words long.
 Raffenetti 2 integral format.
 Two-electron integral symmetry is turned on.
 Nuclear repulsion after empirical dispersion term =       60.5471388524 Hartrees.
 One-electron integrals computed using PRISM.
 NBasis=    81 RedAO= T EigKep=  1.14D-03  NBF=    57    24
 NBsUse=    81 1.00D-06 EigRej= -1.00D+00 NBFU=    57    24
 ExpMin= 4.38D-02 ExpMax= 1.14D+04 ExpMxC= 1.72D+03 IAcc=3 IRadAn=         7 AccDes= 0.00D+00
 Harris functional with IExCor= 4639 and IRadAn=       7 diagonalized for initial guess.
 HarFok:  IExCor= 4639 AccDes= 0.00D+00 IRadAn=         7 IDoV= 1 UseB2=F ITyADJ=14
 ICtDFT=  3500011 ScaDFX=  1.000000  1.000000  1.000000  1.000000
 FoFCou: FMM=F IPFlag=           0 FMFlag=      100000 FMFlg1=           0
         NFxFlg=           0 DoJE=T BraDBF=F KetDBF=T FulRan=T
         wScrn=  0.000000 ICntrl=       500 IOpCl=  0 I1Cent=   200000004 NGrid=           0
         NMat0=    1 NMatS0=      1 NMatT0=    0 NMatD0=    1 NMtDS0=    0 NMtDT0=    0
 Petite list used in FoFCou.
 Initial guess orbital symmetries:
 Alpha Orbitals:
       Occupied  (A') (A') (A') (A') (A') (A') (A') (A") (A') (A")
                 (A') (A')
       Virtual   (A') (A") (A') (A') (A") (A') (A') (A") (A') (A')
                 (A") (A') (A') (A') (A') (A") (A') (A') (A") (A')
                 (A") (A') (A') (A') (A") (A') (A') (A') (A") (A')
                 (A') (A") (A') (A") (A') (A') (A') (A") (A") (A')
                 (A') (A') (A") (A') (A") (A') (A') (A") (A') (A')
                 (A") (A') (A') (A") (A') (A') (A") (A') (A") (A')
                 (A') (A") (A') (A") (A') (A') (A') (A') (A')
 Beta  Orbitals:
       Occupied  (A') (A') (A') (A') (A') (A') (A') (A") (A') (A")
                 (A')
       Virtual   (A') (A') (A") (A') (A') (A") (A') (A') (A") (A')
                 (A') (A") (A') (A') (A') (A') (A") (A') (A') (A")
                 (A') (A") (A') (A') (A') (A") (A') (A') (A') (A")
                 (A') (A') (A") (A') (A") (A') (A') (A') (A") (A")
                 (A') (A') (A') (A") (A') (A") (A') (A') (A") (A')
                 (A') (A") (A') (A') (A") (A') (A') (A") (A') (A")
                 (A') (A') (A") (A') (A") (A') (A') (A') (A') (A')
 The electronic state of the initial guess is 2-A'.
 Initial guess <Sx>= 0.0000 <Sy>= 0.0000 <Sz>= 0.5000 <S**2>= 0.7500 S= 0.5000
 Keep R1 and R2 ints in memory in symmetry-blocked form, NReq=32943235.
 Requested convergence on RMS density matrix=1.00D-08 within  32 cycles.
 Requested convergence on MAX density matrix=1.00D-06.
 Requested convergence on             energy=1.00D-06.
 No special actions if energy rises.
 SCF Done:  E(UwB97XD) =  -213.103509874     A.U. after   15 cycles
            NFock= 15  Conv=0.57D-08     -V/T= 2.0024
 <Sx>= 0.0000 <Sy>= 0.0000 <Sz>= 0.5000 <S**2>= 0.7543 S= 0.5021
 <L.S>= 0.000000000000E+00
 Annihilation of the first spin contaminant:
 S**2 before annihilation     0.7543,   after     0.7500
 QCSCF skips out because SCF is already converged.

 **********************************************************************

            Population analysis using the SCF density.

 **********************************************************************

 Orbital symmetries:
 Alpha Orbitals:
       Occupied  (A') (A') (A') (A') (A') (A') (A') (A') (A") (A")
                 (A') (A')
       Virtual   (A") (A') (A') (A') (A") (A') (A') (A") (A') (A')
                 (A") (A') (A') (A') (A') (A") (A') (A') (A") (A')
                 (A") (A') (A') (A') (A") (A') (A') (A') (A") (A')
                 (A') (A") (A') (A") (A') (A') (A') (A") (A") (A')
                 (A') (A') (A") (A') (A") (A') (A') (A") (A') (A')
                 (A") (A') (A') (A") (A') (A') (A") (A') (A") (A')
                 (A') (A") (A') (A") (A') (A') (A') (A') (A')
 Beta  Orbitals:
       Occupied  (A') (A') (A') (A') (A') (A') (A") (A') (A') (A")
                 (A')
       Virtual   (A') (A") (A') (A') (A") (A') (A') (A') (A") (A')
                 (A') (A") (A') (A') (A') (A') (A") (A') (A') (A")
                 (A') (A") (A') (A') (A') (A") (A') (A') (A") (A')
                 (A') (A') (A") (A') (A") (A') (A') (A') (A") (A")
                 (A') (A') (A') (A") (A') (A") (A') (A") (A') (A')
                 (A') (A") (A') (A') (A") (A') (A') (A") (A') (A")
                 (A') (A') (A") (A') (A") (A') (A') (A') (A') (A')
 The electronic state is 2-A'.
 Alpha  occ. eigenvalues --  -24.89392 -19.33198 -10.48571  -1.41588  -1.24635
 Alpha  occ. eigenvalues --   -0.77430  -0.64590  -0.64163  -0.64019  -0.52072
 Alpha  occ. eigenvalues --   -0.52051  -0.37162
 Alpha virt. eigenvalues --    0.02828   0.07904   0.10005   0.10258   0.10515
 Alpha virt. eigenvalues --    0.24195   0.25521   0.28097   0.28973   0.32584
 Alpha virt. eigenvalues --    0.33450   0.33468   0.37721   0.41142   0.49982
 Alpha virt. eigenvalues --    0.58254   0.58854   0.70586   0.74928   0.79771
 Alpha virt. eigenvalues --    0.89239   0.89748   1.05810   1.08851   1.11354
 Alpha virt. eigenvalues --    1.25260   1.33609   1.35638   1.36349   1.43124
 Alpha virt. eigenvalues --    1.55096   1.62134   1.70546   1.89502   1.90611
 Alpha virt. eigenvalues --    2.02084   2.15151   2.19097   2.34688   2.51830
 Alpha virt. eigenvalues --    2.58720   2.74349   2.83602   3.06532   3.26809
 Alpha virt. eigenvalues --    3.29781   3.36949   3.37253   3.67983   4.04926
 Alpha virt. eigenvalues --    5.06353   5.10447   5.97093   6.33412   6.35686
 Alpha virt. eigenvalues --    6.66500   6.78808   6.85895   7.02507   7.11372
 Alpha virt. eigenvalues --    7.21979   9.09618   9.10262   9.27669   9.39137
 Alpha virt. eigenvalues --    9.71400  24.09543  49.98019  66.86196
  Beta  occ. eigenvalues --  -24.88834 -19.32642 -10.47457  -1.40030  -1.23086
  Beta  occ. eigenvalues --   -0.74913  -0.63051  -0.62575  -0.61112  -0.51534
  Beta  occ. eigenvalues --   -0.48915
  Beta virt. eigenvalues --   -0.06487   0.05459   0.09699   0.11061   0.11968
  Beta virt. eigenvalues --    0.12155   0.25327   0.26041   0.28434   0.30376
  Beta virt. eigenvalues --    0.33309   0.33847   0.34631   0.38270   0.41578
  Beta virt. eigenvalues --    0.51743   0.59071   0.61144   0.72351   0.76700
  Beta virt. eigenvalues --    0.81400   0.90132   0.91074   1.06495   1.10119
  Beta virt. eigenvalues --    1.11587   1.26240   1.35283   1.36724   1.36766
  Beta virt. eigenvalues --    1.43710   1.55529   1.62896   1.71470   1.90060
  Beta virt. eigenvalues --    1.91139   2.02979   2.16201   2.19462   2.35283
  Beta virt. eigenvalues --    2.53198   2.60470   2.75858   2.85384   3.09965
  Beta virt. eigenvalues --    3.31417   3.33750   3.40035   3.40177   3.70993
  Beta virt. eigenvalues --    4.06896   5.06683   5.12694   5.98448   6.33893
  Beta virt. eigenvalues --    6.36737   6.67962   6.80539   6.87723   7.03284
  Beta virt. eigenvalues --    7.13598   7.23301   9.10502   9.11175   9.29240
  Beta virt. eigenvalues --    9.41042   9.73357  24.11369  49.98520  66.86632
          Condensed to atoms (all electrons):
               1          2          3
     1  F    9.126598   0.032341   0.015886
     2  C    0.032341   5.181865   0.383002
     3  O    0.015886   0.383002   7.829081
          Atomic-Atomic Spin Densities.
               1          2          3
     1  F    0.264279  -0.212382   0.014505
     2  C   -0.212382   1.103017  -0.121420
     3  O    0.014505  -0.121420   0.271299
 Mulliken charges and spin densities:
               1          2
     1  F   -0.174825   0.066401
     2  C    0.402793   0.769215
     3  O   -0.227968   0.164384
 Sum of Mulliken charges =  -0.00000   1.00000
 Mulliken charges and spin densities with hydrogens summed into heavy atoms:
               1          2
     1  F   -0.174825   0.066401
     2  C    0.402793   0.769215
     3  O   -0.227968   0.164384
 Electronic spatial extent (au):  <R**2>=            116.0027
 Charge=              0.0000 electrons
 Dipole moment (field-independent basis, Debye):
    X=             -0.7558    Y=              0.2156    Z=             -0.0000  Tot=              0.7859
 Quadrupole moment (field-independent basis, Debye-Ang):
   XX=            -17.5207   YY=            -15.7028   ZZ=            -14.6405
   XY=             -0.4009   XZ=             -0.0000   YZ=              0.0000
 Traceless Quadrupole moment (field-independent basis, Debye-Ang):
   XX=             -1.5660   YY=              0.2518   ZZ=              1.3142
   XY=             -0.4009   XZ=             -0.0000   YZ=              0.0000
 Octapole moment (field-independent basis, Debye-Ang**2):
  XXX=             -4.6902  YYY=             -4.1376  ZZZ=              0.0000  XYY=             -1.1129
  XXY=             -1.4883  XXZ=             -0.0000  XZZ=             -1.0871  YZZ=             -1.0514
  YYZ=              0.0000  XYZ=             -0.0000
 Hexadecapole moment (field-independent basis, Debye-Ang**3):
 XXXX=            -85.1373 YYYY=            -26.4719 ZZZZ=            -11.7152 XXXY=             -9.5892
 XXXZ=             -0.0000 YYYX=             -8.8852 YYYZ=             -0.0000 ZZZX=             -0.0000
 ZZZY=             -0.0000 XXYY=            -18.2021 XXZZ=            -15.7755 YYZZ=             -6.2664
 XXYZ=             -0.0000 YYXZ=             -0.0000 ZZXY=             -3.1160
 N-N= 6.054713885240D+01 E-N=-6.257062375886D+02  KE= 2.125840113538D+02
 Symmetry A'   KE= 2.023105080398D+02
 Symmetry A"   KE= 1.027350331400D+01
 Symmetry A'   SP= 1.000000000000D+00
 Symmetry A"   SP= 1.486587545771D-14
                          Isotropic Fermi Contact Couplings
        Atom                 a.u.       MegaHertz       Gauss      10(-4) cm-1
     1  F(19)              0.21461     902.96410     322.20004     301.19640
     2  C(13)              0.68132     765.92901     273.30252     255.48642
     3  O(17)              0.08930     -54.13621     -19.31714     -18.05789
 --------------------------------------------------------
       Center         ----  Spin Dipole Couplings  ----
                      3XX-RR        3YY-RR        3ZZ-RR
 --------------------------------------------------------
     1   Atom       -0.409725      0.978476     -0.568751
     2   Atom       -0.096058      0.351473     -0.255415
     3   Atom       -0.351544      1.050727     -0.699183
 --------------------------------------------------------
                        XY            XZ            YZ
 --------------------------------------------------------
     1   Atom        0.503567      0.000000     -0.000000
     2   Atom       -0.456774      0.000000     -0.000000
     3   Atom       -0.434741      0.000000     -0.000000
 --------------------------------------------------------


 ---------------------------------------------------------------------------------
              Anisotropic Spin Dipole Couplings in Principal Axis System
 ---------------------------------------------------------------------------------

       Atom             a.u.   MegaHertz   Gauss  10(-4) cm-1        Axes

              Baa    -0.5732  -287.852  -102.713   -96.017  0.9512 -0.3087  0.0000
     1 F(19)  Bbb    -0.5688  -285.641  -101.924   -95.280  0.0000  0.0000  1.0000
              Bcc     1.1419   573.493   204.637   191.297  0.3087  0.9512  0.0000
 
              Baa    -0.3809   -51.117   -18.240   -17.051  0.8485  0.5292  0.0000
     2 C(13)  Bbb    -0.2554   -34.274   -12.230   -11.433  0.0000  0.0000  1.0000
              Bcc     0.6363    85.392    30.470    28.484 -0.5292  0.8485  0.0000
 
              Baa    -0.6992    50.592    18.053    16.876  0.0000  0.0000  1.0000
     3 O(17)  Bbb    -0.4754    34.399    12.274    11.474  0.9617  0.2740  0.0000
              Bcc     1.1746   -84.991   -30.327   -28.350 -0.2740  0.9617  0.0000
 

 ---------------------------------------------------------------------------------

 Calling FoFJK, ICntrl=      2127 FMM=F ISym2X=1 I1Cent= 0 IOpClX= 1 NMat=1 NMatS=1 NMatT=0.
 ***** Axes restored to original set *****
 -------------------------------------------------------------------
 Center     Atomic                   Forces (Hartrees/Bohr)
 Number     Number              X              Y              Z
 -------------------------------------------------------------------
      1        9           0.000670767   -0.002265959    0.000072916
      2        6          -0.002354296    0.001735817   -0.000017218
      3        8           0.001683529    0.000530142   -0.000055698
 -------------------------------------------------------------------
 Cartesian Forces:  Max     0.002354296 RMS     0.001385011

 GradGradGradGradGradGradGradGradGradGradGradGradGradGradGradGradGradGrad
 Berny optimization.
 FormGI is forming the generalized inverse of G from B-inverse, IUseBI=4.
 Internal  Forces:  Max     0.002289445 RMS     0.001833546
 Search for a local minimum.
 Step number   1 out of a maximum of   20
 All quantities printed in internal units (Hartrees-Bohrs-Radians)
 Mixed Optimization -- RFO/linear search
 Second derivative matrix not updated -- first step.
 The second derivative matrix:
                          R1        R2        A1
           R1           0.61573
           R2           0.00000   1.26354
           A1           0.00000   0.00000   0.25000
 ITU=  0
     Eigenvalues ---    0.25000   0.61573   1.26354
 RFO step:  Lambda=-1.93356013D-05 EMin= 2.50000000D-01
 Linear search not attempted -- first point.
 Iteration  1 RMS(Cart)=  0.00353677 RMS(Int)=  0.00000913
 Iteration  2 RMS(Cart)=  0.00001025 RMS(Int)=  0.00000000
 Iteration  3 RMS(Cart)=  0.00000000 RMS(Int)=  0.00000000
 ClnCor:  largest displacement from symmetrization is 1.90D-15 for atom     3.
 Variable       Old X    -DE/DX   Delta X   Delta X   Delta X     New X
                                 (Linear)    (Quad)   (Total)
    R1        2.49717   0.00229   0.00000   0.00372   0.00372   2.50089
    R2        2.19627   0.00163   0.00000   0.00129   0.00129   2.19756
    A1        2.23212  -0.00148   0.00000  -0.00590  -0.00590   2.22622
         Item               Value     Threshold  Converged?
 Maximum Force            0.002289     0.000450     NO 
 RMS     Force            0.001834     0.000300     NO 
 Maximum Displacement     0.004061     0.001800     NO 
 RMS     Displacement     0.003540     0.001200     NO 
 Predicted change in Energy=-9.667801D-06
 GradGradGradGradGradGradGradGradGradGradGradGradGradGradGradGradGradGrad

                          Input orientation:                          
 ---------------------------------------------------------------------
 Center     Atomic      Atomic             Coordinates (Angstroms)
 Number     Number       Type             X           Y           Z
 ---------------------------------------------------------------------
      1          9           0        2.542294   -1.229199    0.049848
      2          6           0        2.492320    0.092336    0.000159
      3          8           0        3.386632    0.834164   -0.047098
 ---------------------------------------------------------------------
                    Distance matrix (angstroms):
                    1          2          3
     1  F    0.000000
     2  C    1.323412   0.000000
     3  O    2.231541   1.162900   0.000000
 Stoichiometry    CFO(2)
 Framework group  CS[SG(CFO)]
 Deg. of freedom     3
 Full point group                 CS      NOp   2
 Largest Abelian subgroup         CS      NOp   2
 Largest concise Abelian subgroup C1      NOp   1
                         Standard orientation:                         
 ---------------------------------------------------------------------
 Center     Atomic      Atomic             Coordinates (Angstroms)
 Number     Number       Type             X           Y           Z
 ---------------------------------------------------------------------
      1          9           0       -1.010297   -0.434763   -0.000000
      2          6           0        0.000000    0.420058    0.000000
      3          8           0        1.136585    0.174065    0.000000
 ---------------------------------------------------------------------
 Rotational constants (GHZ):         190.6203442          11.5991850          10.9338630
 Standard basis: 6-311+G(2d) (5D, 7F)
 There are    63 symmetry adapted cartesian basis functions of A'  symmetry.
 There are    24 symmetry adapted cartesian basis functions of A"  symmetry.
 There are    57 symmetry adapted basis functions of A'  symmetry.
 There are    24 symmetry adapted basis functions of A"  symmetry.
    81 basis functions,   126 primitive gaussians,    87 cartesian basis functions
    12 alpha electrons       11 beta electrons
       nuclear repulsion energy        60.5084590649 Hartrees.
 NAtoms=    3 NActive=    3 NUniq=    3 SFac= 1.00D+00 NAtFMM=   60 NAOKFM=F Big=F
 Integral buffers will be    131072 words long.
 Raffenetti 2 integral format.
 Two-electron integral symmetry is turned on.
 Nuclear repulsion after empirical dispersion term =       60.5084051902 Hartrees.
 One-electron integrals computed using PRISM.
 NBasis=    81 RedAO= T EigKep=  1.14D-03  NBF=    57    24
 NBsUse=    81 1.00D-06 EigRej= -1.00D+00 NBFU=    57    24
 Initial guess from the checkpoint file:  "c2f5cof_fragB.chk"
 B after Tr=    -0.000000   -0.000000   -0.000000
         Rot=    1.000000    0.000000    0.000000    0.000211 Ang=   0.02 deg.
 Initial guess orbital symmetries:
 Alpha Orbitals:
       Occupied  (A') (A') (A') (A') (A') (A') (A') (A') (A") (A")
                 (A') (A')
       Virtual   (A") (A') (A') (A') (A") (A') (A') (A") (A') (A')
                 (A") (A') (A') (A') (A') (A") (A') (A') (A") (A')
                 (A") (A') (A') (A') (A") (A') (A') (A') (A") (A')
                 (A') (A") (A') (A") (A') (A') (A') (A") (A") (A')
                 (A') (A') (A") (A') (A") (A') (A') (A") (A') (A')
                 (A") (A') (A') (A") (A') (A') (A") (A') (A") (A')
                 (A') (A") (A') (A") (A') (A') (A') (A') (A')
 Beta  Orbitals:
       Occupied  (A') (A') (A') (A') (A') (A') (A") (A') (A') (A")
                 (A')
       Virtual   (A') (A") (A') (A') (A") (A') (A') (A') (A") (A')
                 (A') (A") (A') (A') (A') (A') (A") (A') (A') (A")
                 (A') (A") (A') (A') (A') (A") (A') (A') (A") (A')
                 (A') (A') (A") (A') (A") (A') (A') (A') (A") (A")
                 (A') (A') (A') (A") (A') (A") (A') (A") (A') (A')
                 (A') (A") (A') (A') (A") (A') (A') (A") (A') (A")
                 (A') (A') (A") (A') (A") (A') (A') (A') (A') (A')
 Initial guess <Sx>= 0.0000 <Sy>= 0.0000 <Sz>= 0.5000 <S**2>= 0.7543 S= 0.5021
 Keep R1 and R2 ints in memory in symmetry-blocked form, NReq=32943235.
 Requested convergence on RMS density matrix=1.00D-08 within  32 cycles.
 Requested convergence on MAX density matrix=1.00D-06.
 Requested convergence on             energy=1.00D-06.
 No special actions if energy rises.
 SCF Done:  E(UwB97XD) =  -213.103521048     A.U. after   11 cycles
            NFock= 11  Conv=0.78D-08     -V/T= 2.0025
 <Sx>= 0.0000 <Sy>= 0.0000 <Sz>= 0.5000 <S**2>= 0.7543 S= 0.5021
 <L.S>= 0.000000000000E+00
 Annihilation of the first spin contaminant:
 S**2 before annihilation     0.7543,   after     0.7500
 QCSCF skips out because SCF is already converged.
 Calling FoFJK, ICntrl=      2127 FMM=F ISym2X=1 I1Cent= 0 IOpClX= 1 NMat=1 NMatS=1 NMatT=0.
 ***** Axes restored to original set *****
 -------------------------------------------------------------------
 Center     Atomic                   Forces (Hartrees/Bohr)
 Number     Number              X              Y              Z
 -------------------------------------------------------------------
      1        9          -0.000045064   -0.001103114    0.000043299
      2        6          -0.000014856    0.000926374   -0.000035255
      3        8           0.000059920    0.000176740   -0.000008044
 -------------------------------------------------------------------
 Cartesian Forces:  Max     0.001103114 RMS     0.000484801

 GradGradGradGradGradGradGradGradGradGradGradGradGradGradGradGradGradGrad
 Berny optimization.
 Using GEDIIS/GDIIS optimizer.
 FormGI is forming the generalized inverse of G from B-inverse, IUseBI=4.
 Internal  Forces:  Max     0.001101595 RMS     0.000654566
 Search for a local minimum.
 Step number   2 out of a maximum of   20
 All quantities printed in internal units (Hartrees-Bohrs-Radians)
 Mixed Optimization -- En-DIIS/RFO-DIIS
 Update second derivatives using D2CorX and points    1    2
 DE= -1.12D-05 DEPred=-9.67D-06 R= 1.16D+00
 TightC=F SS=  1.41D+00  RLast= 7.10D-03 DXNew= 5.0454D-01 2.1285D-02
 Trust test= 1.16D+00 RLast= 7.10D-03 DXMaxT set to 3.00D-01
 The second derivative matrix:
                          R1        R2        A1
           R1           0.43116
           R2          -0.08599   1.25884
           A1           0.05153  -0.02826   0.31285
 ITU=  1  0
 Use linear search instead of GDIIS.
     Eigenvalues ---    0.29354   0.44046   1.26885
 RFO step:  Lambda=-2.39382272D-06 EMin= 2.93539085D-01
 Quartic linear search produced a step of  0.18622.
 Iteration  1 RMS(Cart)=  0.00132907 RMS(Int)=  0.00000016
 Iteration  2 RMS(Cart)=  0.00000018 RMS(Int)=  0.00000000
 ClnCor:  largest displacement from symmetrization is 3.21D-15 for atom     1.
 Variable       Old X    -DE/DX   Delta X   Delta X   Delta X     New X
                                 (Linear)    (Quad)   (Total)
    R1        2.50089   0.00110   0.00069   0.00189   0.00258   2.50347
    R2        2.19756   0.00016   0.00024   0.00007   0.00031   2.19787
    A1        2.22622   0.00022  -0.00110   0.00139   0.00029   2.22651
         Item               Value     Threshold  Converged?
 Maximum Force            0.001102     0.000450     NO 
 RMS     Force            0.000655     0.000300     NO 
 Maximum Displacement     0.001816     0.001800     NO 
 RMS     Displacement     0.001329     0.001200     NO 
 Predicted change in Energy=-1.478126D-06
 GradGradGradGradGradGradGradGradGradGradGradGradGradGradGradGradGradGrad

                          Input orientation:                          
 ---------------------------------------------------------------------
 Center     Atomic      Atomic             Coordinates (Angstroms)
 Number     Number       Type             X           Y           Z
 ---------------------------------------------------------------------
      1          9           0        2.542059   -1.230160    0.049890
      2          6           0        2.492383    0.092753    0.000141
      3          8           0        3.386804    0.834708   -0.047123
 ---------------------------------------------------------------------
                    Distance matrix (angstroms):
                    1          2          3
     1  F    0.000000
     2  C    1.324780   0.000000
     3  O    2.233088   1.163064   0.000000
 Stoichiometry    CFO(2)
 Framework group  CS[SG(CFO)]
 Deg. of freedom     3
 Full point group                 CS      NOp   2
 Largest Abelian subgroup         CS      NOp   2
 Largest concise Abelian subgroup C1      NOp   1
                         Standard orientation:                         
 ---------------------------------------------------------------------
 Center     Atomic      Atomic             Coordinates (Angstroms)
 Number     Number       Type             X           Y           Z
 ---------------------------------------------------------------------
      1          9           0       -1.010673   -0.436192   -0.000000
      2          6           0        0.000000    0.420302    0.000000
      3          8           0        1.137007    0.175489    0.000000
 ---------------------------------------------------------------------
 Rotational constants (GHZ):         190.5311792          11.5825538          10.9187912
 Standard basis: 6-311+G(2d) (5D, 7F)
 There are    63 symmetry adapted cartesian basis functions of A'  symmetry.
 There are    24 symmetry adapted cartesian basis functions of A"  symmetry.
 There are    57 symmetry adapted basis functions of A'  symmetry.
 There are    24 symmetry adapted basis functions of A"  symmetry.
    81 basis functions,   126 primitive gaussians,    87 cartesian basis functions
    12 alpha electrons       11 beta electrons
       nuclear repulsion energy        60.4712657806 Hartrees.
 NAtoms=    3 NActive=    3 NUniq=    3 SFac= 1.00D+00 NAtFMM=   60 NAOKFM=F Big=F
 Integral buffers will be    131072 words long.
 Raffenetti 2 integral format.
 Two-electron integral symmetry is turned on.
 Nuclear repulsion after empirical dispersion term =       60.4712116891 Hartrees.
 One-electron integrals computed using PRISM.
 NBasis=    81 RedAO= T EigKep=  1.14D-03  NBF=    57    24
 NBsUse=    81 1.00D-06 EigRej= -1.00D+00 NBFU=    57    24
 Initial guess from the checkpoint file:  "c2f5cof_fragB.chk"
 B after Tr=     0.000000    0.000000    0.000000
         Rot=    1.000000    0.000000   -0.000000   -0.000530 Ang=  -0.06 deg.
 Initial guess orbital symmetries:
 Alpha Orbitals:
       Occupied  (A') (A') (A') (A') (A') (A') (A') (A') (A") (A")
                 (A') (A')
       Virtual   (A") (A') (A') (A') (A") (A') (A') (A") (A') (A')
                 (A') (A") (A') (A') (A') (A") (A') (A') (A") (A')
                 (A") (A') (A') (A') (A") (A') (A') (A') (A") (A')
                 (A') (A") (A') (A") (A') (A') (A') (A") (A") (A')
                 (A') (A') (A") (A') (A") (A') (A') (A") (A') (A')
                 (A") (A') (A') (A") (A') (A') (A") (A') (A") (A')
                 (A') (A") (A') (A") (A') (A') (A') (A') (A')
 Beta  Orbitals:
       Occupied  (A') (A') (A') (A') (A') (A') (A") (A') (A') (A")
                 (A')
       Virtual   (A') (A") (A') (A') (A") (A') (A') (A') (A") (A')
                 (A') (A") (A') (A') (A') (A') (A") (A') (A') (A")
                 (A') (A") (A') (A') (A') (A") (A') (A') (A") (A')
                 (A') (A') (A") (A') (A") (A') (A') (A') (A") (A")
                 (A') (A') (A') (A") (A') (A") (A') (A") (A') (A')
                 (A') (A") (A') (A') (A") (A') (A') (A") (A') (A")
                 (A') (A') (A") (A') (A") (A') (A') (A') (A') (A')
 Initial guess <Sx>= 0.0000 <Sy>= 0.0000 <Sz>= 0.5000 <S**2>= 0.7543 S= 0.5021
 Keep R1 and R2 ints in memory in symmetry-blocked form, NReq=32943235.
 Requested convergence on RMS density matrix=1.00D-08 within  32 cycles.
 Requested convergence on MAX density matrix=1.00D-06.
 Requested convergence on             energy=1.00D-06.
 No special actions if energy rises.
 SCF Done:  E(UwB97XD) =  -213.103522704     A.U. after   10 cycles
            NFock= 10  Conv=0.95D-08     -V/T= 2.0025
 <Sx>= 0.0000 <Sy>= 0.0000 <Sz>= 0.5000 <S**2>= 0.7543 S= 0.5021
 <L.S>= 0.000000000000E+00
 Annihilation of the first spin contaminant:
 S**2 before annihilation     0.7543,   after     0.7500
 QCSCF skips out because SCF is already converged.
 Calling FoFJK, ICntrl=      2127 FMM=F ISym2X=1 I1Cent= 0 IOpClX= 1 NMat=1 NMatS=1 NMatT=0.
 ***** Axes restored to original set *****
 -------------------------------------------------------------------
 Center     Atomic                   Forces (Hartrees/Bohr)
 Number     Number              X              Y              Z
 -------------------------------------------------------------------
      1        9           0.000000743   -0.000193368    0.000007409
      2        6           0.000356764    0.000481541   -0.000025978
      3        8          -0.000357506   -0.000288173    0.000018570
 -------------------------------------------------------------------
 Cartesian Forces:  Max     0.000481541 RMS     0.000260018

 GradGradGradGradGradGradGradGradGradGradGradGradGradGradGradGradGradGrad
 Berny optimization.
 Using GEDIIS/GDIIS optimizer.
 FormGI is forming the generalized inverse of G from B-inverse, IUseBI=4.
 Internal  Forces:  Max     0.000459664 RMS     0.000288082
 Search for a local minimum.
 Step number   3 out of a maximum of   20
 All quantities printed in internal units (Hartrees-Bohrs-Radians)
 Mixed Optimization -- En-DIIS/RFO-DIIS
 Swapping is turned off.
 Update second derivatives using D2CorX and points    1    2    3
 DE= -1.66D-06 DEPred=-1.48D-06 R= 1.12D+00
 TightC=F SS=  1.41D+00  RLast= 2.62D-03 DXNew= 5.0454D-01 7.8546D-03
 Trust test= 1.12D+00 RLast= 2.62D-03 DXMaxT set to 3.00D-01
 The second derivative matrix:
                          R1        R2        A1
           R1           0.33807
           R2           0.06852   1.45525
           A1           0.04630  -0.03023   0.31307
 ITU=  1  1  0
     Eigenvalues ---    0.27393   0.37238   1.46009
 En-DIIS/RFO-DIIS/Sim-DIIS IScMMF=       -3 using points:     3    2
 RFO step:  Lambda=-2.85519370D-07.
 DidBck=F Rises=F RFO-DIIS coefs:    1.22743   -0.22743
 Iteration  1 RMS(Cart)=  0.00027464 RMS(Int)=  0.00000002
 Iteration  2 RMS(Cart)=  0.00000001 RMS(Int)=  0.00000000
 ClnCor:  largest displacement from symmetrization is 2.22D-15 for atom     1.
 Variable       Old X    -DE/DX   Delta X   Delta X   Delta X     New X
                                 (Linear)    (Quad)   (Total)
    R1        2.50347   0.00019   0.00059   0.00007   0.00065   2.50413
    R2        2.19787  -0.00046   0.00007  -0.00042  -0.00035   2.19752
    A1        2.22651   0.00002   0.00007  -0.00015  -0.00008   2.22642
         Item               Value     Threshold  Converged?
 Maximum Force            0.000460     0.000450     NO 
 RMS     Force            0.000288     0.000300     YES
 Maximum Displacement     0.000354     0.001800     YES
 RMS     Displacement     0.000275     0.001200     YES
 Predicted change in Energy=-1.427597D-07
 GradGradGradGradGradGradGradGradGradGradGradGradGradGradGradGradGradGrad

                          Input orientation:                          
 ---------------------------------------------------------------------
 Center     Atomic      Atomic             Coordinates (Angstroms)
 Number     Number       Type             X           Y           Z
 ---------------------------------------------------------------------
      1          9           0        2.542065   -1.230320    0.049896
      2          6           0        2.492411    0.092940    0.000133
      3          8           0        3.386770    0.834680   -0.047121
 ---------------------------------------------------------------------
                    Distance matrix (angstroms):
                    1          2          3
     1  F    0.000000
     2  C    1.325126   0.000000
     3  O    2.233196   1.162880   0.000000
 Stoichiometry    CFO(2)
 Framework group  CS[SG(CFO)]
 Deg. of freedom     3
 Full point group                 CS      NOp   2
 Largest Abelian subgroup         CS      NOp   2
 Largest concise Abelian subgroup C1      NOp   1
                         Standard orientation:                         
 ---------------------------------------------------------------------
 Center     Atomic      Atomic             Coordinates (Angstroms)
 Number     Number       Type             X           Y           Z
 ---------------------------------------------------------------------
      1          9           0       -1.010584   -0.436725   -0.000000
      2          6           0        0.000000    0.420409    0.000000
      3          8           0        1.136907    0.176009    0.000000
 ---------------------------------------------------------------------
 Rotational constants (GHZ):         190.4909074          11.5811597          10.9174199
 Standard basis: 6-311+G(2d) (5D, 7F)
 There are    63 symmetry adapted cartesian basis functions of A'  symmetry.
 There are    24 symmetry adapted cartesian basis functions of A"  symmetry.
 There are    57 symmetry adapted basis functions of A'  symmetry.
 There are    24 symmetry adapted basis functions of A"  symmetry.
    81 basis functions,   126 primitive gaussians,    87 cartesian basis functions
    12 alpha electrons       11 beta electrons
       nuclear repulsion energy        60.4682683545 Hartrees.
 NAtoms=    3 NActive=    3 NUniq=    3 SFac= 1.00D+00 NAtFMM=   60 NAOKFM=F Big=F
 Integral buffers will be    131072 words long.
 Raffenetti 2 integral format.
 Two-electron integral symmetry is turned on.
 Nuclear repulsion after empirical dispersion term =       60.4682142462 Hartrees.
 One-electron integrals computed using PRISM.
 NBasis=    81 RedAO= T EigKep=  1.14D-03  NBF=    57    24
 NBsUse=    81 1.00D-06 EigRej= -1.00D+00 NBFU=    57    24
 Initial guess from the checkpoint file:  "c2f5cof_fragB.chk"
 B after Tr=     0.000000   -0.000000    0.000000
         Rot=    1.000000    0.000000    0.000000   -0.000223 Ang=  -0.03 deg.
 Initial guess orbital symmetries:
 Alpha Orbitals:
       Occupied  (A') (A') (A') (A') (A') (A') (A') (A') (A") (A")
                 (A') (A')
       Virtual   (A") (A') (A') (A') (A") (A') (A') (A") (A') (A')
                 (A') (A") (A') (A') (A') (A") (A') (A') (A") (A')
                 (A") (A') (A') (A') (A") (A') (A') (A') (A") (A')
                 (A') (A") (A') (A") (A') (A') (A') (A") (A") (A')
                 (A') (A') (A") (A') (A") (A') (A') (A") (A') (A')
                 (A") (A') (A') (A") (A') (A') (A") (A') (A") (A')
                 (A') (A") (A') (A") (A') (A') (A') (A') (A')
 Beta  Orbitals:
       Occupied  (A') (A') (A') (A') (A') (A') (A") (A') (A') (A")
                 (A')
       Virtual   (A') (A") (A') (A') (A") (A') (A') (A') (A") (A')
                 (A') (A") (A') (A') (A') (A') (A") (A') (A') (A")
                 (A') (A") (A') (A') (A') (A") (A') (A') (A") (A')
                 (A') (A') (A") (A') (A") (A') (A') (A') (A") (A")
                 (A') (A') (A') (A") (A') (A") (A') (A") (A') (A')
                 (A') (A") (A') (A') (A") (A') (A') (A") (A') (A")
                 (A') (A') (A") (A') (A") (A') (A') (A') (A') (A')
 Initial guess <Sx>= 0.0000 <Sy>= 0.0000 <Sz>= 0.5000 <S**2>= 0.7543 S= 0.5021
 Keep R1 and R2 ints in memory in symmetry-blocked form, NReq=32943235.
 Requested convergence on RMS density matrix=1.00D-08 within  32 cycles.
 Requested convergence on MAX density matrix=1.00D-06.
 Requested convergence on             energy=1.00D-06.
 No special actions if energy rises.
 SCF Done:  E(UwB97XD) =  -213.103522879     A.U. after    8 cycles
            NFock=  8  Conv=0.65D-08     -V/T= 2.0025
 <Sx>= 0.0000 <Sy>= 0.0000 <Sz>= 0.5000 <S**2>= 0.7543 S= 0.5021
 <L.S>= 0.000000000000E+00
 Annihilation of the first spin contaminant:
 S**2 before annihilation     0.7543,   after     0.7500
 QCSCF skips out because SCF is already converged.
 Calling FoFJK, ICntrl=      2127 FMM=F ISym2X=1 I1Cent= 0 IOpClX= 1 NMat=1 NMatS=1 NMatT=0.
 ***** Axes restored to original set *****
 -------------------------------------------------------------------
 Center     Atomic                   Forces (Hartrees/Bohr)
 Number     Number              X              Y              Z
 -------------------------------------------------------------------
      1        9          -0.000013344   -0.000018269    0.000000982
      2        6           0.000152825    0.000114436   -0.000007602
      3        8          -0.000139481   -0.000096167    0.000006621
 -------------------------------------------------------------------
 Cartesian Forces:  Max     0.000152825 RMS     0.000085485

 GradGradGradGradGradGradGradGradGradGradGradGradGradGradGradGradGradGrad
 Berny optimization.
 Using GEDIIS/GDIIS optimizer.
 FormGI is forming the generalized inverse of G from B-inverse, IUseBI=4.
 Internal  Forces:  Max     0.000169027 RMS     0.000100073
 Search for a local minimum.
 Step number   4 out of a maximum of   20
 All quantities printed in internal units (Hartrees-Bohrs-Radians)
 Mixed Optimization -- En-DIIS/RFO-DIIS
 Swapping is turned off.
 Update second derivatives using D2CorX and points    1    2    4
 DE= -1.76D-07 DEPred=-1.43D-07 R= 1.23D+00
 Trust test= 1.23D+00 RLast= 7.46D-04 DXMaxT set to 3.00D-01
 The second derivative matrix:
                          R1        R2        A1
           R1           0.33375
           R2           0.11645   1.37891
           A1           0.03637   0.02225   0.31416
 ITU=  0  1  1  0
     Eigenvalues ---    0.28332   0.35114   1.39236
 En-DIIS/RFO-DIIS/Sim-DIIS IScMMF=       -3 using points:     4    3    2
 RFO step:  Lambda=-2.74832027D-08.
 DIIS inversion failure, remove point   3.
 RFO-DIIS uses    2 points instead of    3
 DidBck=F Rises=F RFO-DIIS coefs:    1.16225   -0.16225    0.00000
 Iteration  1 RMS(Cart)=  0.00009105 RMS(Int)=  0.00000000
 Iteration  2 RMS(Cart)=  0.00000000 RMS(Int)=  0.00000000
 ClnCor:  largest displacement from symmetrization is 1.33D-15 for atom     1.
 Variable       Old X    -DE/DX   Delta X   Delta X   Delta X     New X
                                 (Linear)    (Quad)   (Total)
    R1        2.50413   0.00002   0.00011  -0.00001   0.00009   2.50422
    R2        2.19752  -0.00017  -0.00006  -0.00009  -0.00015   2.19738
    A1        2.22642   0.00003  -0.00001   0.00013   0.00011   2.22654
         Item               Value     Threshold  Converged?
 Maximum Force            0.000169     0.000450     YES
 RMS     Force            0.000100     0.000300     YES
 Maximum Displacement     0.000113     0.001800     YES
 RMS     Displacement     0.000091     0.001200     YES
 Predicted change in Energy=-1.360704D-08
 Optimization completed.
    -- Stationary point found.
                           ----------------------------
                           !   Optimized Parameters   !
                           ! (Angstroms and Degrees)  !
 --------------------------                            --------------------------
 ! Name  Definition              Value          Derivative Info.                !
 --------------------------------------------------------------------------------
 ! R1    R(1,2)                  1.3251         -DE/DX =    0.0                 !
 ! R2    R(2,3)                  1.1629         -DE/DX =   -0.0002              !
 ! A1    A(1,2,3)              127.5647         -DE/DX =    0.0                 !
 --------------------------------------------------------------------------------
 GradGradGradGradGradGradGradGradGradGradGradGradGradGradGradGradGradGrad

                          Input orientation:                          
 ---------------------------------------------------------------------
 Center     Atomic      Atomic             Coordinates (Angstroms)
 Number     Number       Type             X           Y           Z
 ---------------------------------------------------------------------
      1          9           0        2.542065   -1.230320    0.049896
      2          6           0        2.492411    0.092940    0.000133
      3          8           0        3.386770    0.834680   -0.047121
 ---------------------------------------------------------------------
                    Distance matrix (angstroms):
                    1          2          3
     1  F    0.000000
     2  C    1.325126   0.000000
     3  O    2.233196   1.162880   0.000000
 Stoichiometry    CFO(2)
 Framework group  CS[SG(CFO)]
 Deg. of freedom     3
 Full point group                 CS      NOp   2
 Largest Abelian subgroup         CS      NOp   2
 Largest concise Abelian subgroup C1      NOp   1
                         Standard orientation:                         
 ---------------------------------------------------------------------
 Center     Atomic      Atomic             Coordinates (Angstroms)
 Number     Number       Type             X           Y           Z
 ---------------------------------------------------------------------
      1          9           0       -1.010584   -0.436725    0.000000
      2          6           0       -0.000000    0.420409   -0.000000
      3          8           0        1.136907    0.176009   -0.000000
 ---------------------------------------------------------------------
 Rotational constants (GHZ):         190.4909074          11.5811597          10.9174199

 **********************************************************************

            Population analysis using the SCF density.

 **********************************************************************

 Orbital symmetries:
 Alpha Orbitals:
       Occupied  (A') (A') (A') (A') (A') (A') (A') (A') (A") (A")
                 (A') (A')
       Virtual   (A") (A') (A') (A') (A") (A') (A') (A") (A') (A')
                 (A') (A") (A') (A') (A') (A") (A') (A') (A") (A')
                 (A") (A') (A') (A') (A") (A') (A') (A') (A") (A')
                 (A') (A") (A') (A") (A') (A') (A') (A") (A") (A')
                 (A') (A') (A") (A') (A") (A') (A') (A") (A') (A')
                 (A") (A') (A') (A") (A') (A') (A") (A') (A") (A')
                 (A') (A") (A') (A") (A') (A') (A') (A') (A')
 Beta  Orbitals:
       Occupied  (A') (A') (A') (A') (A') (A') (A") (A') (A') (A")
                 (A')
       Virtual   (A') (A") (A') (A') (A") (A') (A') (A') (A") (A')
                 (A') (A") (A') (A') (A') (A') (A") (A') (A') (A")
                 (A') (A") (A') (A') (A') (A") (A') (A') (A") (A')
                 (A') (A') (A") (A') (A") (A') (A') (A') (A") (A")
                 (A') (A') (A') (A") (A') (A") (A') (A") (A') (A')
                 (A') (A") (A') (A') (A") (A') (A') (A") (A') (A")
                 (A') (A') (A") (A') (A") (A') (A') (A') (A') (A')
 The electronic state is 2-A'.
 Alpha  occ. eigenvalues --  -24.89302 -19.33258 -10.48625  -1.41387  -1.24633
 Alpha  occ. eigenvalues --   -0.77330  -0.64489  -0.64170  -0.63895  -0.52076
 Alpha  occ. eigenvalues --   -0.52040  -0.37307
 Alpha virt. eigenvalues --    0.02744   0.07912   0.10003   0.10263   0.10521
 Alpha virt. eigenvalues --    0.24097   0.25496   0.28089   0.28967   0.32546
 Alpha virt. eigenvalues --    0.33408   0.33448   0.37726   0.41140   0.49835
 Alpha virt. eigenvalues --    0.58237   0.58822   0.70482   0.74970   0.79811
 Alpha virt. eigenvalues --    0.89112   0.89807   1.05717   1.08843   1.11334
 Alpha virt. eigenvalues --    1.25070   1.33382   1.35710   1.36386   1.43190
 Alpha virt. eigenvalues --    1.55026   1.62101   1.70570   1.89472   1.90734
 Alpha virt. eigenvalues --    2.01985   2.14919   2.19007   2.34526   2.51809
 Alpha virt. eigenvalues --    2.58413   2.73621   2.83564   3.06648   3.26766
 Alpha virt. eigenvalues --    3.29697   3.36904   3.37070   3.67589   4.05020
 Alpha virt. eigenvalues --    5.06283   5.10317   5.96886   6.33487   6.35744
 Alpha virt. eigenvalues --    6.65977   6.78739   6.85624   7.02412   7.11236
 Alpha virt. eigenvalues --    7.21879   9.09667   9.10294   9.27528   9.38980
 Alpha virt. eigenvalues --    9.71305  24.08973  49.97889  66.86288
  Beta  occ. eigenvalues --  -24.88742 -19.32702 -10.47510  -1.39821  -1.23084
  Beta  occ. eigenvalues --   -0.74787  -0.62925  -0.62530  -0.61045  -0.51538
  Beta  occ. eigenvalues --   -0.48913
  Beta virt. eigenvalues --   -0.06630   0.05378   0.09683   0.11051   0.11952
  Beta virt. eigenvalues --    0.12127   0.25267   0.26007   0.28422   0.30376
  Beta virt. eigenvalues --    0.33277   0.33839   0.34545   0.38267   0.41570
  Beta virt. eigenvalues --    0.51575   0.59051   0.61107   0.72233   0.76735
  Beta virt. eigenvalues --    0.81440   0.90012   0.91130   1.06401   1.10112
  Beta virt. eigenvalues --    1.11565   1.26076   1.35040   1.36760   1.36842
  Beta virt. eigenvalues --    1.43773   1.55458   1.62866   1.71502   1.90027
  Beta virt. eigenvalues --    1.91269   2.02889   2.15954   2.19372   2.35127
  Beta virt. eigenvalues --    2.53180   2.60151   2.75109   2.85340   3.10083
  Beta virt. eigenvalues --    3.31341   3.33652   3.39893   3.40150   3.70611
  Beta virt. eigenvalues --    4.06997   5.06613   5.12568   5.98249   6.33972
  Beta virt. eigenvalues --    6.36796   6.67448   6.80474   6.87462   7.03187
  Beta virt. eigenvalues --    7.13464   7.23201   9.10553   9.11208   9.29113
  Beta virt. eigenvalues --    9.40896   9.73284  24.10800  49.98390  66.86726
          Condensed to atoms (all electrons):
               1          2          3
     1  F    9.127279   0.033123   0.015996
     2  C    0.033123   5.180417   0.382949
     3  O    0.015996   0.382949   7.828168
          Atomic-Atomic Spin Densities.
               1          2          3
     1  F    0.264944  -0.211241   0.014574
     2  C   -0.211241   1.100186  -0.121578
     3  O    0.014574  -0.121578   0.271360
 Mulliken charges and spin densities:
               1          2
     1  F   -0.176398   0.068277
     2  C    0.403511   0.767367
     3  O   -0.227113   0.164356
 Sum of Mulliken charges =   0.00000   1.00000
 Mulliken charges and spin densities with hydrogens summed into heavy atoms:
               1          2
     1  F   -0.176398   0.068277
     2  C    0.403511   0.767367
     3  O   -0.227113   0.164356
 Electronic spatial extent (au):  <R**2>=            116.1386
 Charge=              0.0000 electrons
 Dipole moment (field-independent basis, Debye):
    X=             -0.7403    Y=              0.2335    Z=              0.0000  Tot=              0.7763
 Quadrupole moment (field-independent basis, Debye-Ang):
   XX=            -17.5273   YY=            -15.6946   ZZ=            -14.6434
   XY=             -0.4088   XZ=             -0.0000   YZ=             -0.0000
 Traceless Quadrupole moment (field-independent basis, Debye-Ang):
   XX=             -1.5722   YY=              0.2605   ZZ=              1.3117
   XY=             -0.4088   XZ=             -0.0000   YZ=             -0.0000
 Octapole moment (field-independent basis, Debye-Ang**2):
  XXX=             -4.6504  YYY=             -4.1368  ZZZ=             -0.0000  XYY=             -1.1086
  XXY=             -1.4923  XXZ=             -0.0000  XZZ=             -1.0797  YZZ=             -1.0502
  YYZ=              0.0000  XYZ=              0.0000
 Hexadecapole moment (field-independent basis, Debye-Ang**3):
 XXXX=            -85.1735 YYYY=            -26.5900 ZZZZ=            -11.7099 XXXY=             -9.6491
 XXXZ=             -0.0000 YYYX=             -8.9342 YYYZ=              0.0000 ZZZX=             -0.0000
 ZZZY=              0.0000 XXYY=            -18.2234 XXZZ=            -15.7800 YYZZ=             -6.2851
 XXYZ=             -0.0000 YYXZ=             -0.0000 ZZXY=             -3.1347
 N-N= 6.046821424617D+01 E-N=-6.255492161982D+02  KE= 2.125744722629D+02
 Symmetry A'   KE= 2.023011337996D+02
 Symmetry A"   KE= 1.027333846325D+01
 Symmetry A'   SP= 1.000000000000D+00
 Symmetry A"   SP=-2.115752776970D-15
                          Isotropic Fermi Contact Couplings
        Atom                 a.u.       MegaHertz       Gauss      10(-4) cm-1
     1  F(19)              0.21265     894.70070     319.25146     298.44003
     2  C(13)              0.68532     770.43376     274.90992     256.98904
     3  O(17)              0.08800     -53.34560     -19.03504     -17.79418
 --------------------------------------------------------
       Center         ----  Spin Dipole Couplings  ----
                      3XX-RR        3YY-RR        3ZZ-RR
 --------------------------------------------------------
     1   Atom       -0.411171      0.983630     -0.572458
     2   Atom       -0.093649      0.347905     -0.254255
     3   Atom       -0.354493      1.054739     -0.700247
 --------------------------------------------------------
                        XY            XZ            YZ
 --------------------------------------------------------
     1   Atom        0.509284      0.000000      0.000000
     2   Atom       -0.457301     -0.000000      0.000000
     3   Atom       -0.431575      0.000000     -0.000000
 --------------------------------------------------------


 ---------------------------------------------------------------------------------
              Anisotropic Spin Dipole Couplings in Principal Axis System
 ---------------------------------------------------------------------------------

       Atom             a.u.   MegaHertz   Gauss  10(-4) cm-1        Axes

              Baa    -0.5773  -289.951  -103.462   -96.717  0.9507 -0.3102  0.0000
     1 F(19)  Bbb    -0.5725  -287.503  -102.588   -95.901 -0.0000  0.0000  1.0000
              Bcc     1.1498   577.454   206.050   192.618  0.3102  0.9507  0.0000
 
              Baa    -0.3807   -51.083   -18.228   -17.040  0.8470  0.5316  0.0000
     2 C(13)  Bbb    -0.2543   -34.119   -12.174   -11.381  0.0000  0.0000  1.0000
              Bcc     0.6349    85.202    30.402    28.420 -0.5316  0.8470  0.0000
 
              Baa    -0.7002    50.669    18.080    16.901  0.0000  0.0000  1.0000
     3 O(17)  Bbb    -0.4762    34.454    12.294    11.493  0.9625  0.2713 -0.0000
              Bcc     1.1764   -85.124   -30.374   -28.394 -0.2713  0.9625 -0.0000
 

 ---------------------------------------------------------------------------------

 1\1\GINC-CCLEARCO\FOpt\UwB97XD\6-311+G(2d)\C1F1O1(2)\RAPPE\04-Nov-2025
 \0\\# opt freq uwb97xd/6-311+g(2d) geom=connectivity integral=grid=sup
 erfinegrid scf=(xqc,tight)\\Title Card Required\\0,2\F,2.5420647055,-1
 .2303196305,0.0498956303\C,2.4924110271,0.0929403082,0.0001333733\O,3.
 3867702674,0.8346803222,-0.0471210036\\Version=EM64M-G16RevA.03\State=
 2-A'\HF=-213.1035229\S2=0.754293\S2-1=0.\S2A=0.750013\RMSD=6.508e-09\R
 MSF=8.548e-05\Dipole=-0.2521127,-0.1719612,0.0118951\Quadrupole=-0.030
 6095,-0.9403862,0.9709958,-0.5886058,0.0437151,0.085904\PG=CS [SG(C1F1
 O1)]\\@


 QED = W**5 (WHICH WAS WHAT WE WANTED)
 Job cpu time:       0 days  0 hours  7 minutes 12.1 seconds.
 Elapsed time:       0 days  0 hours  0 minutes 18.9 seconds.
 File lengths (MBytes):  RWF=     10 Int=      0 D2E=      0 Chk=      2 Scr=      1
 Normal termination of Gaussian 16 at Tue Nov  4 13:39:21 2025.
 Link1:  Proceeding to internal job step number  2.
 ----------------------------------------------------------------------
 #N Geom=AllCheck Guess=TCheck SCRF=Check GenChk UwB97XD/6-311+G(2d) Fr
 eq
 ----------------------------------------------------------------------
 1/10=4,29=7,30=1,38=1,40=1/1,3;
 2/12=2,40=1/2;
 3/5=4,6=6,7=12,11=2,14=-4,25=1,30=1,70=2,71=2,74=-58,75=-7,116=2,140=1/1,2,3;
 4/5=101/1;
 5/5=2,8=3,13=1,32=2,38=6,98=1/2,8;
 8/6=4,10=90,11=11/1;
 11/6=1,8=1,9=11,15=111,16=1/1,2,10;
 10/6=1/2;
 6/7=2,8=2,9=2,10=2,28=1/1;
 7/8=1,10=1,25=1/1,2,3,16;
 1/10=4,30=1/3;
 99//99;
 Structure from the checkpoint file:  "c2f5cof_fragB.chk"
 -------------------
 Title Card Required
 -------------------
 Charge =  0 Multiplicity = 2
 Redundant internal coordinates found in file.  (old form).
 F,0,2.5420647055,-1.2303196305,0.0498956303
 C,0,2.4924110271,0.0929403082,0.0001333733
 O,0,3.3867702674,0.8346803222,-0.0471210036
 Recover connectivity data from disk.

 GradGradGradGradGradGradGradGradGradGradGradGradGradGradGradGradGradGrad
 Berny optimization.
 Initialization pass.
                           ----------------------------
                           !    Initial Parameters    !
                           ! (Angstroms and Degrees)  !
 --------------------------                            --------------------------
 ! Name  Definition              Value          Derivative Info.                !
 --------------------------------------------------------------------------------
 ! R1    R(1,2)                  1.3251         calculate D2E/DX2 analytically  !
 ! R2    R(2,3)                  1.1629         calculate D2E/DX2 analytically  !
 ! A1    A(1,2,3)              127.5647         calculate D2E/DX2 analytically  !
 --------------------------------------------------------------------------------
 Trust Radius=3.00D-01 FncErr=1.00D-07 GrdErr=1.00D-07 EigMax=2.50D+02 EigMin=1.00D-04
 Number of steps in this run=      2 maximum allowed number of steps=      2.
 GradGradGradGradGradGradGradGradGradGradGradGradGradGradGradGradGradGrad

                          Input orientation:                          
 ---------------------------------------------------------------------
 Center     Atomic      Atomic             Coordinates (Angstroms)
 Number     Number       Type             X           Y           Z
 ---------------------------------------------------------------------
      1          9           0        2.542065   -1.230320    0.049896
      2          6           0        2.492411    0.092940    0.000133
      3          8           0        3.386770    0.834680   -0.047121
 ---------------------------------------------------------------------
                    Distance matrix (angstroms):
                    1          2          3
     1  F    0.000000
     2  C    1.325126   0.000000
     3  O    2.233196   1.162880   0.000000
 Stoichiometry    CFO(2)
 Framework group  CS[SG(CFO)]
 Deg. of freedom     3
 Full point group                 CS      NOp   2
 Largest Abelian subgroup         CS      NOp   2
 Largest concise Abelian subgroup C1      NOp   1
                         Standard orientation:                         
 ---------------------------------------------------------------------
 Center     Atomic      Atomic             Coordinates (Angstroms)
 Number     Number       Type             X           Y           Z
 ---------------------------------------------------------------------
      1          9           0       -1.010584   -0.436725   -0.000000
      2          6           0        0.000000    0.420409    0.000000
      3          8           0        1.136907    0.176009    0.000000
 ---------------------------------------------------------------------
 Rotational constants (GHZ):         190.4909074          11.5811597          10.9174199
 Standard basis: 6-311+G(2d) (5D, 7F)
 There are    63 symmetry adapted cartesian basis functions of A'  symmetry.
 There are    24 symmetry adapted cartesian basis functions of A"  symmetry.
 There are    57 symmetry adapted basis functions of A'  symmetry.
 There are    24 symmetry adapted basis functions of A"  symmetry.
    81 basis functions,   126 primitive gaussians,    87 cartesian basis functions
    12 alpha electrons       11 beta electrons
       nuclear repulsion energy        60.4682683545 Hartrees.
 NAtoms=    3 NActive=    3 NUniq=    3 SFac= 1.00D+00 NAtFMM=   60 NAOKFM=F Big=F
 Integral buffers will be    131072 words long.
 Raffenetti 2 integral format.
 Two-electron integral symmetry is turned on.
 Nuclear repulsion after empirical dispersion term =       60.4682142462 Hartrees.
 One-electron integrals computed using PRISM.
 NBasis=    81 RedAO= T EigKep=  1.14D-03  NBF=    57    24
 NBsUse=    81 1.00D-06 EigRej= -1.00D+00 NBFU=    57    24
 Initial guess from the checkpoint file:  "c2f5cof_fragB.chk"
 B after Tr=    -0.000000   -0.000000   -0.000000
         Rot=    1.000000   -0.000000   -0.000000    0.000000 Ang=   0.00 deg.
 Initial guess orbital symmetries:
 Alpha Orbitals:
       Occupied  (A') (A') (A') (A') (A') (A') (A') (A') (A") (A")
                 (A') (A')
       Virtual   (A") (A') (A') (A') (A") (A') (A') (A") (A') (A')
                 (A') (A") (A') (A') (A') (A") (A') (A') (A") (A')
                 (A") (A') (A') (A') (A") (A') (A') (A') (A") (A')
                 (A') (A") (A') (A") (A') (A') (A') (A") (A") (A')
                 (A') (A') (A") (A') (A") (A') (A') (A") (A') (A')
                 (A") (A') (A') (A") (A') (A') (A") (A') (A") (A')
                 (A') (A") (A') (A") (A') (A') (A') (A') (A')
 Beta  Orbitals:
       Occupied  (A') (A') (A') (A') (A') (A') (A") (A') (A') (A")
                 (A')
       Virtual   (A') (A") (A') (A') (A") (A') (A') (A') (A") (A')
                 (A') (A") (A') (A') (A') (A') (A") (A') (A') (A")
                 (A') (A") (A') (A') (A') (A") (A') (A') (A") (A')
                 (A') (A') (A") (A') (A") (A') (A') (A') (A") (A")
                 (A') (A') (A') (A") (A') (A") (A') (A") (A') (A')
                 (A') (A") (A') (A') (A") (A') (A') (A") (A') (A")
                 (A') (A') (A") (A') (A") (A') (A') (A') (A') (A')
 Initial guess <Sx>= 0.0000 <Sy>= 0.0000 <Sz>= 0.5000 <S**2>= 0.7543 S= 0.5021
 Keep R1 and R2 ints in memory in symmetry-blocked form, NReq=32943235.
 Requested convergence on RMS density matrix=1.00D-08 within  32 cycles.
 Requested convergence on MAX density matrix=1.00D-06.
 Requested convergence on             energy=1.00D-06.
 No special actions if energy rises.
 SCF Done:  E(UwB97XD) =  -213.103522879     A.U. after    1 cycles
            NFock=  1  Conv=0.31D-08     -V/T= 2.0025
 <Sx>= 0.0000 <Sy>= 0.0000 <Sz>= 0.5000 <S**2>= 0.7543 S= 0.5021
 <L.S>= 0.000000000000E+00
 Annihilation of the first spin contaminant:
 S**2 before annihilation     0.7543,   after     0.7500
 QCSCF skips out because SCF is already converged.
 DoSCS=F DFT=T ScalE2(SS,OS)=  1.000000  1.000000
 Range of M.O.s used for correlation:     1    81
 NBasis=    81 NAE=    12 NBE=    11 NFC=     0 NFV=     0
 NROrb=     81 NOA=    12 NOB=    11 NVA=    69 NVB=    70

 **** Warning!!: The largest alpha MO coefficient is  0.10208001D+02

 Symmetrizing basis deriv contribution to polar:
 IMax=3 JMax=2 DiffMx= 0.00D+00
 G2DrvN: will do     4 centers at a time, making    1 passes.
 Calling FoFCou, ICntrl=  3107 FMM=F I1Cent=   0 AccDes= 0.00D+00.
 End of G2Drv F.D. properties file   721 does not exist.
 End of G2Drv F.D. properties file   722 does not exist.
 End of G2Drv F.D. properties file   788 does not exist.
          IDoAtm=111
          Differentiating once with respect to electric field.
                with respect to dipole field.
          Differentiating once with respect to nuclear coordinates.
 Keep R1 and R2 ints in memory in symmetry-blocked form, NReq=32792598.
          There are    12 degrees of freedom in the 1st order CPHF.  IDoFFX=6 NUNeed=     3.
      9 vectors produced by pass  0 Test12= 1.33D-14 8.33D-09 XBig12= 1.88D+01 1.96D+00.
 AX will form     9 AO Fock derivatives at one time.
      9 vectors produced by pass  1 Test12= 1.33D-14 8.33D-09 XBig12= 6.89D+00 5.97D-01.
      9 vectors produced by pass  2 Test12= 1.33D-14 8.33D-09 XBig12= 3.63D-01 2.33D-01.
      9 vectors produced by pass  3 Test12= 1.33D-14 8.33D-09 XBig12= 2.54D-02 6.15D-02.
      9 vectors produced by pass  4 Test12= 1.33D-14 8.33D-09 XBig12= 9.80D-04 7.88D-03.
      9 vectors produced by pass  5 Test12= 1.33D-14 8.33D-09 XBig12= 2.37D-05 1.51D-03.
      9 vectors produced by pass  6 Test12= 1.33D-14 8.33D-09 XBig12= 4.98D-07 1.84D-04.
      9 vectors produced by pass  7 Test12= 1.33D-14 8.33D-09 XBig12= 4.65D-09 1.63D-05.
      4 vectors produced by pass  8 Test12= 1.33D-14 8.33D-09 XBig12= 4.49D-11 1.30D-06.
      3 vectors produced by pass  9 Test12= 1.33D-14 8.33D-09 XBig12= 3.25D-13 1.02D-07.
      1 vectors produced by pass 10 Test12= 1.33D-14 8.33D-09 XBig12= 2.95D-15 1.26D-08.
 InvSVY:  IOpt=1 It=  1 EMax= 1.22D-15
 Solved reduced A of dimension    80 with     9 vectors.
 Isotropic polarizability for W=    0.000000       15.96 Bohr**3.
 End of Minotr F.D. properties file   721 does not exist.
 End of Minotr F.D. properties file   722 does not exist.
 End of Minotr F.D. properties file   788 does not exist.

 **********************************************************************

            Population analysis using the SCF density.

 **********************************************************************

 Orbital symmetries:
 Alpha Orbitals:
       Occupied  (A') (A') (A') (A') (A') (A') (A') (A') (A") (A")
                 (A') (A')
       Virtual   (A") (A') (A') (A') (A") (A') (A') (A") (A') (A')
                 (A') (A") (A') (A') (A') (A") (A') (A') (A") (A')
                 (A") (A') (A') (A') (A") (A') (A') (A') (A") (A')
                 (A') (A") (A') (A") (A') (A') (A') (A") (A") (A')
                 (A') (A') (A") (A') (A") (A') (A') (A") (A') (A')
                 (A") (A') (A') (A") (A') (A') (A") (A') (A") (A')
                 (A') (A") (A') (A") (A') (A') (A') (A') (A')
 Beta  Orbitals:
       Occupied  (A') (A') (A') (A') (A') (A') (A") (A') (A') (A")
                 (A')
       Virtual   (A') (A") (A') (A') (A") (A') (A') (A') (A") (A')
                 (A') (A") (A') (A') (A') (A') (A") (A') (A') (A")
                 (A') (A") (A') (A') (A') (A") (A') (A') (A") (A')
                 (A') (A') (A") (A') (A") (A') (A') (A') (A") (A")
                 (A') (A') (A') (A") (A') (A") (A') (A") (A') (A')
                 (A') (A") (A') (A') (A") (A') (A') (A") (A') (A")
                 (A') (A') (A") (A') (A") (A') (A') (A') (A') (A')
 The electronic state is 2-A'.
 Alpha  occ. eigenvalues --  -24.89302 -19.33258 -10.48625  -1.41387  -1.24633
 Alpha  occ. eigenvalues --   -0.77330  -0.64489  -0.64170  -0.63895  -0.52076
 Alpha  occ. eigenvalues --   -0.52040  -0.37307
 Alpha virt. eigenvalues --    0.02744   0.07912   0.10003   0.10263   0.10521
 Alpha virt. eigenvalues --    0.24097   0.25496   0.28089   0.28967   0.32546
 Alpha virt. eigenvalues --    0.33408   0.33448   0.37726   0.41140   0.49835
 Alpha virt. eigenvalues --    0.58237   0.58822   0.70482   0.74970   0.79811
 Alpha virt. eigenvalues --    0.89112   0.89807   1.05717   1.08843   1.11334
 Alpha virt. eigenvalues --    1.25070   1.33382   1.35710   1.36386   1.43190
 Alpha virt. eigenvalues --    1.55026   1.62101   1.70570   1.89472   1.90734
 Alpha virt. eigenvalues --    2.01985   2.14919   2.19007   2.34526   2.51809
 Alpha virt. eigenvalues --    2.58413   2.73621   2.83564   3.06648   3.26766
 Alpha virt. eigenvalues --    3.29697   3.36904   3.37070   3.67589   4.05020
 Alpha virt. eigenvalues --    5.06283   5.10317   5.96886   6.33487   6.35744
 Alpha virt. eigenvalues --    6.65977   6.78739   6.85624   7.02412   7.11236
 Alpha virt. eigenvalues --    7.21879   9.09667   9.10294   9.27528   9.38980
 Alpha virt. eigenvalues --    9.71305  24.08973  49.97889  66.86288
  Beta  occ. eigenvalues --  -24.88742 -19.32702 -10.47510  -1.39821  -1.23084
  Beta  occ. eigenvalues --   -0.74787  -0.62925  -0.62530  -0.61045  -0.51538
  Beta  occ. eigenvalues --   -0.48913
  Beta virt. eigenvalues --   -0.06630   0.05378   0.09683   0.11051   0.11952
  Beta virt. eigenvalues --    0.12127   0.25267   0.26007   0.28422   0.30376
  Beta virt. eigenvalues --    0.33277   0.33839   0.34545   0.38267   0.41570
  Beta virt. eigenvalues --    0.51575   0.59051   0.61107   0.72233   0.76735
  Beta virt. eigenvalues --    0.81440   0.90012   0.91130   1.06401   1.10112
  Beta virt. eigenvalues --    1.11565   1.26076   1.35040   1.36760   1.36842
  Beta virt. eigenvalues --    1.43773   1.55458   1.62866   1.71502   1.90027
  Beta virt. eigenvalues --    1.91269   2.02889   2.15954   2.19372   2.35127
  Beta virt. eigenvalues --    2.53180   2.60151   2.75109   2.85340   3.10083
  Beta virt. eigenvalues --    3.31341   3.33652   3.39893   3.40150   3.70611
  Beta virt. eigenvalues --    4.06997   5.06613   5.12568   5.98249   6.33972
  Beta virt. eigenvalues --    6.36796   6.67448   6.80474   6.87462   7.03187
  Beta virt. eigenvalues --    7.13464   7.23201   9.10553   9.11208   9.29113
  Beta virt. eigenvalues --    9.40896   9.73284  24.10800  49.98390  66.86726
          Condensed to atoms (all electrons):
               1          2          3
     1  F    9.127279   0.033123   0.015996
     2  C    0.033123   5.180417   0.382949
     3  O    0.015996   0.382949   7.828168
          Atomic-Atomic Spin Densities.
               1          2          3
     1  F    0.264944  -0.211241   0.014574
     2  C   -0.211241   1.100187  -0.121578
     3  O    0.014574  -0.121578   0.271359
 Mulliken charges and spin densities:
               1          2
     1  F   -0.176398   0.068277
     2  C    0.403511   0.767367
     3  O   -0.227113   0.164355
 Sum of Mulliken charges =  -0.00000   1.00000
 Mulliken charges and spin densities with hydrogens summed into heavy atoms:
               1          2
     1  F   -0.176398   0.068277
     2  C    0.403511   0.767367
     3  O   -0.227113   0.164355
 APT charges:
               1
     1  F   -0.454550
     2  C    0.914802
     3  O   -0.460252
 Sum of APT charges =   0.00000
 APT charges with hydrogens summed into heavy atoms:
               1
     1  F   -0.454550
     2  C    0.914802
     3  O   -0.460252
 Electronic spatial extent (au):  <R**2>=            116.1386
 Charge=              0.0000 electrons
 Dipole moment (field-independent basis, Debye):
    X=             -0.7403    Y=              0.2335    Z=             -0.0000  Tot=              0.7763
 Quadrupole moment (field-independent basis, Debye-Ang):
   XX=            -17.5273   YY=            -15.6946   ZZ=            -14.6434
   XY=             -0.4088   XZ=             -0.0000   YZ=             -0.0000
 Traceless Quadrupole moment (field-independent basis, Debye-Ang):
   XX=             -1.5722   YY=              0.2605   ZZ=              1.3117
   XY=             -0.4088   XZ=             -0.0000   YZ=             -0.0000
 Octapole moment (field-independent basis, Debye-Ang**2):
  XXX=             -4.6504  YYY=             -4.1368  ZZZ=             -0.0000  XYY=             -1.1086
  XXY=             -1.4923  XXZ=             -0.0000  XZZ=             -1.0797  YZZ=             -1.0502
  YYZ=             -0.0000  XYZ=             -0.0000
 Hexadecapole moment (field-independent basis, Debye-Ang**3):
 XXXX=            -85.1735 YYYY=            -26.5900 ZZZZ=            -11.7099 XXXY=             -9.6491
 XXXZ=             -0.0000 YYYX=             -8.9342 YYYZ=             -0.0000 ZZZX=             -0.0000
 ZZZY=             -0.0000 XXYY=            -18.2234 XXZZ=            -15.7800 YYZZ=             -6.2851
 XXYZ=             -0.0000 YYXZ=             -0.0000 ZZXY=             -3.1347
 N-N= 6.046821424617D+01 E-N=-6.255492168161D+02  KE= 2.125744725236D+02
 Symmetry A'   KE= 2.023011340830D+02
 Symmetry A"   KE= 1.027333844056D+01
 Symmetry A'   SP= 1.000000000000D+00
 Symmetry A"   SP=-2.550531400664D-15
  Exact polarizability:  21.292   0.295  14.644   0.000  -0.000  11.936
 Approx polarizability:  24.813   0.103  14.214   0.000   0.000  12.094
                          Isotropic Fermi Contact Couplings
        Atom                 a.u.       MegaHertz       Gauss      10(-4) cm-1
     1  F(19)              0.21265     894.70109     319.25160     298.44016
     2  C(13)              0.68532     770.43377     274.90993     256.98904
     3  O(17)              0.08800     -53.34547     -19.03499     -17.79413
 --------------------------------------------------------
       Center         ----  Spin Dipole Couplings  ----
                      3XX-RR        3YY-RR        3ZZ-RR
 --------------------------------------------------------
     1   Atom       -0.411172      0.983630     -0.572458
     2   Atom       -0.093650      0.347905     -0.254255
     3   Atom       -0.354491      1.054739     -0.700248
 --------------------------------------------------------
                        XY            XZ            YZ
 --------------------------------------------------------
     1   Atom        0.509283      0.000000     -0.000000
     2   Atom       -0.457301      0.000000     -0.000000
     3   Atom       -0.431575      0.000000     -0.000000
 --------------------------------------------------------


 ---------------------------------------------------------------------------------
              Anisotropic Spin Dipole Couplings in Principal Axis System
 ---------------------------------------------------------------------------------

       Atom             a.u.   MegaHertz   Gauss  10(-4) cm-1        Axes

              Baa    -0.5773  -289.951  -103.462   -96.717  0.9507 -0.3102  0.0000
     1 F(19)  Bbb    -0.5725  -287.503  -102.588   -95.901  0.0000  0.0000  1.0000
              Bcc     1.1498   577.454   206.050   192.618  0.3102  0.9507  0.0000
 
              Baa    -0.3807   -51.083   -18.228   -17.040  0.8470  0.5316  0.0000
     2 C(13)  Bbb    -0.2543   -34.119   -12.174   -11.381  0.0000  0.0000  1.0000
              Bcc     0.6349    85.202    30.402    28.420 -0.5316  0.8470  0.0000
 
              Baa    -0.7002    50.669    18.080    16.902  0.0000  0.0000  1.0000
     3 O(17)  Bbb    -0.4762    34.454    12.294    11.493  0.9625  0.2713  0.0000
              Bcc     1.1764   -85.124   -30.374   -28.394 -0.2713  0.9625  0.0000
 

 ---------------------------------------------------------------------------------

 Calling FoFJK, ICntrl=    100127 FMM=F ISym2X=1 I1Cent= 0 IOpClX= 1 NMat=1 NMatS=1 NMatT=0.
 Full mass-weighted force constant matrix:
 Low frequencies ---   -0.0013   -0.0009    0.0011    3.4100    4.9862   14.7172
 Low frequencies ---  640.4633 1050.0537 1956.4217
 Diagonal vibrational polarizability:
        5.3035517       2.5309425       0.0000000
 Harmonic frequencies (cm**-1), IR intensities (KM/Mole), Raman scattering
 activities (A**4/AMU), depolarization ratios for plane and unpolarized
 incident light, reduced masses (AMU), force constants (mDyne/A),
 and normal coordinates:
                      1                      2                      3
                     A'                     A'                     A'
 Frequencies --    640.4633              1050.0537              1956.4217
 Red. masses --     15.6178                13.9106                13.4096
 Frc consts  --      3.7745                 9.0369                30.2405
 IR Inten    --     10.8648               212.9846               273.5700
  Atom  AN      X      Y      Z        X      Y      Z        X      Y      Z
     1   9     0.55   0.00   0.00    -0.33  -0.38  -0.00    -0.01  -0.00  -0.00
     2   6    -0.25   0.51  -0.00     0.34   0.77   0.00     0.79  -0.18   0.00
     3   8    -0.47  -0.39  -0.00     0.14  -0.13   0.00    -0.58   0.13  -0.00

 -------------------
 - Thermochemistry -
 -------------------
 Temperature   298.150 Kelvin.  Pressure   1.00000 Atm.
 Atom     1 has atomic number  9 and mass  18.99840
 Atom     2 has atomic number  6 and mass  12.00000
 Atom     3 has atomic number  8 and mass  15.99491
 Molecular mass:    46.99332 amu.
 Principal axes and moments of inertia in atomic units:
                           1         2         3
     Eigenvalues --     9.47416 155.83424 165.30840
           X            0.95529  -0.29567   0.00000
           Y            0.29567   0.95529   0.00000
           Z           -0.00000   0.00000   1.00000
 This molecule is an asymmetric top.
 Rotational symmetry number  1.
 Rotational temperatures (Kelvin)      9.14212     0.55581     0.52395
 Rotational constants (GHZ):         190.49091    11.58116    10.91742
 Zero-point vibrational energy      21813.5 (Joules/Mol)
                                    5.21356 (Kcal/Mol)
 Vibrational temperatures:    921.48  1510.79  2814.85
          (Kelvin)
 
 Zero-point correction=                           0.008308 (Hartree/Particle)
 Thermal correction to Energy=                    0.011311
 Thermal correction to Enthalpy=                  0.012255
 Thermal correction to Gibbs Free Energy=        -0.015985
 Sum of electronic and zero-point Energies=           -213.095215
 Sum of electronic and thermal Energies=              -213.092212
 Sum of electronic and thermal Enthalpies=            -213.091268
 Sum of electronic and thermal Free Energies=         -213.119508
 
                     E (Thermal)             CV                S
                      KCal/Mol        Cal/Mol-Kelvin    Cal/Mol-Kelvin
 Total                    7.098              7.249             59.436
 Electronic               0.000              0.000              1.377
 Translational            0.889              2.981             37.467
 Rotational               0.889              2.981             20.129
 Vibrational              5.320              1.287              0.463
                       Q            Log10(Q)             Ln(Q)
 Total Bot       0.225194D+08          7.352556         16.929887
 Total V=0       0.149322D+12         11.174123         25.729369
 Vib (Bot)       0.159010D-03         -3.798576         -8.746546
 Vib (V=0)       0.105436D+01          0.022990          0.052937
 Electronic      0.200000D+01          0.301030          0.693147
 Translational   0.126622D+08          7.102508         16.354129
 Rotational      0.559236D+04          3.747595          8.629156
 ***** Axes restored to original set *****
 -------------------------------------------------------------------
 Center     Atomic                   Forces (Hartrees/Bohr)
 Number     Number              X              Y              Z
 -------------------------------------------------------------------
      1        9          -0.000013349   -0.000018301    0.000000983
      2        6           0.000152834    0.000114467   -0.000007603
      3        8          -0.000139484   -0.000096165    0.000006620
 -------------------------------------------------------------------
 Cartesian Forces:  Max     0.000152834 RMS     0.000085492
 FormGI is forming the generalized inverse of G from B-inverse, IUseBI=4.

 GradGradGradGradGradGradGradGradGradGradGradGradGradGradGradGradGradGrad
 Berny optimization.
 Internal  Forces:  Max     0.000169029 RMS     0.000100077
 Search for a local minimum.
 Step number   1 out of a maximum of    2
 All quantities printed in internal units (Hartrees-Bohrs-Radians)
 Second derivative matrix not updated -- analytic derivatives used.
 The second derivative matrix:
                          R1        R2        A1
           R1           0.33133
           R2           0.11066   1.03169
           A1           0.03608   0.04672   0.31901
 ITU=  0
     Eigenvalues ---    0.28634   0.34329   1.05241
 Angle between quadratic step and forces=  28.82 degrees.
 Linear search not attempted -- first point.
 Iteration  1 RMS(Cart)=  0.00010207 RMS(Int)=  0.00000000
 Iteration  2 RMS(Cart)=  0.00000000 RMS(Int)=  0.00000000
 ClnCor:  largest displacement from symmetrization is 1.33D-15 for atom     1.
 Variable       Old X    -DE/DX   Delta X   Delta X   Delta X     New X
                                 (Linear)    (Quad)   (Total)
    R1        2.50413   0.00002   0.00000   0.00010   0.00010   2.50423
    R2        2.19752  -0.00017   0.00000  -0.00018  -0.00018   2.19734
    A1        2.22642   0.00003   0.00000   0.00012   0.00012   2.22655
         Item               Value     Threshold  Converged?
 Maximum Force            0.000169     0.000450     YES
 RMS     Force            0.000100     0.000300     YES
 Maximum Displacement     0.000129     0.001800     YES
 RMS     Displacement     0.000102     0.001200     YES
 Predicted change in Energy=-1.819717D-08
 Optimization completed.
    -- Stationary point found.
                           ----------------------------
                           !   Optimized Parameters   !
                           ! (Angstroms and Degrees)  !
 --------------------------                            --------------------------
 ! Name  Definition              Value          Derivative Info.                !
 --------------------------------------------------------------------------------
 ! R1    R(1,2)                  1.3251         -DE/DX =    0.0                 !
 ! R2    R(2,3)                  1.1629         -DE/DX =   -0.0002              !
 ! A1    A(1,2,3)              127.5647         -DE/DX =    0.0                 !
 --------------------------------------------------------------------------------
 GradGradGradGradGradGradGradGradGradGradGradGradGradGradGradGradGradGrad


 ----------------------------------------------------------------------

 Electric dipole moment (input orientation):
 (Debye = 10**-18 statcoulomb cm , SI units = C m)
                  (au)            (Debye)         (10**-30 SI)
   Tot        0.305406D+00      0.776265D+00      0.258934D+01
   x         -0.252113D+00     -0.640806D+00     -0.213750D+01
   y         -0.171961D+00     -0.437081D+00     -0.145795D+01
   z          0.118951D-01      0.302343D-01      0.100851D+00

 Dipole polarizability, Alpha (input orientation).
 (esu units = cm**3 , SI units = C**2 m**2 J**-1)
 Alpha(0;0):
               (au)            (10**-24 esu)      (10**-40 SI)
   iso        0.159573D+02      0.236463D+01      0.263101D+01
   aniso      0.835437D+01      0.123799D+01      0.137745D+01
   xx         0.168929D+02      0.250327D+01      0.278526D+01
   yx         0.315278D+01      0.467193D+00      0.519823D+00
   yy         0.190256D+02      0.281930D+01      0.313690D+01
   zx        -0.225116D+00     -0.333587D-01     -0.371166D-01
   zy        -0.338392D+00     -0.501445D-01     -0.557933D-01
   zz         0.119535D+02      0.177133D+01      0.197087D+01

 ----------------------------------------------------------------------

 Dipole orientation:
     9          2.77095040         -3.71153810         -2.65277862
     6          1.54232082         -1.98496248         -3.98696304
     8          1.42307698         -1.81739082         -6.17484209

 Electric dipole moment (dipole orientation):
 (Debye = 10**-18 statcoulomb cm , SI units = C m)
                  (au)            (Debye)         (10**-30 SI)
   Tot        0.305406D+00      0.776265D+00      0.258934D+01
   x          0.000000D+00      0.000000D+00      0.000000D+00
   y          0.000000D+00      0.000000D+00      0.000000D+00
   z          0.305406D+00      0.776265D+00      0.258934D+01

 Dipole polarizability, Alpha (dipole orientation).
 (esu units = cm**3 , SI units = C**2 m**2 J**-1)
 Alpha(0;0):
               (au)            (10**-24 esu)      (10**-40 SI)
   iso        0.159573D+02      0.236463D+01      0.263101D+01
   aniso      0.835437D+01      0.123799D+01      0.137745D+01
   xx         0.131052D+02      0.194199D+01      0.216075D+01
   yx        -0.164331D+01     -0.243513D+00     -0.270945D+00
   yy         0.142451D+02      0.211091D+01      0.234871D+01
   zx         0.124551D+01      0.184566D+00      0.205357D+00
   zy        -0.175030D+01     -0.259368D+00     -0.288585D+00
   zz         0.205217D+02      0.304100D+01      0.338357D+01

 ----------------------------------------------------------------------
 1\1\GINC-CCLEARCO\Freq\UwB97XD\6-311+G(2d)\C1F1O1(2)\RAPPE\04-Nov-2025
 \0\\#N Geom=AllCheck Guess=TCheck SCRF=Check GenChk UwB97XD/6-311+G(2d
 ) Freq\\Title Card Required\\0,2\F,2.5420647055,-1.2303196305,0.049895
 6303\C,2.4924110271,0.0929403082,0.0001333733\O,3.3867702674,0.8346803
 222,-0.0471210036\\Version=EM64M-G16RevA.03\State=2-A'\HF=-213.1035229
 \S2=0.754293\S2-1=0.\S2A=0.750013\RMSD=3.138e-09\RMSF=8.549e-05\ZeroPo
 int=0.0083083\Thermal=0.0113109\Dipole=-0.2521126,-0.1719611,0.0118951
 \DipoleDeriv=-0.142584,0.1253866,-0.002123,-0.2073,-1.2047836,0.050055
 ,0.01065,0.0430705,-0.0162829,0.6714303,0.3983181,-0.0259724,0.3217436
 ,1.9068624,-0.0737179,-0.0230325,-0.0753256,0.1661132,-0.5288463,-0.52
 37047,0.0280955,-0.1144436,-0.7020788,0.023663,0.0123825,0.0322551,-0.
 1498303\Polar=16.892878,3.1527779,19.0256048,-0.2251157,-0.3383922,11.
 9535378\Quadrupole=-0.0306096,-0.9403859,0.9709955,-0.5886056,0.043715
 ,0.0859039\PG=CS [SG(C1F1O1)]\NImag=0\\0.05015074,0.00381897,0.3315279
 6,-0.00119924,-0.01280825,0.00052915,-0.07562217,0.06985770,-0.0010947
 6,0.71740985,0.04950808,-0.24635643,0.00841859,0.35434805,0.64092855,-
 0.00031346,0.00799137,-0.00031422,-0.02866474,-0.03204429,0.00189708,0
 .02547143,-0.07367668,0.00229400,-0.64178768,-0.40385613,0.02897821,0.
 61631625,-0.05332705,-0.08517153,0.00438967,-0.42420575,-0.39457213,0.
 02405292,0.47753280,0.47974366,0.00151270,0.00481689,-0.00021492,0.029
 75950,0.02362570,-0.00158286,-0.03127220,-0.02844259,0.00179778\\0.000
 01335,0.00001830,-0.00000098,-0.00015283,-0.00011447,0.00000760,0.0001
 3948,0.00009617,-0.00000662\\\@


 TERENCE, THIS IS STUPID STUFF:
 YOU EAT YOUR VICTUALS FAST ENOUGH;
 THERE CAN'T BE MUCH AMISS, 'TIS CLEAR
 TO SEE THE RATE YOU DRINK YOUR BEER.
 BUT OH, GOOD LORD, THE VERSE YOU MAKE,
 IT GIVES A CHAP THE BELLY-ACHE.
 THE COW, THE OLD COW, SHE IS DEAD;
 IT SLEEPS WELL, THE HORNED HEAD:
 WE POOR LADS, 'TIS OUR TURN NOW
 TO HEAR SUCH TUNES AS KILLED THE COW.
 PRETTY FRIENDSHIP 'TIS TO RHYME
 YOUR FRIENDS TO DEATH BEFORE THEIR TIME.
 MOPING, MELANCHOLY MAD:
 COME PIPE A TUNE TO DANCE TO, LAD.

     -- A. E. HOUSMAN
 Job cpu time:       0 days  0 hours  5 minutes 47.8 seconds.
 Elapsed time:       0 days  0 hours  0 minutes 14.8 seconds.
 File lengths (MBytes):  RWF=     10 Int=      0 D2E=      0 Chk=      2 Scr=      1
 Normal termination of Gaussian 16 at Tue Nov  4 13:39:36 2025.
