 Entering Gaussian System, Link 0=/applications/g16/g16/g16
 Initial command:
 /applications/g16/g16/l1.exe "/scratch/g98/Gau-10486.inp" -scrdir="/scratch/g98/"
 Entering Link 1 = /applications/g16/g16/l1.exe PID=     10487.
  
 Copyright (c) 1988,1990,1992,1993,1995,1998,2003,2009,2016,
            Gaussian, Inc.  All Rights Reserved.
  
 This is part of the Gaussian(R) 16 program.  It is based on
 the Gaussian(R) 09 system (copyright 2009, Gaussian, Inc.),
 the Gaussian(R) 03 system (copyright 2003, Gaussian, Inc.),
 the Gaussian(R) 98 system (copyright 1998, Gaussian, Inc.),
 the Gaussian(R) 94 system (copyright 1995, Gaussian, Inc.),
 the Gaussian 92(TM) system (copyright 1992, Gaussian, Inc.),
 the Gaussian 90(TM) system (copyright 1990, Gaussian, Inc.),
 the Gaussian 88(TM) system (copyright 1988, Gaussian, Inc.),
 the Gaussian 86(TM) system (copyright 1986, Carnegie Mellon
 University), and the Gaussian 82(TM) system (copyright 1983,
 Carnegie Mellon University). Gaussian is a federally registered
 trademark of Gaussian, Inc.
  
 This software contains proprietary and confidential information,
 including trade secrets, belonging to Gaussian, Inc.
  
 This software is provided under written license and may be
 used, copied, transmitted, or stored only in accord with that
 written license.
  
 The following legend is applicable only to US Government
 contracts under FAR:
  
                    RESTRICTED RIGHTS LEGEND
  
 Use, reproduction and disclosure by the US Government is
 subject to restrictions as set forth in subparagraphs (a)
 and (c) of the Commercial Computer Software - Restricted
 Rights clause in FAR 52.227-19.
  
 Gaussian, Inc.
 340 Quinnipiac St., Bldg. 40, Wallingford CT 06492
  
  
 ---------------------------------------------------------------
 Warning -- This program may not be used in any manner that
 competes with the business of Gaussian, Inc. or will provide
 assistance to any competitor of Gaussian, Inc.  The licensee
 of this program is prohibited from giving any competitor of
 Gaussian, Inc. access to this program.  By using this program,
 the user acknowledges that Gaussian, Inc. is engaged in the
 business of creating and licensing software in the field of
 computational chemistry and represents and warrants to the
 licensee that it is not a competitor of Gaussian, Inc. and that
 it will not use this program in any manner prohibited above.
 ---------------------------------------------------------------
  

 Cite this work as:
 Gaussian 16, Revision A.03,
 M. J. Frisch, G. W. Trucks, H. B. Schlegel, G. E. Scuseria, 
 M. A. Robb, J. R. Cheeseman, G. Scalmani, V. Barone, 
 G. A. Petersson, H. Nakatsuji, X. Li, M. Caricato, A. V. Marenich, 
 J. Bloino, B. G. Janesko, R. Gomperts, B. Mennucci, H. P. Hratchian, 
 J. V. Ortiz, A. F. Izmaylov, J. L. Sonnenberg, D. Williams-Young, 
 F. Ding, F. Lipparini, F. Egidi, J. Goings, B. Peng, A. Petrone, 
 T. Henderson, D. Ranasinghe, V. G. Zakrzewski, J. Gao, N. Rega, 
 G. Zheng, W. Liang, M. Hada, M. Ehara, K. Toyota, R. Fukuda, 
 J. Hasegawa, M. Ishida, T. Nakajima, Y. Honda, O. Kitao, H. Nakai, 
 T. Vreven, K. Throssell, J. A. Montgomery, Jr., J. E. Peralta, 
 F. Ogliaro, M. J. Bearpark, J. J. Heyd, E. N. Brothers, K. N. Kudin, 
 V. N. Staroverov, T. A. Keith, R. Kobayashi, J. Normand, 
 K. Raghavachari, A. P. Rendell, J. C. Burant, S. S. Iyengar, 
 J. Tomasi, M. Cossi, J. M. Millam, M. Klene, C. Adamo, R. Cammi, 
 J. W. Ochterski, R. L. Martin, K. Morokuma, O. Farkas, 
 J. B. Foresman, and D. J. Fox, Gaussian, Inc., Wallingford CT, 2016.
 
 ******************************************
 Gaussian 16:  EM64M-G16RevA.03 25-Dec-2016
                24-Oct-2022 
 ******************************************
 %mem=24GB
 %nprocshared=8
 Will use up to    8 processors via shared memory.
 %chk=cooh2.chk
 ----------------------------------------------------------
 # opt wb97xd/6-311+g(2d,2p) geom=connectivity scf=xqc freq
 ----------------------------------------------------------
 1/18=20,19=15,26=3,38=1,57=2/1,3;
 2/9=110,12=2,17=6,18=5,40=1/2;
 3/5=4,6=6,7=212,11=2,25=1,30=1,71=1,74=-58/1,2,3;
 4//1;
 5/5=2,8=3,13=1,38=5/2,8;
 6/7=2,8=2,9=2,10=2,28=1/1;
 7//1,2,3,16;
 1/18=20,19=15,26=3/3(2);
 2/9=110/2;
 99//99;
 2/9=110/2;
 3/5=4,6=6,7=212,11=2,25=1,30=1,71=1,74=-58/1,2,3;
 4/5=5,16=3,69=1/1;
 5/5=2,8=3,13=1,38=5/2,8;
 7//1,2,3,16;
 1/18=20,19=15,26=3/3(-5);
 2/9=110/2;
 6/7=2,8=2,9=2,10=2,19=2,28=1/1;
 99/9=1/99;
 -------------------
 Title Card Required
 -------------------
 Symbolic Z-matrix:
 Charge =  0 Multiplicity = 1
 C                    -0.00014   0.09832  -0.00006 
 O                    -0.00035   1.29828   0.00006 
 O                    -1.08339  -0.67551   0.00009 
 H                    -1.84288  -0.0865   -0.00067 
 O                     1.08384  -0.67503   0.00003 
 H                     1.84288  -0.08542  -0.00042 
 

 GradGradGradGradGradGradGradGradGradGradGradGradGradGradGradGradGradGrad
 Berny optimization.
 Initialization pass.
                           ----------------------------
                           !    Initial Parameters    !
                           ! (Angstroms and Degrees)  !
 --------------------------                            --------------------------
 ! Name  Definition              Value          Derivative Info.                !
 --------------------------------------------------------------------------------
 ! R1    R(1,2)                  1.2            estimate D2E/DX2                !
 ! R2    R(1,3)                  1.3313         estimate D2E/DX2                !
 ! R3    R(1,5)                  1.3316         estimate D2E/DX2                !
 ! R4    R(3,4)                  0.9611         estimate D2E/DX2                !
 ! R5    R(5,6)                  0.9611         estimate D2E/DX2                !
 ! A1    A(2,1,3)              125.5302         estimate D2E/DX2                !
 ! A2    A(2,1,5)              125.5159         estimate D2E/DX2                !
 ! A3    A(3,1,5)              108.9539         estimate D2E/DX2                !
 ! A4    A(1,3,4)              106.6643         estimate D2E/DX2                !
 ! A5    A(1,5,6)              106.6551         estimate D2E/DX2                !
 ! D1    D(2,1,3,4)              0.0604         estimate D2E/DX2                !
 ! D2    D(5,1,3,4)           -179.9573         estimate D2E/DX2                !
 ! D3    D(2,1,5,6)             -0.0389         estimate D2E/DX2                !
 ! D4    D(3,1,5,6)            179.9789         estimate D2E/DX2                !
 --------------------------------------------------------------------------------
 Trust Radius=3.00D-01 FncErr=1.00D-07 GrdErr=1.00D-06 EigMax=2.50D+02 EigMin=1.00D-04
 Number of steps in this run=     24 maximum allowed number of steps=    100.
 GradGradGradGradGradGradGradGradGradGradGradGradGradGradGradGradGradGrad

                          Input orientation:                          
 ---------------------------------------------------------------------
 Center     Atomic      Atomic             Coordinates (Angstroms)
 Number     Number       Type             X           Y           Z
 ---------------------------------------------------------------------
      1          6           0       -0.000135    0.098324   -0.000059
      2          8           0       -0.000353    1.298284    0.000058
      3          8           0       -1.083389   -0.675512    0.000088
      4          1           0       -1.842877   -0.086496   -0.000670
      5          8           0        1.083842   -0.675026    0.000034
      6          1           0        1.842881   -0.085419   -0.000416
 ---------------------------------------------------------------------
                    Distance matrix (angstroms):
                    1          2          3          4          5
     1  C    0.000000
     2  O    1.199960   0.000000
     3  O    1.331263   2.251408   0.000000
     4  H    1.851987   2.304888   0.961126   0.000000
     5  O    1.331569   2.251540   2.167231   2.985306   0.000000
     6  H    1.852153   2.304809   2.985174   3.685758   0.961133
                    6
     6  H    0.000000
 Stoichiometry    CH2O3
 Framework group  C1[X(CH2O3)]
 Deg. of freedom    12
 Full point group                 C1      NOp   1
 Largest Abelian subgroup         C1      NOp   1
 Largest concise Abelian subgroup C1      NOp   1
                         Standard orientation:                         
 ---------------------------------------------------------------------
 Center     Atomic      Atomic             Coordinates (Angstroms)
 Number     Number       Type             X           Y           Z
 ---------------------------------------------------------------------
      1          6           0        0.000135    0.098324    0.000059
      2          8           0        0.000352    1.298284   -0.000058
      3          8           0        1.083389   -0.675511   -0.000088
      4          1           0        1.842877   -0.086494    0.000670
      5          8           0       -1.083842   -0.675027   -0.000034
      6          1           0       -1.842881   -0.085421    0.000416
 ---------------------------------------------------------------------
 Rotational constants (GHZ):          12.1259403          11.3801695           5.8706124
 Standard basis: 6-311+G(2d,2p) (5D, 7F)
 There are   134 symmetry adapted cartesian basis functions of A   symmetry.
 There are   126 symmetry adapted basis functions of A   symmetry.
   126 basis functions,   190 primitive gaussians,   134 cartesian basis functions
    16 alpha electrons       16 beta electrons
       nuclear repulsion energy       123.9262407571 Hartrees.
 NAtoms=    6 NActive=    6 NUniq=    6 SFac= 1.00D+00 NAtFMM=   60 NAOKFM=F Big=F
 Integral buffers will be    131072 words long.
 Raffenetti 2 integral format.
 Two-electron integral symmetry is turned on.
 Nuclear repulsion after empirical dispersion term =      123.9256019513 Hartrees.
 One-electron integrals computed using PRISM.
 NBasis=   126 RedAO= T EigKep=  7.84D-04  NBF=   126
 NBsUse=   126 1.00D-06 EigRej= -1.00D+00 NBFU=   126
 ExpMin= 4.38D-02 ExpMax= 8.59D+03 ExpMxC= 1.30D+03 IAcc=3 IRadAn=         5 AccDes= 0.00D+00
 Harris functional with IExCor= 4639 and IRadAn=       5 diagonalized for initial guess.
 HarFok:  IExCor= 4639 AccDes= 0.00D+00 IRadAn=         5 IDoV= 1 UseB2=F ITyADJ=14
 ICtDFT=  3500011 ScaDFX=  1.000000  1.000000  1.000000  1.000000
 FoFCou: FMM=F IPFlag=           0 FMFlag=      100000 FMFlg1=           0
         NFxFlg=           0 DoJE=T BraDBF=F KetDBF=T FulRan=T
         wScrn=  0.000000 ICntrl=       500 IOpCl=  0 I1Cent=   200000004 NGrid=           0
         NMat0=    1 NMatS0=      1 NMatT0=    0 NMatD0=    1 NMtDS0=    0 NMtDT0=    0
 Petite list used in FoFCou.
 Keep R1 ints in memory in canonical form, NReq=71692032.
 Requested convergence on RMS density matrix=1.00D-08 within  32 cycles.
 Requested convergence on MAX density matrix=1.00D-06.
 Requested convergence on             energy=1.00D-06.
 No special actions if energy rises.
 SCF Done:  E(RwB97XD) =  -265.018837291     A.U. after   12 cycles
            NFock= 12  Conv=0.18D-08     -V/T= 2.0029
 QCSCF skips out because SCF is already converged.

 **********************************************************************

            Population analysis using the SCF density.

 **********************************************************************

 Orbital symmetries:
       Occupied  (A) (A) (A) (A) (A) (A) (A) (A) (A) (A) (A) (A)
                 (A) (A) (A) (A)
       Virtual   (A) (A) (A) (A) (A) (A) (A) (A) (A) (A) (A) (A)
                 (A) (A) (A) (A) (A) (A) (A) (A) (A) (A) (A) (A)
                 (A) (A) (A) (A) (A) (A) (A) (A) (A) (A) (A) (A)
                 (A) (A) (A) (A) (A) (A) (A) (A) (A) (A) (A) (A)
                 (A) (A) (A) (A) (A) (A) (A) (A) (A) (A) (A) (A)
                 (A) (A) (A) (A) (A) (A) (A) (A) (A) (A) (A) (A)
                 (A) (A) (A) (A) (A) (A) (A) (A) (A) (A) (A) (A)
                 (A) (A) (A) (A) (A) (A) (A) (A) (A) (A) (A) (A)
                 (A) (A) (A) (A) (A) (A) (A) (A) (A) (A) (A) (A)
                 (A) (A)
 The electronic state is 1-A.
 Alpha  occ. eigenvalues --  -19.31876 -19.31869 -19.25006 -10.48106  -1.27615
 Alpha  occ. eigenvalues --   -1.18412  -1.14434  -0.79086  -0.65571  -0.60844
 Alpha  occ. eigenvalues --   -0.59604  -0.56604  -0.51233  -0.45912  -0.42278
 Alpha  occ. eigenvalues --   -0.39655
 Alpha virt. eigenvalues --    0.05662   0.07888   0.09712   0.10888   0.10990
 Alpha virt. eigenvalues --    0.16577   0.21001   0.23894   0.24402   0.25148
 Alpha virt. eigenvalues --    0.26260   0.27296   0.27986   0.32862   0.33366
 Alpha virt. eigenvalues --    0.34009   0.34164   0.36658   0.39378   0.40118
 Alpha virt. eigenvalues --    0.43921   0.50085   0.59259   0.61195   0.64928
 Alpha virt. eigenvalues --    0.67962   0.68850   0.73007   0.74002   0.80976
 Alpha virt. eigenvalues --    0.85135   0.86696   0.96949   0.97628   1.02074
 Alpha virt. eigenvalues --    1.06611   1.09523   1.09824   1.11934   1.15081
 Alpha virt. eigenvalues --    1.17945   1.21052   1.22558   1.24212   1.43018
 Alpha virt. eigenvalues --    1.43472   1.50654   1.55550   1.58051   1.60397
 Alpha virt. eigenvalues --    1.61137   1.74336   1.78821   1.79729   1.82971
 Alpha virt. eigenvalues --    1.90224   1.90346   2.15834   2.23876   2.24837
 Alpha virt. eigenvalues --    2.30228   2.34264   2.47143   2.58633   2.69366
 Alpha virt. eigenvalues --    2.69988   2.89035   2.91234   2.93178   3.29790
 Alpha virt. eigenvalues --    3.37854   3.45929   3.53887   3.66289   3.75694
 Alpha virt. eigenvalues --    3.83856   3.85133   3.90069   4.05049   4.11096
 Alpha virt. eigenvalues --    4.23675   4.28671   5.05132   5.07626   5.13026
 Alpha virt. eigenvalues --    5.26674   5.43427   5.69889   5.86683   6.29718
 Alpha virt. eigenvalues --    6.29989   6.82998   6.88132   6.93621   6.93879
 Alpha virt. eigenvalues --    6.99155   7.09599   7.09844   7.16985   7.20229
 Alpha virt. eigenvalues --    7.25363   7.29099   7.36829   7.45758   7.48572
 Alpha virt. eigenvalues --    7.61063  24.23373  50.03686  50.05018  50.12384
          Condensed to atoms (all electrons):
               1          2          3          4          5          6
     1  C    4.226832   0.433918   0.340111  -0.022317   0.339991  -0.022311
     2  O    0.433918   8.170576  -0.070067   0.015263  -0.070051   0.015261
     3  O    0.340111  -0.070067   7.889037   0.251860  -0.021034   0.000361
     4  H   -0.022317   0.015263   0.251860   0.470744   0.000367  -0.001857
     5  O    0.339991  -0.070051  -0.021034   0.000367   7.889371   0.251842
     6  H   -0.022311   0.015261   0.000361  -0.001857   0.251842   0.470765
 Mulliken charges:
               1
     1  C    0.703777
     2  O   -0.494900
     3  O   -0.390269
     4  H    0.285939
     5  O   -0.390487
     6  H    0.285939
 Sum of Mulliken charges =  -0.00000
 Mulliken charges with hydrogens summed into heavy atoms:
               1
     1  C    0.703777
     2  O   -0.494900
     3  O   -0.104329
     5  O   -0.104548
 Electronic spatial extent (au):  <R**2>=            214.3795
 Charge=             -0.0000 electrons
 Dipole moment (field-independent basis, Debye):
    X=              0.0018    Y=             -0.2784    Z=              0.0023  Tot=              0.2785
 Quadrupole moment (field-independent basis, Debye-Ang):
   XX=            -14.1163   YY=            -28.8751   ZZ=            -22.3297
   XY=             -0.0054   XZ=              0.0012   YZ=              0.0002
 Traceless Quadrupole moment (field-independent basis, Debye-Ang):
   XX=              7.6574   YY=             -7.1014   ZZ=             -0.5560
   XY=             -0.0054   XZ=              0.0012   YZ=              0.0002
 Octapole moment (field-independent basis, Debye-Ang**2):
  XXX=              0.0077  YYY=             -4.6541  ZZZ=              0.0005  XYY=             -0.0012
  XXY=              2.3720  XXZ=              0.0092  XZZ=              0.0011  YZZ=              0.0170
  YYZ=             -0.0006  XYZ=             -0.0001
 Hexadecapole moment (field-independent basis, Debye-Ang**3):
 XXXX=            -66.6426 YYYY=           -116.7389 ZZZZ=            -18.5144 XXXY=             -0.0218
 XXXZ=              0.0046 YYYX=             -0.0040 YYYZ=              0.0004 ZZZX=              0.0006
 ZZZY=             -0.0000 XXYY=            -40.7373 XXZZ=            -22.8961 YYZZ=            -21.7368
 XXYZ=             -0.0004 YYXZ=              0.0002 ZZXY=             -0.0014
 N-N= 1.239256019513D+02 E-N=-8.729240909751D+02  KE= 2.642608550100D+02
 Calling FoFJK, ICntrl=      2127 FMM=F ISym2X=0 I1Cent= 0 IOpClX= 0 NMat=1 NMatS=1 NMatT=0.
 ***** Axes restored to original set *****
 -------------------------------------------------------------------
 Center     Atomic                   Forces (Hartrees/Bohr)
 Number     Number              X              Y              Z
 -------------------------------------------------------------------
      1        6           0.000192721   -0.000249487    0.000054285
      2        8          -0.000012582    0.000163027   -0.000030567
      3        8          -0.000108319   -0.000007758   -0.000032718
      4        1           0.000024980   -0.000006273    0.000018736
      5        8          -0.000063626    0.000113266   -0.000022355
      6        1          -0.000033174   -0.000012775    0.000012619
 -------------------------------------------------------------------
 Cartesian Forces:  Max     0.000249487 RMS     0.000095067

 GradGradGradGradGradGradGradGradGradGradGradGradGradGradGradGradGradGrad
 Berny optimization.
 FormGI is forming the generalized inverse of G from B-inverse, IUseBI=4.
 Internal  Forces:  Max     0.000163026 RMS     0.000066526
 Search for a local minimum.
 Step number   1 out of a maximum of   24
 All quantities printed in internal units (Hartrees-Bohrs-Radians)
 Mixed Optimization -- En-DIIS/RFO-DIIS
 Second derivative matrix not updated -- first step.
 The second derivative matrix:
                          R1        R2        R3        R4        R5
           R1           1.04843
           R2           0.00000   0.59208
           R3           0.00000   0.00000   0.59137
           R4           0.00000   0.00000   0.00000   0.55232
           R5           0.00000   0.00000   0.00000   0.00000   0.55230
           A1           0.00000   0.00000   0.00000   0.00000   0.00000
           A2           0.00000   0.00000   0.00000   0.00000   0.00000
           A3           0.00000   0.00000   0.00000   0.00000   0.00000
           A4           0.00000   0.00000   0.00000   0.00000   0.00000
           A5           0.00000   0.00000   0.00000   0.00000   0.00000
           D1           0.00000   0.00000   0.00000   0.00000   0.00000
           D2           0.00000   0.00000   0.00000   0.00000   0.00000
           D3           0.00000   0.00000   0.00000   0.00000   0.00000
           D4           0.00000   0.00000   0.00000   0.00000   0.00000
                          A1        A2        A3        A4        A5
           A1           0.25000
           A2           0.00000   0.25000
           A3           0.00000   0.00000   0.25000
           A4           0.00000   0.00000   0.00000   0.16000
           A5           0.00000   0.00000   0.00000   0.00000   0.16000
           D1           0.00000   0.00000   0.00000   0.00000   0.00000
           D2           0.00000   0.00000   0.00000   0.00000   0.00000
           D3           0.00000   0.00000   0.00000   0.00000   0.00000
           D4           0.00000   0.00000   0.00000   0.00000   0.00000
                          D1        D2        D3        D4
           D1           0.02601
           D2           0.00000   0.02601
           D3           0.00000   0.00000   0.02597
           D4           0.00000   0.00000   0.00000   0.02597
 ITU=  0
     Eigenvalues ---    0.02597   0.02599   0.02601   0.16000   0.16000
     Eigenvalues ---    0.25000   0.25000   0.55230   0.55232   0.59137
     Eigenvalues ---    0.59208   1.04843
 RFO step:  Lambda=-1.64062574D-07 EMin= 2.59698951D-02
 Linear search not attempted -- first point.
 Iteration  1 RMS(Cart)=  0.00028285 RMS(Int)=  0.00000017
 Iteration  2 RMS(Cart)=  0.00000015 RMS(Int)=  0.00000009
 Variable       Old X    -DE/DX   Delta X   Delta X   Delta X     New X
                                 (Linear)    (Quad)   (Total)
    R1        2.26760   0.00016   0.00000   0.00016   0.00016   2.26775
    R2        2.51572   0.00008   0.00000   0.00013   0.00013   2.51585
    R3        2.51630  -0.00014   0.00000  -0.00023  -0.00023   2.51607
    R4        1.81626  -0.00002   0.00000  -0.00004  -0.00004   1.81622
    R5        1.81628  -0.00003   0.00000  -0.00006  -0.00006   1.81622
    A1        2.19091  -0.00005   0.00000  -0.00019  -0.00019   2.19073
    A2        2.19067  -0.00002   0.00000  -0.00007  -0.00007   2.19059
    A3        1.90160   0.00006   0.00000   0.00026   0.00026   1.90186
    A4        1.86164  -0.00002   0.00000  -0.00012  -0.00012   1.86153
    A5        1.86148  -0.00002   0.00000  -0.00012  -0.00012   1.86137
    D1        0.00105  -0.00003   0.00000  -0.00119  -0.00119  -0.00013
    D2       -3.14085  -0.00000   0.00000  -0.00006  -0.00006  -3.14091
    D3       -0.00068   0.00003   0.00000   0.00099   0.00099   0.00031
    D4        3.14122  -0.00000   0.00000  -0.00014  -0.00014   3.14108
         Item               Value     Threshold  Converged?
 Maximum Force            0.000163     0.000450     YES
 RMS     Force            0.000067     0.000300     YES
 Maximum Displacement     0.000494     0.001800     YES
 RMS     Displacement     0.000283     0.001200     YES
 Predicted change in Energy=-8.203129D-08
 Optimization completed.
    -- Stationary point found.
                           ----------------------------
                           !   Optimized Parameters   !
                           ! (Angstroms and Degrees)  !
 --------------------------                            --------------------------
 ! Name  Definition              Value          Derivative Info.                !
 --------------------------------------------------------------------------------
 ! R1    R(1,2)                  1.2            -DE/DX =    0.0002              !
 ! R2    R(1,3)                  1.3313         -DE/DX =    0.0001              !
 ! R3    R(1,5)                  1.3316         -DE/DX =   -0.0001              !
 ! R4    R(3,4)                  0.9611         -DE/DX =    0.0                 !
 ! R5    R(5,6)                  0.9611         -DE/DX =    0.0                 !
 ! A1    A(2,1,3)              125.5302         -DE/DX =    0.0                 !
 ! A2    A(2,1,5)              125.5159         -DE/DX =    0.0                 !
 ! A3    A(3,1,5)              108.9539         -DE/DX =    0.0001              !
 ! A4    A(1,3,4)              106.6643         -DE/DX =    0.0                 !
 ! A5    A(1,5,6)              106.6551         -DE/DX =    0.0                 !
 ! D1    D(2,1,3,4)              0.0604         -DE/DX =    0.0                 !
 ! D2    D(5,1,3,4)           -179.9573         -DE/DX =    0.0                 !
 ! D3    D(2,1,5,6)             -0.0389         -DE/DX =    0.0                 !
 ! D4    D(3,1,5,6)            179.9789         -DE/DX =    0.0                 !
 --------------------------------------------------------------------------------
 GradGradGradGradGradGradGradGradGradGradGradGradGradGradGradGradGradGrad

                          Input orientation:                          
 ---------------------------------------------------------------------
 Center     Atomic      Atomic             Coordinates (Angstroms)
 Number     Number       Type             X           Y           Z
 ---------------------------------------------------------------------
      1          6           0       -0.000135    0.098324   -0.000059
      2          8           0       -0.000353    1.298284    0.000058
      3          8           0       -1.083389   -0.675512    0.000088
      4          1           0       -1.842877   -0.086496   -0.000670
      5          8           0        1.083842   -0.675026    0.000034
      6          1           0        1.842881   -0.085419   -0.000416
 ---------------------------------------------------------------------
                    Distance matrix (angstroms):
                    1          2          3          4          5
     1  C    0.000000
     2  O    1.199960   0.000000
     3  O    1.331263   2.251408   0.000000
     4  H    1.851987   2.304888   0.961126   0.000000
     5  O    1.331569   2.251540   2.167231   2.985306   0.000000
     6  H    1.852153   2.304809   2.985174   3.685758   0.961133
                    6
     6  H    0.000000
 Stoichiometry    CH2O3
 Framework group  C1[X(CH2O3)]
 Deg. of freedom    12
 Full point group                 C1      NOp   1
 Largest Abelian subgroup         C1      NOp   1
 Largest concise Abelian subgroup C1      NOp   1
                         Standard orientation:                         
 ---------------------------------------------------------------------
 Center     Atomic      Atomic             Coordinates (Angstroms)
 Number     Number       Type             X           Y           Z
 ---------------------------------------------------------------------
      1          6           0        0.000135    0.098324    0.000059
      2          8           0        0.000352    1.298284   -0.000058
      3          8           0        1.083389   -0.675511   -0.000088
      4          1           0        1.842877   -0.086494    0.000670
      5          8           0       -1.083842   -0.675027   -0.000034
      6          1           0       -1.842881   -0.085421    0.000416
 ---------------------------------------------------------------------
 Rotational constants (GHZ):          12.1259403          11.3801695           5.8706124
 1\1\GINC-CCLEARCO2\FOpt\RwB97XD\6-311+G(2d,2p)\C1H2O3\RAPPE\24-Oct-202
 2\0\\# opt wb97xd/6-311+g(2d,2p) geom=connectivity scf=xqc freq\\Title
  Card Required\\0,1\C,-0.000135,0.098324,-0.000059\O,-0.000353,1.29828
 4,0.000058\O,-1.083389,-0.675512,0.000088\H,-1.842877,-0.086496,-0.000
 67\O,1.083842,-0.675026,0.000034\H,1.842881,-0.085419,-0.000416\\Versi
 on=EM64M-G16RevA.03\State=1-A\HF=-265.0188373\RMSD=1.767e-09\RMSF=9.50
 7e-05\Dipole=-0.0006916,-0.1095454,-0.0008914\Quadrupole=5.6931089,-5.
 2797217,-0.4133873,0.0040449,0.0008912,-0.0001457\PG=C01 [X(C1H2O3)]\\
 @


 The juvenile sea squirt wanders through the sea searching
 for a suitable rock or hunk of coral to cling to and make
 its home for life.  For this task it has a rudimentary
 nervous system.  When it finds its spot and takes root, it
 doesn't need its brain any more so it eats it.
 It's rather like getting tenure.

                               -- source unknown
 Job cpu time:       0 days  0 hours  1 minutes 23.6 seconds.
 Elapsed time:       0 days  0 hours  0 minutes 11.3 seconds.
 File lengths (MBytes):  RWF=     10 Int=      0 D2E=      0 Chk=      2 Scr=      1
 Normal termination of Gaussian 16 at Mon Oct 24 09:38:48 2022.
 Link1:  Proceeding to internal job step number  2.
 ----------------------------------------------------------------------
 #N Geom=AllCheck Guess=TCheck SCRF=Check GenChk RwB97XD/6-311+G(2d,2p)
  Freq
 ----------------------------------------------------------------------
 1/10=4,29=7,30=1,38=1,40=1/1,3;
 2/12=2,40=1/2;
 3/5=4,6=6,7=212,11=2,14=-4,25=1,30=1,70=2,71=2,74=-58,116=1,140=1/1,2,3;
 4/5=101/1;
 5/5=2,8=3,13=1,38=6,98=1/2,8;
 8/6=4,10=90,11=11/1;
 11/6=1,8=1,9=11,15=111,16=1/1,2,10;
 10/6=1/2;
 6/7=2,8=2,9=2,10=2,28=1/1;
 7/8=1,10=1,25=1/1,2,3,16;
 1/10=4,30=1/3;
 99//99;
 Structure from the checkpoint file:  "cooh2.chk"
 -------------------
 Title Card Required
 -------------------
 Charge =  0 Multiplicity = 1
 Redundant internal coordinates found in file.  (old form).
 C,0,-0.000135,0.098324,-0.000059
 O,0,-0.000353,1.298284,0.000058
 O,0,-1.083389,-0.675512,0.000088
 H,0,-1.842877,-0.086496,-0.00067
 O,0,1.083842,-0.675026,0.000034
 H,0,1.842881,-0.085419,-0.000416
 Recover connectivity data from disk.

 GradGradGradGradGradGradGradGradGradGradGradGradGradGradGradGradGradGrad
 Berny optimization.
 Initialization pass.
                           ----------------------------
                           !    Initial Parameters    !
                           ! (Angstroms and Degrees)  !
 --------------------------                            --------------------------
 ! Name  Definition              Value          Derivative Info.                !
 --------------------------------------------------------------------------------
 ! R1    R(1,2)                  1.2            calculate D2E/DX2 analytically  !
 ! R2    R(1,3)                  1.3313         calculate D2E/DX2 analytically  !
 ! R3    R(1,5)                  1.3316         calculate D2E/DX2 analytically  !
 ! R4    R(3,4)                  0.9611         calculate D2E/DX2 analytically  !
 ! R5    R(5,6)                  0.9611         calculate D2E/DX2 analytically  !
 ! A1    A(2,1,3)              125.5302         calculate D2E/DX2 analytically  !
 ! A2    A(2,1,5)              125.5159         calculate D2E/DX2 analytically  !
 ! A3    A(3,1,5)              108.9539         calculate D2E/DX2 analytically  !
 ! A4    A(1,3,4)              106.6643         calculate D2E/DX2 analytically  !
 ! A5    A(1,5,6)              106.6551         calculate D2E/DX2 analytically  !
 ! D1    D(2,1,3,4)              0.0604         calculate D2E/DX2 analytically  !
 ! D2    D(5,1,3,4)           -179.9573         calculate D2E/DX2 analytically  !
 ! D3    D(2,1,5,6)             -0.0389         calculate D2E/DX2 analytically  !
 ! D4    D(3,1,5,6)            179.9789         calculate D2E/DX2 analytically  !
 --------------------------------------------------------------------------------
 Trust Radius=3.00D-01 FncErr=1.00D-07 GrdErr=1.00D-07 EigMax=2.50D+02 EigMin=1.00D-04
 Number of steps in this run=      2 maximum allowed number of steps=      2.
 GradGradGradGradGradGradGradGradGradGradGradGradGradGradGradGradGradGrad

                          Input orientation:                          
 ---------------------------------------------------------------------
 Center     Atomic      Atomic             Coordinates (Angstroms)
 Number     Number       Type             X           Y           Z
 ---------------------------------------------------------------------
      1          6           0       -0.000135    0.098324   -0.000059
      2          8           0       -0.000353    1.298284    0.000058
      3          8           0       -1.083389   -0.675512    0.000088
      4          1           0       -1.842877   -0.086496   -0.000670
      5          8           0        1.083842   -0.675026    0.000034
      6          1           0        1.842881   -0.085419   -0.000416
 ---------------------------------------------------------------------
                    Distance matrix (angstroms):
                    1          2          3          4          5
     1  C    0.000000
     2  O    1.199960   0.000000
     3  O    1.331263   2.251408   0.000000
     4  H    1.851987   2.304888   0.961126   0.000000
     5  O    1.331569   2.251540   2.167231   2.985306   0.000000
     6  H    1.852153   2.304809   2.985174   3.685758   0.961133
                    6
     6  H    0.000000
 Stoichiometry    CH2O3
 Framework group  C1[X(CH2O3)]
 Deg. of freedom    12
 Full point group                 C1      NOp   1
 Largest Abelian subgroup         C1      NOp   1
 Largest concise Abelian subgroup C1      NOp   1
                         Standard orientation:                         
 ---------------------------------------------------------------------
 Center     Atomic      Atomic             Coordinates (Angstroms)
 Number     Number       Type             X           Y           Z
 ---------------------------------------------------------------------
      1          6           0        0.000135    0.098324    0.000059
      2          8           0        0.000352    1.298284   -0.000058
      3          8           0        1.083389   -0.675511   -0.000088
      4          1           0        1.842877   -0.086494    0.000670
      5          8           0       -1.083842   -0.675027   -0.000034
      6          1           0       -1.842881   -0.085421    0.000416
 ---------------------------------------------------------------------
 Rotational constants (GHZ):          12.1259403          11.3801695           5.8706124
 Standard basis: 6-311+G(2d,2p) (5D, 7F)
 There are   134 symmetry adapted cartesian basis functions of A   symmetry.
 There are   126 symmetry adapted basis functions of A   symmetry.
   126 basis functions,   190 primitive gaussians,   134 cartesian basis functions
    16 alpha electrons       16 beta electrons
       nuclear repulsion energy       123.9262407571 Hartrees.
 NAtoms=    6 NActive=    6 NUniq=    6 SFac= 1.00D+00 NAtFMM=   60 NAOKFM=F Big=F
 Integral buffers will be    131072 words long.
 Raffenetti 2 integral format.
 Two-electron integral symmetry is turned on.
 Nuclear repulsion after empirical dispersion term =      123.9256019513 Hartrees.
 One-electron integrals computed using PRISM.
 NBasis=   126 RedAO= T EigKep=  7.84D-04  NBF=   126
 NBsUse=   126 1.00D-06 EigRej= -1.00D+00 NBFU=   126
 Initial guess from the checkpoint file:  "cooh2.chk"
 B after Tr=     0.000000   -0.000000    0.000000
         Rot=    1.000000    0.000000    0.000000   -0.000000 Ang=   0.00 deg.
 Keep R1 ints in memory in canonical form, NReq=71692032.
 Requested convergence on RMS density matrix=1.00D-08 within  32 cycles.
 Requested convergence on MAX density matrix=1.00D-06.
 Requested convergence on             energy=1.00D-06.
 No special actions if energy rises.
 SCF Done:  E(RwB97XD) =  -265.018837291     A.U. after    1 cycles
            NFock=  1  Conv=0.69D-09     -V/T= 2.0029
 QCSCF skips out because SCF is already converged.
 DoSCS=F DFT=T ScalE2(SS,OS)=  1.000000  1.000000
 Range of M.O.s used for correlation:     1   126
 NBasis=   126 NAE=    16 NBE=    16 NFC=     0 NFV=     0
 NROrb=    126 NOA=    16 NOB=    16 NVA=   110 NVB=   110

 **** Warning!!: The largest alpha MO coefficient is  0.11612806D+02

 Symmetrizing basis deriv contribution to polar:
 IMax=3 JMax=2 DiffMx= 0.00D+00
 G2DrvN: will do     7 centers at a time, making    1 passes.
 Calling FoFCou, ICntrl=  3107 FMM=F I1Cent=   0 AccDes= 0.00D+00.
 End of G2Drv F.D. properties file   721 does not exist.
 End of G2Drv F.D. properties file   722 does not exist.
 End of G2Drv F.D. properties file   788 does not exist.
          IDoAtm=111111
          Differentiating once with respect to electric field.
                with respect to dipole field.
          Differentiating once with respect to nuclear coordinates.
 Keep R1 ints in memory in canonical form, NReq=71669780.
          There are    21 degrees of freedom in the 1st order CPHF.  IDoFFX=6 NUNeed=     3.
     18 vectors produced by pass  0 Test12= 8.38D-15 4.76D-09 XBig12= 1.09D+01 2.08D+00.
 AX will form    18 AO Fock derivatives at one time.
     18 vectors produced by pass  1 Test12= 8.38D-15 4.76D-09 XBig12= 3.41D+00 6.20D-01.
     18 vectors produced by pass  2 Test12= 8.38D-15 4.76D-09 XBig12= 1.15D-01 8.86D-02.
     18 vectors produced by pass  3 Test12= 8.38D-15 4.76D-09 XBig12= 1.90D-03 1.11D-02.
     18 vectors produced by pass  4 Test12= 8.38D-15 4.76D-09 XBig12= 2.92D-05 1.41D-03.
     18 vectors produced by pass  5 Test12= 8.38D-15 4.76D-09 XBig12= 2.88D-07 1.38D-04.
     18 vectors produced by pass  6 Test12= 8.38D-15 4.76D-09 XBig12= 1.69D-09 9.96D-06.
      8 vectors produced by pass  7 Test12= 8.38D-15 4.76D-09 XBig12= 1.17D-11 1.03D-06.
      2 vectors produced by pass  8 Test12= 8.38D-15 4.76D-09 XBig12= 6.76D-14 6.26D-08.
 InvSVY:  IOpt=1 It=  1 EMax= 2.22D-15
 Solved reduced A of dimension   136 with    21 vectors.
 Isotropic polarizability for W=    0.000000       24.29 Bohr**3.
 End of Minotr F.D. properties file   721 does not exist.
 End of Minotr F.D. properties file   722 does not exist.
 End of Minotr F.D. properties file   788 does not exist.

 **********************************************************************

            Population analysis using the SCF density.

 **********************************************************************

 Orbital symmetries:
       Occupied  (A) (A) (A) (A) (A) (A) (A) (A) (A) (A) (A) (A)
                 (A) (A) (A) (A)
       Virtual   (A) (A) (A) (A) (A) (A) (A) (A) (A) (A) (A) (A)
                 (A) (A) (A) (A) (A) (A) (A) (A) (A) (A) (A) (A)
                 (A) (A) (A) (A) (A) (A) (A) (A) (A) (A) (A) (A)
                 (A) (A) (A) (A) (A) (A) (A) (A) (A) (A) (A) (A)
                 (A) (A) (A) (A) (A) (A) (A) (A) (A) (A) (A) (A)
                 (A) (A) (A) (A) (A) (A) (A) (A) (A) (A) (A) (A)
                 (A) (A) (A) (A) (A) (A) (A) (A) (A) (A) (A) (A)
                 (A) (A) (A) (A) (A) (A) (A) (A) (A) (A) (A) (A)
                 (A) (A) (A) (A) (A) (A) (A) (A) (A) (A) (A) (A)
                 (A) (A)
 The electronic state is 1-A.
 Alpha  occ. eigenvalues --  -19.31876 -19.31869 -19.25006 -10.48106  -1.27615
 Alpha  occ. eigenvalues --   -1.18412  -1.14434  -0.79086  -0.65571  -0.60844
 Alpha  occ. eigenvalues --   -0.59604  -0.56604  -0.51233  -0.45912  -0.42278
 Alpha  occ. eigenvalues --   -0.39655
 Alpha virt. eigenvalues --    0.05662   0.07888   0.09712   0.10888   0.10990
 Alpha virt. eigenvalues --    0.16577   0.21001   0.23894   0.24402   0.25148
 Alpha virt. eigenvalues --    0.26260   0.27296   0.27986   0.32862   0.33366
 Alpha virt. eigenvalues --    0.34009   0.34164   0.36658   0.39378   0.40118
 Alpha virt. eigenvalues --    0.43921   0.50085   0.59259   0.61195   0.64928
 Alpha virt. eigenvalues --    0.67962   0.68850   0.73007   0.74002   0.80976
 Alpha virt. eigenvalues --    0.85135   0.86696   0.96949   0.97628   1.02074
 Alpha virt. eigenvalues --    1.06611   1.09523   1.09824   1.11934   1.15081
 Alpha virt. eigenvalues --    1.17945   1.21052   1.22558   1.24212   1.43018
 Alpha virt. eigenvalues --    1.43472   1.50654   1.55550   1.58051   1.60397
 Alpha virt. eigenvalues --    1.61137   1.74336   1.78821   1.79729   1.82971
 Alpha virt. eigenvalues --    1.90224   1.90346   2.15834   2.23876   2.24837
 Alpha virt. eigenvalues --    2.30228   2.34264   2.47143   2.58633   2.69366
 Alpha virt. eigenvalues --    2.69988   2.89035   2.91234   2.93178   3.29790
 Alpha virt. eigenvalues --    3.37854   3.45929   3.53887   3.66289   3.75694
 Alpha virt. eigenvalues --    3.83856   3.85133   3.90069   4.05049   4.11096
 Alpha virt. eigenvalues --    4.23675   4.28671   5.05132   5.07626   5.13026
 Alpha virt. eigenvalues --    5.26674   5.43427   5.69889   5.86683   6.29718
 Alpha virt. eigenvalues --    6.29989   6.82998   6.88132   6.93621   6.93879
 Alpha virt. eigenvalues --    6.99155   7.09599   7.09844   7.16985   7.20229
 Alpha virt. eigenvalues --    7.25363   7.29099   7.36829   7.45758   7.48572
 Alpha virt. eigenvalues --    7.61063  24.23373  50.03686  50.05018  50.12384
          Condensed to atoms (all electrons):
               1          2          3          4          5          6
     1  C    4.226832   0.433918   0.340111  -0.022317   0.339991  -0.022311
     2  O    0.433918   8.170576  -0.070067   0.015263  -0.070051   0.015261
     3  O    0.340111  -0.070067   7.889037   0.251860  -0.021034   0.000361
     4  H   -0.022317   0.015263   0.251860   0.470744   0.000367  -0.001857
     5  O    0.339991  -0.070051  -0.021034   0.000367   7.889371   0.251842
     6  H   -0.022311   0.015261   0.000361  -0.001857   0.251842   0.470765
 Mulliken charges:
               1
     1  C    0.703777
     2  O   -0.494900
     3  O   -0.390269
     4  H    0.285940
     5  O   -0.390487
     6  H    0.285939
 Sum of Mulliken charges =  -0.00000
 Mulliken charges with hydrogens summed into heavy atoms:
               1
     1  C    0.703777
     2  O   -0.494900
     3  O   -0.104329
     5  O   -0.104548
 APT charges:
               1
     1  C    1.563210
     2  O   -0.815913
     3  O   -0.696896
     4  H    0.323276
     5  O   -0.696873
     6  H    0.323195
 Sum of APT charges =  -0.00000
 APT charges with hydrogens summed into heavy atoms:
               1
     1  C    1.563210
     2  O   -0.815913
     3  O   -0.373619
     5  O   -0.373678
 Electronic spatial extent (au):  <R**2>=            214.3795
 Charge=             -0.0000 electrons
 Dipole moment (field-independent basis, Debye):
    X=              0.0018    Y=             -0.2784    Z=              0.0023  Tot=              0.2785
 Quadrupole moment (field-independent basis, Debye-Ang):
   XX=            -14.1163   YY=            -28.8751   ZZ=            -22.3297
   XY=             -0.0054   XZ=              0.0012   YZ=              0.0002
 Traceless Quadrupole moment (field-independent basis, Debye-Ang):
   XX=              7.6574   YY=             -7.1014   ZZ=             -0.5560
   XY=             -0.0054   XZ=              0.0012   YZ=              0.0002
 Octapole moment (field-independent basis, Debye-Ang**2):
  XXX=              0.0077  YYY=             -4.6540  ZZZ=              0.0005  XYY=             -0.0012
  XXY=              2.3720  XXZ=              0.0092  XZZ=              0.0011  YZZ=              0.0170
  YYZ=             -0.0006  XYZ=             -0.0001
 Hexadecapole moment (field-independent basis, Debye-Ang**3):
 XXXX=            -66.6426 YYYY=           -116.7389 ZZZZ=            -18.5144 XXXY=             -0.0218
 XXXZ=              0.0046 YYYX=             -0.0040 YYYZ=              0.0004 ZZZX=              0.0006
 ZZZY=             -0.0000 XXYY=            -40.7373 XXZZ=            -22.8961 YYZZ=            -21.7368
 XXYZ=             -0.0004 YYXZ=              0.0002 ZZXY=             -0.0014
 N-N= 1.239256019513D+02 E-N=-8.729240907337D+02  KE= 2.642608548868D+02
  Exact polarizability:  27.903   0.001  28.002   0.000   0.000  16.962
 Approx polarizability:  27.922   0.001  31.791   0.000   0.001  18.430
 Calling FoFJK, ICntrl=    100127 FMM=F ISym2X=0 I1Cent= 0 IOpClX= 0 NMat=1 NMatS=1 NMatT=0.
 Full mass-weighted force constant matrix:
 Low frequencies ---   -0.0014   -0.0010   -0.0010    8.2296   13.5687   13.6042
 Low frequencies ---  538.7217  558.0535  606.6146
 Diagonal vibrational polarizability:
       14.1998368       6.2238434      18.3264660
 Harmonic frequencies (cm**-1), IR intensities (KM/Mole), Raman scattering
 activities (A**4/AMU), depolarization ratios for plane and unpolarized
 incident light, reduced masses (AMU), force constants (mDyne/A),
 and normal coordinates:
                      1                      2                      3
                      A                      A                      A
 Frequencies --    538.7214               558.0535               606.6143
 Red. masses --      1.1780                 4.7636                 1.0528
 Frc consts  --      0.2014                 0.8741                 0.2282
 IR Inten    --      0.0000                 7.1789               219.4551
  Atom  AN      X      Y      Z        X      Y      Z        X      Y      Z
     1   6    -0.00  -0.00  -0.00    -0.00  -0.20  -0.00     0.00   0.00  -0.05
     2   8     0.00  -0.00  -0.00    -0.00  -0.21   0.00    -0.00  -0.00  -0.01
     3   8    -0.00   0.00   0.08     0.26   0.15  -0.00     0.00  -0.00  -0.02
     4   1     0.00   0.00  -0.70    -0.09   0.60   0.00     0.00  -0.00   0.71
     5   8    -0.00  -0.00  -0.08    -0.26   0.15   0.00     0.00   0.00  -0.02
     6   1    -0.00  -0.00   0.70     0.09   0.60  -0.00     0.00   0.00   0.71
                      4                      5                      6
                      A                      A                      A
 Frequencies --    612.0778               818.8012              1004.8946
 Red. masses --      4.8861                10.9875                 5.9114
 Frc consts  --      1.0785                 4.3401                 3.5171
 IR Inten    --     48.5989                56.7287                17.1513
  Atom  AN      X      Y      Z        X      Y      Z        X      Y      Z
     1   6    -0.16   0.00  -0.00    -0.00   0.00   0.84    -0.00  -0.16   0.00
     2   8     0.36  -0.00  -0.00     0.00  -0.00  -0.26     0.00  -0.25  -0.00
     3   8    -0.10   0.22  -0.00     0.00   0.00  -0.20    -0.31   0.16  -0.00
     4   1    -0.32   0.51   0.01     0.00  -0.00   0.27    -0.46   0.35   0.00
     5   8    -0.10  -0.22   0.00    -0.00   0.00  -0.20     0.31   0.16  -0.00
     6   1    -0.32  -0.51   0.00    -0.00  -0.00   0.27     0.46   0.35   0.00
                      7                      8                      9
                      A                      A                      A
 Frequencies --   1189.1270              1313.8743              1495.3838
 Red. masses --      1.8420                 1.3714                 2.9886
 Frc consts  --      1.5346                 1.3948                 3.9375
 IR Inten    --    445.1224                30.7367               155.4742
  Atom  AN      X      Y      Z        X      Y      Z        X      Y      Z
     1   6     0.14  -0.00  -0.00     0.00  -0.01   0.00     0.39   0.00   0.00
     2   8     0.01  -0.00   0.00     0.00   0.10  -0.00    -0.05  -0.00  -0.00
     3   8    -0.08   0.12   0.00    -0.00  -0.08  -0.00    -0.10  -0.00  -0.00
     4   1     0.41  -0.55  -0.00    -0.45   0.54   0.00    -0.43   0.48   0.00
     5   8    -0.08  -0.12  -0.00     0.00  -0.08  -0.00    -0.10   0.00   0.00
     6   1     0.41   0.55   0.00     0.45   0.53   0.00    -0.43  -0.48  -0.00
                     10                     11                     12
                      A                      A                      A
 Frequencies --   1859.9748              3889.3215              3892.5277
 Red. masses --      8.9216                 1.0641                 1.0658
 Frc consts  --     18.1848                 9.4835                 9.5148
 IR Inten    --    595.9302               205.9658                17.8533
  Atom  AN      X      Y      Z        X      Y      Z        X      Y      Z
     1   6    -0.00   0.69   0.00    -0.00   0.00  -0.00    -0.00  -0.00  -0.00
     2   8    -0.00  -0.40   0.00     0.00   0.00   0.00     0.00  -0.00   0.00
     3   8     0.03  -0.08  -0.00    -0.03  -0.02  -0.00    -0.04  -0.03  -0.00
     4   1    -0.26   0.32   0.00     0.56   0.41   0.00     0.58   0.42   0.00
     5   8    -0.03  -0.08  -0.00    -0.04   0.03   0.00     0.04  -0.02  -0.00
     6   1     0.26   0.33   0.00     0.58  -0.42  -0.00    -0.56   0.41   0.00

 -------------------
 - Thermochemistry -
 -------------------
 Temperature   298.150 Kelvin.  Pressure   1.00000 Atm.
 Atom     1 has atomic number  6 and mass  12.00000
 Atom     2 has atomic number  8 and mass  15.99491
 Atom     3 has atomic number  8 and mass  15.99491
 Atom     4 has atomic number  1 and mass   1.00783
 Atom     5 has atomic number  8 and mass  15.99491
 Atom     6 has atomic number  1 and mass   1.00783
 Molecular mass:    62.00039 amu.
 Principal axes and moments of inertia in atomic units:
                           1         2         3
     Eigenvalues --   148.83309 158.58650 307.41958
           X            1.00000  -0.00072   0.00001
           Y            0.00072   1.00000  -0.00000
           Z           -0.00001   0.00000   1.00000
 This molecule is an asymmetric top.
 Rotational symmetry number  1.
 Rotational temperatures (Kelvin)      0.58195     0.54616     0.28174
 Rotational constants (GHZ):          12.12594    11.38017     5.87061
 Zero-point vibrational energy     106344.3 (Joules/Mol)
                                   25.41689 (Kcal/Mol)
 Warning -- explicit consideration of   4 degrees of freedom as
           vibrations may cause significant error
 Vibrational temperatures:    775.10   802.91   872.78   880.64  1178.07
          (Kelvin)           1445.82  1710.89  1890.37  2151.52  2676.09
                             5595.87  5600.48
 
 Zero-point correction=                           0.040504 (Hartree/Particle)
 Thermal correction to Energy=                    0.044172
 Thermal correction to Enthalpy=                  0.045116
 Thermal correction to Gibbs Free Energy=         0.014649
 Sum of electronic and zero-point Energies=           -264.978333
 Sum of electronic and thermal Energies=              -264.974666
 Sum of electronic and thermal Enthalpies=            -264.973721
 Sum of electronic and thermal Free Energies=         -265.004189
 
                     E (Thermal)             CV                S
                      KCal/Mol        Cal/Mol-Kelvin    Cal/Mol-Kelvin
 Total                   27.718             11.714             64.124
 Electronic               0.000              0.000              0.000
 Translational            0.889              2.981             38.293
 Rotational               0.889              2.981             23.499
 Vibrational             25.941              5.753              2.331
 Vibration     1          0.894              1.164              0.568
 Vibration     2          0.914              1.122              0.528
 Vibration     3          0.965              1.018              0.438
 Vibration     4          0.971              1.006              0.429
                       Q            Log10(Q)             Ln(Q)
 Total Bot       0.182826D-06         -6.737961        -15.514728
 Total V=0       0.781175D+12         11.892748         27.384065
 Vib (Bot)       0.312464D-18        -18.505201        -42.609799
 Vib (Bot)    1  0.294449D+00         -0.530989         -1.222648
 Vib (Bot)    2  0.279035D+00         -0.554341         -1.276417
 Vib (Bot)    3  0.244476D+00         -0.611763         -1.408637
 Vib (Bot)    4  0.240920D+00         -0.618127         -1.423291
 Vib (V=0)       0.133508D+01          0.125509          0.288994
 Vib (V=0)    1  0.108026D+01          0.033528          0.077201
 Vib (V=0)    2  0.107259D+01          0.030434          0.070077
 Vib (V=0)    3  0.105657D+01          0.023898          0.055026
 Vib (V=0)    4  0.105502D+01          0.023259          0.053556
 Electronic      0.100000D+01          0.000000          0.000000
 Translational   0.191887D+08          7.283046         16.769832
 Rotational      0.304926D+05          4.484194         10.325239
 ***** Axes restored to original set *****
 -------------------------------------------------------------------
 Center     Atomic                   Forces (Hartrees/Bohr)
 Number     Number              X              Y              Z
 -------------------------------------------------------------------
      1        6           0.000192760   -0.000249460    0.000054285
      2        8          -0.000012589    0.000163005   -0.000030567
      3        8          -0.000108323   -0.000007763   -0.000032718
      4        1           0.000024969   -0.000006273    0.000018736
      5        8          -0.000063635    0.000113267   -0.000022355
      6        1          -0.000033182   -0.000012776    0.000012619
 -------------------------------------------------------------------
 Cartesian Forces:  Max     0.000249460 RMS     0.000095066
 FormGI is forming the generalized inverse of G from B-inverse, IUseBI=4.

 GradGradGradGradGradGradGradGradGradGradGradGradGradGradGradGradGradGrad
 Berny optimization.
 Internal  Forces:  Max     0.000163004 RMS     0.000066525
 Search for a local minimum.
 Step number   1 out of a maximum of    2
 All quantities printed in internal units (Hartrees-Bohrs-Radians)
 Second derivative matrix not updated -- analytic derivatives used.
 The second derivative matrix:
                          R1        R2        R3        R4        R5
           R1           0.87150
           R2           0.07980   0.46098
           R3           0.07978   0.05314   0.46015
           R4          -0.00733   0.00524  -0.00230   0.54442
           R5          -0.00733  -0.00230   0.00522   0.00028   0.54439
           A1           0.02907   0.01070  -0.05644  -0.00999   0.00299
           A2           0.02906  -0.05643   0.01070   0.00299  -0.00999
           A3          -0.05812   0.04573   0.04574   0.00700   0.00700
           A4           0.00371   0.04457   0.00781   0.03112   0.00092
           A5           0.00371   0.00782   0.04455   0.00093   0.03110
           D1          -0.00000  -0.00003  -0.00002  -0.00000  -0.00000
           D2           0.00002  -0.00002   0.00001   0.00000  -0.00000
           D3           0.00001   0.00002   0.00002   0.00000  -0.00000
           D4          -0.00001  -0.00001   0.00001  -0.00000  -0.00000
                          A1        A2        A3        A4        A5
           A1           0.19564
           A2          -0.09101   0.19565
           A3          -0.10463  -0.10463   0.20927
           A4          -0.02808  -0.00161   0.02969   0.18484
           A5          -0.00162  -0.02809   0.02971   0.00706   0.18484
           D1           0.00000  -0.00002  -0.00001  -0.00002  -0.00000
           D2          -0.00001   0.00003  -0.00000  -0.00001   0.00000
           D3           0.00002  -0.00001   0.00000   0.00001   0.00001
           D4          -0.00003   0.00001   0.00000  -0.00000   0.00000
                          D1        D2        D3        D4
           D1           0.03711
           D2          -0.02336   0.04450
           D3          -0.03004   0.03042   0.03710
           D4           0.03042  -0.03743  -0.02335   0.04449
 ITU=  0
     Eigenvalues ---    0.01413   0.02026   0.12881   0.15876   0.16901
     Eigenvalues ---    0.27018   0.27442   0.43919   0.52531   0.54786
     Eigenvalues ---    0.55854   0.90842
 Angle between quadratic step and forces=  60.91 degrees.
 Linear search not attempted -- first point.
 Iteration  1 RMS(Cart)=  0.00040975 RMS(Int)=  0.00000022
 Iteration  2 RMS(Cart)=  0.00000020 RMS(Int)=  0.00000001
 Variable       Old X    -DE/DX   Delta X   Delta X   Delta X     New X
                                 (Linear)    (Quad)   (Total)
    R1        2.26760   0.00016   0.00000   0.00024   0.00024   2.26784
    R2        2.51572   0.00008   0.00000   0.00016   0.00016   2.51589
    R3        2.51630  -0.00014   0.00000  -0.00042  -0.00042   2.51589
    R4        1.81626  -0.00002   0.00000  -0.00004  -0.00004   1.81622
    R5        1.81628  -0.00003   0.00000  -0.00005  -0.00005   1.81622
    A1        2.19091  -0.00005   0.00000  -0.00028  -0.00028   2.19063
    A2        2.19067  -0.00002   0.00000  -0.00003  -0.00003   2.19063
    A3        1.90160   0.00006   0.00000   0.00032   0.00032   1.90192
    A4        1.86164  -0.00002   0.00000  -0.00021  -0.00021   1.86143
    A5        1.86148  -0.00002   0.00000  -0.00005  -0.00005   1.86143
    D1        0.00105  -0.00003   0.00000  -0.00105  -0.00105   0.00000
    D2       -3.14085  -0.00000   0.00000  -0.00074  -0.00074  -3.14159
    D3       -0.00068   0.00003   0.00000   0.00068   0.00068  -0.00000
    D4        3.14122  -0.00000   0.00000   0.00037   0.00037   3.14159
         Item               Value     Threshold  Converged?
 Maximum Force            0.000163     0.000450     YES
 RMS     Force            0.000067     0.000300     YES
 Maximum Displacement     0.000803     0.001800     YES
 RMS     Displacement     0.000410     0.001200     YES
 Predicted change in Energy=-1.004180D-07
 Optimization completed.
    -- Stationary point found.
                           ----------------------------
                           !   Optimized Parameters   !
                           ! (Angstroms and Degrees)  !
 --------------------------                            --------------------------
 ! Name  Definition              Value          Derivative Info.                !
 --------------------------------------------------------------------------------
 ! R1    R(1,2)                  1.2            -DE/DX =    0.0002              !
 ! R2    R(1,3)                  1.3313         -DE/DX =    0.0001              !
 ! R3    R(1,5)                  1.3316         -DE/DX =   -0.0001              !
 ! R4    R(3,4)                  0.9611         -DE/DX =    0.0                 !
 ! R5    R(5,6)                  0.9611         -DE/DX =    0.0                 !
 ! A1    A(2,1,3)              125.5302         -DE/DX =    0.0                 !
 ! A2    A(2,1,5)              125.5159         -DE/DX =    0.0                 !
 ! A3    A(3,1,5)              108.9539         -DE/DX =    0.0001              !
 ! A4    A(1,3,4)              106.6643         -DE/DX =    0.0                 !
 ! A5    A(1,5,6)              106.6551         -DE/DX =    0.0                 !
 ! D1    D(2,1,3,4)              0.0604         -DE/DX =    0.0                 !
 ! D2    D(5,1,3,4)           -179.9573         -DE/DX =    0.0                 !
 ! D3    D(2,1,5,6)             -0.0389         -DE/DX =    0.0                 !
 ! D4    D(3,1,5,6)            179.9789         -DE/DX =    0.0                 !
 --------------------------------------------------------------------------------
 GradGradGradGradGradGradGradGradGradGradGradGradGradGradGradGradGradGrad


 ----------------------------------------------------------------------

 Electric dipole moment (input orientation):
 (Debye = 10**-18 statcoulomb cm , SI units = C m)
                  (au)            (Debye)         (10**-30 SI)
   Tot        0.109551D+00      0.278451D+00      0.928812D+00
   x         -0.691469D-03     -0.175754D-02     -0.586252D-02
   y         -0.109545D+00     -0.278436D+00     -0.928763D+00
   z         -0.891446D-03     -0.226583D-02     -0.755799D-02

 Dipole polarizability, Alpha (input orientation).
 (esu units = cm**3 , SI units = C**2 m**2 J**-1)
 Alpha(0;0):
               (au)            (10**-24 esu)      (10**-40 SI)
   iso        0.242888D+02      0.359922D+01      0.400468D+01
   aniso      0.109912D+02      0.162873D+01      0.181220D+01
   xx         0.279025D+02      0.413472D+01      0.460050D+01
   yx        -0.885501D-03     -0.131218D-03     -0.145999D-03
   yy         0.280022D+02      0.414951D+01      0.461695D+01
   zx         0.245014D-03      0.363074D-04      0.403974D-04
   zy        -0.197545D-03     -0.292731D-04     -0.325708D-04
   zz         0.169615D+02      0.251344D+01      0.279658D+01

 ----------------------------------------------------------------------

 Dipole orientation:
     6         -0.00143814         -0.00161435         -0.18579306
     8         -0.01627806         -0.01975160         -2.45326777
     8         -2.03910227          0.02353012          1.28938592
     1         -3.48136082          0.02221782          0.18543659
     8          2.05619978         -0.00264004          1.26261840
     1          3.48342268         -0.02163947          0.13943510

 Electric dipole moment (dipole orientation):
 (Debye = 10**-18 statcoulomb cm , SI units = C m)
                  (au)            (Debye)         (10**-30 SI)
   Tot        0.109551D+00      0.278451D+00      0.928812D+00
   x          0.000000D+00      0.000000D+00      0.000000D+00
   y          0.000000D+00      0.000000D+00      0.000000D+00
   z          0.109551D+00      0.278451D+00      0.928812D+00

 Dipole polarizability, Alpha (dipole orientation).
 (esu units = cm**3 , SI units = C**2 m**2 J**-1)
 Alpha(0;0):
               (au)            (10**-24 esu)      (10**-40 SI)
   iso        0.242888D+02      0.359922D+01      0.400468D+01
   aniso      0.109912D+02      0.162873D+01      0.181220D+01
   xx         0.279021D+02      0.413466D+01      0.460043D+01
   yx        -0.687956D-01     -0.101945D-01     -0.113429D-01
   yy         0.169627D+02      0.251361D+01      0.279677D+01
   zx         0.208123D-02      0.308407D-03      0.343149D-03
   zy         0.900229D-01      0.133400D-01      0.148428D-01
   zz         0.280015D+02      0.414939D+01      0.461682D+01

 ----------------------------------------------------------------------
 1\1\GINC-CCLEARCO2\Freq\RwB97XD\6-311+G(2d,2p)\C1H2O3\RAPPE\24-Oct-202
 2\0\\#N Geom=AllCheck Guess=TCheck SCRF=Check GenChk RwB97XD/6-311+G(2
 d,2p) Freq\\Title Card Required\\0,1\C,-0.000135,0.098324,-0.000059\O,
 -0.000353,1.298284,0.000058\O,-1.083389,-0.675512,0.000088\H,-1.842877
 ,-0.086496,-0.00067\O,1.083842,-0.675026,0.000034\H,1.842881,-0.085419
 ,-0.000416\\Version=EM64M-G16RevA.03\State=1-A\HF=-265.0188373\RMSD=6.
 885e-10\RMSF=9.507e-05\ZeroPoint=0.0405044\Thermal=0.0441718\Dipole=-0
 .0006915,-0.1095452,-0.0008914\DipoleDeriv=2.0997278,0.0000544,-0.0000
 231,0.0000706,2.1611273,0.0000556,-0.0000373,0.0000067,0.428775,-0.698
 1588,0.0001854,-0.000004,0.0002387,-1.343753,0.0000367,0.0000079,-0.00
 00475,-0.4058264,-1.0944003,-0.4732343,-0.0000023,-0.4026532,-0.636036
 6,-0.0001373,0.0002147,-0.0000076,-0.3602499,0.3938188,0.0396717,0.000
 0335,0.0286172,0.2271174,0.0000868,-0.0000538,0.000037,0.348893,-1.094
 7412,0.4728818,0.0000182,0.4022172,-0.635439,-0.0000913,-0.0001588,-0.
 0000042,-0.3604382,0.3937537,-0.039559,-0.0000223,-0.0284906,0.2269839
 ,0.0000494,0.0000274,0.0000156,0.3488465\Polar=27.9025045,-0.0008855,2
 8.0022497,0.000245,-0.0001975,16.9615164\Quadrupole=5.6931087,-5.27972
 15,-0.4133872,0.0040447,0.0008912,-0.0001457\PG=C01 [X(C1H2O3)]\NImag=
 0\\0.71474095,0.00036812,1.05690495,0.00000822,0.00000821,0.24007203,-
 0.12705733,0.00011573,-0.00000033,0.11145548,0.00010056,-0.72477734,-0
 .00004849,-0.00014031,0.87150470,-0.00000311,-0.00007049,-0.09417821,-
 0.00000258,0.00005733,0.03942513,-0.24685419,-0.10308746,0.00001115,-0
 .00064102,-0.05018482,0.00000670,0.67497286,-0.07108213,-0.18917039,0.
 00004531,-0.06341340,-0.06729459,0.00000731,-0.09591961,0.47475032,-0.
 00002164,0.00002636,-0.07309928,-0.00000321,-0.00000210,0.03152037,0.0
 0032592,-0.00028806,0.03915307,-0.04721298,0.02806003,-0.00003347,0.00
 847478,0.00454450,0.00000603,-0.33429656,0.20462369,-0.00028942,0.3775
 9295,-0.02530509,0.02293233,-0.00002121,0.00159794,-0.00610439,0.00000
 186,0.26298738,-0.23806504,0.00027143,-0.23222752,0.22288784,0.0000119
 2,0.00000956,0.00018233,0.00000639,-0.00000053,-0.00413988,-0.00034466
 ,0.00024382,-0.01282937,0.00031597,-0.00025513,0.01154996,-0.24643008,
 0.10264963,-0.00000602,-0.00070865,0.05021367,-0.00000311,-0.09008179,
 0.01977936,-0.00000784,-0.00308471,-0.00604004,0.00000835,0.67422920,0
 .07066776,-0.18882414,0.00002881,0.06342892,-0.06721937,0.00000302,-0.
 01984053,0.02236205,-0.00000894,-0.00601342,-0.00258556,0.00000161,0.0
 9644997,0.47469626,0.00001248,0.00002002,-0.07315352,0.00000357,-0.000
 00570,0.03150972,0.00000676,-0.00000829,0.01219728,0.00000195,0.000001
 93,0.00305923,-0.00019696,-0.00016908,0.03921194,-0.04718636,-0.028106
 05,0.00002045,0.00847675,-0.00453360,-0.00000393,-0.00309930,0.0060120
 9,-0.00000381,-0.00147348,-0.00101267,0.00000204,-0.33392398,-0.204692
 71,0.00017219,0.37720637,0.02525078,0.02293459,-0.00001263,-0.00158888
 ,-0.00610900,0.00000099,0.00604504,-0.00258235,0.00000131,0.00101272,0
 .00093481,0.00000067,-0.26305260,-0.23842924,0.00016113,0.23233294,0.2
 2325118,-0.00000787,0.00000635,0.00017664,-0.00000385,-0.00000051,-0.0
 0413713,-0.00000586,-0.00000008,0.00305792,-0.00000106,0.00000112,0.00
 217773,0.00020559,0.00014459,-0.01282465,-0.00018695,-0.00015147,0.011
 54949\\-0.00019276,0.00024946,-0.00005429,0.00001259,-0.00016301,0.000
 03057,0.00010832,0.00000776,0.00003272,-0.00002497,0.00000627,-0.00001
 874,0.00006363,-0.00011327,0.00002236,0.00003318,0.00001278,-0.0000126
 2\\\@


 LAWS OF PROGRAMMING DEFINITION:  A WORKING PROGRAM
                                  IS ONE THAT HAS
                                  ONLY UNOBSERVED
                                  BUGS.
 Job cpu time:       0 days  0 hours  6 minutes 31.2 seconds.
 Elapsed time:       0 days  0 hours  0 minutes 51.2 seconds.
 File lengths (MBytes):  RWF=     15 Int=      0 D2E=      0 Chk=      2 Scr=      1
 Normal termination of Gaussian 16 at Mon Oct 24 09:39:39 2022.
