 Entering Gaussian System, Link 0=/applications/g16/g16/g16
 Initial command:
 /applications/g16/g16/l1.exe "/scratch/g98/Gau-63797.inp" -scrdir="/scratch/g98/"
 Entering Link 1 = /applications/g16/g16/l1.exe PID=     63798.
  
 Copyright (c) 1988,1990,1992,1993,1995,1998,2003,2009,2016,
            Gaussian, Inc.  All Rights Reserved.
  
 This is part of the Gaussian(R) 16 program.  It is based on
 the Gaussian(R) 09 system (copyright 2009, Gaussian, Inc.),
 the Gaussian(R) 03 system (copyright 2003, Gaussian, Inc.),
 the Gaussian(R) 98 system (copyright 1998, Gaussian, Inc.),
 the Gaussian(R) 94 system (copyright 1995, Gaussian, Inc.),
 the Gaussian 92(TM) system (copyright 1992, Gaussian, Inc.),
 the Gaussian 90(TM) system (copyright 1990, Gaussian, Inc.),
 the Gaussian 88(TM) system (copyright 1988, Gaussian, Inc.),
 the Gaussian 86(TM) system (copyright 1986, Carnegie Mellon
 University), and the Gaussian 82(TM) system (copyright 1983,
 Carnegie Mellon University). Gaussian is a federally registered
 trademark of Gaussian, Inc.
  
 This software contains proprietary and confidential information,
 including trade secrets, belonging to Gaussian, Inc.
  
 This software is provided under written license and may be
 used, copied, transmitted, or stored only in accord with that
 written license.
  
 The following legend is applicable only to US Government
 contracts under FAR:
  
                    RESTRICTED RIGHTS LEGEND
  
 Use, reproduction and disclosure by the US Government is
 subject to restrictions as set forth in subparagraphs (a)
 and (c) of the Commercial Computer Software - Restricted
 Rights clause in FAR 52.227-19.
  
 Gaussian, Inc.
 340 Quinnipiac St., Bldg. 40, Wallingford CT 06492
  
  
 ---------------------------------------------------------------
 Warning -- This program may not be used in any manner that
 competes with the business of Gaussian, Inc. or will provide
 assistance to any competitor of Gaussian, Inc.  The licensee
 of this program is prohibited from giving any competitor of
 Gaussian, Inc. access to this program.  By using this program,
 the user acknowledges that Gaussian, Inc. is engaged in the
 business of creating and licensing software in the field of
 computational chemistry and represents and warrants to the
 licensee that it is not a competitor of Gaussian, Inc. and that
 it will not use this program in any manner prohibited above.
 ---------------------------------------------------------------
  

 Cite this work as:
 Gaussian 16, Revision A.03,
 M. J. Frisch, G. W. Trucks, H. B. Schlegel, G. E. Scuseria, 
 M. A. Robb, J. R. Cheeseman, G. Scalmani, V. Barone, 
 G. A. Petersson, H. Nakatsuji, X. Li, M. Caricato, A. V. Marenich, 
 J. Bloino, B. G. Janesko, R. Gomperts, B. Mennucci, H. P. Hratchian, 
 J. V. Ortiz, A. F. Izmaylov, J. L. Sonnenberg, D. Williams-Young, 
 F. Ding, F. Lipparini, F. Egidi, J. Goings, B. Peng, A. Petrone, 
 T. Henderson, D. Ranasinghe, V. G. Zakrzewski, J. Gao, N. Rega, 
 G. Zheng, W. Liang, M. Hada, M. Ehara, K. Toyota, R. Fukuda, 
 J. Hasegawa, M. Ishida, T. Nakajima, Y. Honda, O. Kitao, H. Nakai, 
 T. Vreven, K. Throssell, J. A. Montgomery, Jr., J. E. Peralta, 
 F. Ogliaro, M. J. Bearpark, J. J. Heyd, E. N. Brothers, K. N. Kudin, 
 V. N. Staroverov, T. A. Keith, R. Kobayashi, J. Normand, 
 K. Raghavachari, A. P. Rendell, J. C. Burant, S. S. Iyengar, 
 J. Tomasi, M. Cossi, J. M. Millam, M. Klene, C. Adamo, R. Cammi, 
 J. W. Ochterski, R. L. Martin, K. Morokuma, O. Farkas, 
 J. B. Foresman, and D. J. Fox, Gaussian, Inc., Wallingford CT, 2016.
 
 ******************************************
 Gaussian 16:  EM64M-G16RevA.03 25-Dec-2016
                14-Aug-2023 
 ******************************************
 %mem=48GB
 %nprocshared=24
 Will use up to   24 processors via shared memory.
 %chk=cooh.chk
 --------------------------------------------------
 # opt freq wb97xd/6-311+g(2d,2p) geom=connectivity
 --------------------------------------------------
 1/18=20,19=15,26=3,38=1,57=2/1,3;
 2/9=110,12=2,17=6,18=5,40=1/2;
 3/5=4,6=6,7=212,11=2,25=1,30=1,71=1,74=-58/1,2,3;
 4//1;
 5/5=2,38=5/2;
 6/7=2,8=2,9=2,10=2,28=1/1;
 7//1,2,3,16;
 1/18=20,19=15,26=3/3(2);
 2/9=110/2;
 99//99;
 2/9=110/2;
 3/5=4,6=6,7=212,11=2,25=1,30=1,71=1,74=-58/1,2,3;
 4/5=5,16=3,69=1/1;
 5/5=2,38=5/2;
 7//1,2,3,16;
 1/18=20,19=15,26=3/3(-5);
 2/9=110/2;
 6/7=2,8=2,9=2,10=2,19=2,28=1/1;
 99/9=1/99;
 -------------------
 Title Card Required
 -------------------
 Symbolic Z-matrix:
 Charge =  0 Multiplicity = 2
 C                    -3.46464   0.08259  -0.30174 
 O                    -4.10251  -0.51456  -1.1085 
 O                    -3.74517   1.28161   0.1965 
 H                    -4.55746   1.59505  -0.21855 
 

 GradGradGradGradGradGradGradGradGradGradGradGradGradGradGradGradGradGrad
 Berny optimization.
 Initialization pass.
                           ----------------------------
                           !    Initial Parameters    !
                           ! (Angstroms and Degrees)  !
 --------------------------                            --------------------------
 ! Name  Definition              Value          Derivative Info.                !
 --------------------------------------------------------------------------------
 ! R1    R(1,2)                  1.1893         estimate D2E/DX2                !
 ! R2    R(1,3)                  1.3284         estimate D2E/DX2                !
 ! R3    R(3,4)                  0.9645         estimate D2E/DX2                !
 ! A1    A(2,1,3)              126.4694         estimate D2E/DX2                !
 ! A2    A(1,3,4)              108.0458         estimate D2E/DX2                !
 ! D1    D(2,1,3,4)             -0.661          estimate D2E/DX2                !
 --------------------------------------------------------------------------------
 Trust Radius=3.00D-01 FncErr=1.00D-07 GrdErr=1.00D-06 EigMax=2.50D+02 EigMin=1.00D-04
 Number of steps in this run=     20 maximum allowed number of steps=    100.
 GradGradGradGradGradGradGradGradGradGradGradGradGradGradGradGradGradGrad

                          Input orientation:                          
 ---------------------------------------------------------------------
 Center     Atomic      Atomic             Coordinates (Angstroms)
 Number     Number       Type             X           Y           Z
 ---------------------------------------------------------------------
      1          6           0       -3.464639    0.082589   -0.301741
      2          8           0       -4.102510   -0.514561   -1.108503
      3          8           0       -3.745168    1.281608    0.196497
      4          1           0       -4.557460    1.595051   -0.218546
 ---------------------------------------------------------------------
                    Distance matrix (angstroms):
                    1          2          3          4
     1  C    0.000000
     2  O    1.189257   0.000000
     3  O    1.328377   2.248764   0.000000
     4  H    1.867812   2.334409   0.964534   0.000000
 Stoichiometry    CHO2(2)
 Framework group  C1[X(CHO2)]
 Deg. of freedom     6
 Full point group                 C1      NOp   1
 Largest Abelian subgroup         C1      NOp   1
 Largest concise Abelian subgroup C1      NOp   1
                         Standard orientation:                         
 ---------------------------------------------------------------------
 Center     Atomic      Atomic             Coordinates (Angstroms)
 Number     Number       Type             X           Y           Z
 ---------------------------------------------------------------------
      1          6           0        0.132305   -0.451206    0.001517
      2          8           0        1.137878    0.183735   -0.000644
      3          8           0       -1.105658    0.030484   -0.001165
      4          1           0       -1.051584    0.993479    0.005372
 ---------------------------------------------------------------------
 Rotational constants (GHZ):         128.2280454          12.1504742          11.0988259
 Standard basis: 6-311+G(2d,2p) (5D, 7F)
 There are    96 symmetry adapted cartesian basis functions of A   symmetry.
 There are    90 symmetry adapted basis functions of A   symmetry.
    90 basis functions,   137 primitive gaussians,    96 cartesian basis functions
    12 alpha electrons       11 beta electrons
       nuclear repulsion energy        63.4426361048 Hartrees.
 NAtoms=    4 NActive=    4 NUniq=    4 SFac= 1.00D+00 NAtFMM=   60 NAOKFM=F Big=F
 Integral buffers will be    131072 words long.
 Raffenetti 2 integral format.
 Two-electron integral symmetry is turned on.
 Nuclear repulsion after empirical dispersion term =       63.4424633520 Hartrees.
 One-electron integrals computed using PRISM.
 NBasis=    90 RedAO= T EigKep=  1.01D-03  NBF=    90
 NBsUse=    90 1.00D-06 EigRej= -1.00D+00 NBFU=    90
 ExpMin= 4.38D-02 ExpMax= 8.59D+03 ExpMxC= 1.30D+03 IAcc=3 IRadAn=         5 AccDes= 0.00D+00
 Harris functional with IExCor= 4639 and IRadAn=       5 diagonalized for initial guess.
 HarFok:  IExCor= 4639 AccDes= 0.00D+00 IRadAn=         5 IDoV= 1 UseB2=F ITyADJ=14
 ICtDFT=  3500011 ScaDFX=  1.000000  1.000000  1.000000  1.000000
 FoFCou: FMM=F IPFlag=           0 FMFlag=      100000 FMFlg1=           0
         NFxFlg=           0 DoJE=T BraDBF=F KetDBF=T FulRan=T
         wScrn=  0.000000 ICntrl=       500 IOpCl=  0 I1Cent=   200000004 NGrid=           0
         NMat0=    1 NMatS0=      1 NMatT0=    0 NMatD0=    1 NMtDS0=    0 NMtDT0=    0
 Petite list used in FoFCou.
 Initial guess <Sx>= 0.0000 <Sy>= 0.0000 <Sz>= 0.5000 <S**2>= 0.7500 S= 0.5000
 Keep R1 and R2 ints in memory in canonical form, NReq=55649328.
 Requested convergence on RMS density matrix=1.00D-08 within 128 cycles.
 Requested convergence on MAX density matrix=1.00D-06.
 Requested convergence on             energy=1.00D-06.
 No special actions if energy rises.
 SCF Done:  E(UwB97XD) =  -189.095907846     A.U. after   15 cycles
            NFock= 15  Conv=0.76D-08     -V/T= 2.0029
 <Sx>= 0.0000 <Sy>= 0.0000 <Sz>= 0.5000 <S**2>= 0.7538 S= 0.5019
 <L.S>= 0.000000000000E+00
 Annihilation of the first spin contaminant:
 S**2 before annihilation     0.7538,   after     0.7500

 **********************************************************************

            Population analysis using the SCF density.

 **********************************************************************

 Orbital symmetries:
 Alpha Orbitals:
       Occupied  (A) (A) (A) (A) (A) (A) (A) (A) (A) (A) (A) (A)
       Virtual   (A) (A) (A) (A) (A) (A) (A) (A) (A) (A) (A) (A)
                 (A) (A) (A) (A) (A) (A) (A) (A) (A) (A) (A) (A)
                 (A) (A) (A) (A) (A) (A) (A) (A) (A) (A) (A) (A)
                 (A) (A) (A) (A) (A) (A) (A) (A) (A) (A) (A) (A)
                 (A) (A) (A) (A) (A) (A) (A) (A) (A) (A) (A) (A)
                 (A) (A) (A) (A) (A) (A) (A) (A) (A) (A) (A) (A)
                 (A) (A) (A) (A) (A) (A)
 Beta  Orbitals:
       Occupied  (A) (A) (A) (A) (A) (A) (A) (A) (A) (A) (A)
       Virtual   (A) (A) (A) (A) (A) (A) (A) (A) (A) (A) (A) (A)
                 (A) (A) (A) (A) (A) (A) (A) (A) (A) (A) (A) (A)
                 (A) (A) (A) (A) (A) (A) (A) (A) (A) (A) (A) (A)
                 (A) (A) (A) (A) (A) (A) (A) (A) (A) (A) (A) (A)
                 (A) (A) (A) (A) (A) (A) (A) (A) (A) (A) (A) (A)
                 (A) (A) (A) (A) (A) (A) (A) (A) (A) (A) (A) (A)
                 (A) (A) (A) (A) (A) (A) (A)
 The electronic state is 2-A.
 Alpha  occ. eigenvalues --  -19.34094 -19.30260 -10.44659  -1.26203  -1.17942
 Alpha  occ. eigenvalues --   -0.76825  -0.62541  -0.59850  -0.57580  -0.48790
 Alpha  occ. eigenvalues --   -0.45535  -0.34757
 Alpha virt. eigenvalues --    0.05357   0.06344   0.09979   0.10461   0.10995
 Alpha virt. eigenvalues --    0.18135   0.22216   0.25249   0.26004   0.28722
 Alpha virt. eigenvalues --    0.29550   0.32140   0.32571   0.35104   0.39009
 Alpha virt. eigenvalues --    0.49900   0.51848   0.59433   0.63183   0.69198
 Alpha virt. eigenvalues --    0.69425   0.72016   0.79581   0.86132   0.96260
 Alpha virt. eigenvalues --    0.97999   1.05501   1.09121   1.09769   1.11618
 Alpha virt. eigenvalues --    1.14436   1.15432   1.31094   1.37494   1.48858
 Alpha virt. eigenvalues --    1.52325   1.57570   1.60100   1.73973   1.79369
 Alpha virt. eigenvalues --    1.93944   1.98252   2.08264   2.24251   2.32879
 Alpha virt. eigenvalues --    2.37293   2.58708   2.79936   2.84221   3.06766
 Alpha virt. eigenvalues --    3.27706   3.38029   3.38142   3.44851   3.55888
 Alpha virt. eigenvalues --    3.80345   3.83716   4.01422   4.18985   5.04379
 Alpha virt. eigenvalues --    5.08562   5.13011   5.47150   5.88114   6.25820
 Alpha virt. eigenvalues --    6.78499   6.84051   6.88899   6.99912   7.04525
 Alpha virt. eigenvalues --    7.08713   7.13717   7.24111   7.28500   7.46774
 Alpha virt. eigenvalues --   24.12034  49.97213  50.00744
  Beta  occ. eigenvalues --  -19.33785 -19.29605 -10.43608  -1.24908  -1.16472
  Beta  occ. eigenvalues --   -0.74516  -0.61529  -0.56809  -0.56580  -0.45245
  Beta  occ. eigenvalues --   -0.45153
  Beta virt. eigenvalues --   -0.04910   0.07744   0.08163   0.10888   0.12291
  Beta virt. eigenvalues --    0.12422   0.18952   0.22787   0.25561   0.26206
  Beta virt. eigenvalues --    0.29839   0.30027   0.32745   0.32991   0.35881
  Beta virt. eigenvalues --    0.40518   0.51233   0.53387   0.60181   0.65075
  Beta virt. eigenvalues --    0.70009   0.70452   0.73841   0.80679   0.87463
  Beta virt. eigenvalues --    0.97288   0.98609   1.06007   1.09397   1.10539
  Beta virt. eigenvalues --    1.12992   1.14976   1.15706   1.32662   1.38662
  Beta virt. eigenvalues --    1.49993   1.52609   1.58421   1.60771   1.75100
  Beta virt. eigenvalues --    1.79708   1.95047   1.98738   2.08773   2.25141
  Beta virt. eigenvalues --    2.34115   2.38330   2.59678   2.80924   2.85874
  Beta virt. eigenvalues --    3.10570   3.32043   3.40841   3.41302   3.48811
  Beta virt. eigenvalues --    3.57726   3.80914   3.86447   4.02189   4.19309
  Beta virt. eigenvalues --    5.04646   5.09078   5.15682   5.47821   5.89087
  Beta virt. eigenvalues --    6.26900   6.80448   6.86354   6.89527   7.00855
  Beta virt. eigenvalues --    7.06173   7.09562   7.14641   7.25458   7.30050
  Beta virt. eigenvalues --    7.47542  24.13797  49.97541  50.01291
          Condensed to atoms (all electrons):
               1          2          3          4
     1  C    5.173684   0.365563   0.134249   0.010160
     2  O    0.365563   7.959351  -0.029114   0.011127
     3  O    0.134249  -0.029114   7.956760   0.217171
     4  H    0.010160   0.011127   0.217171   0.491893
          Atomic-Atomic Spin Densities.
               1          2          3          4
     1  C    1.035332  -0.118946  -0.210651   0.029974
     2  O   -0.118946   0.330619  -0.000849   0.013125
     3  O   -0.210651  -0.000849   0.241712  -0.045536
     4  H    0.029974   0.013125  -0.045536   0.058105
 Mulliken charges and spin densities:
               1          2
     1  C    0.316344   0.735709
     2  O   -0.306927   0.223948
     3  O   -0.279066  -0.015324
     4  H    0.269649   0.055667
 Sum of Mulliken charges =  -0.00000   1.00000
 Mulliken charges and spin densities with hydrogens summed into heavy atoms:
               1          2
     1  C    0.316344   0.735709
     2  O   -0.306927   0.223948
     3  O   -0.009417   0.040343
 Electronic spatial extent (au):  <R**2>=            122.8215
 Charge=             -0.0000 electrons
 Dipole moment (field-independent basis, Debye):
    X=             -1.4305    Y=              1.2234    Z=              0.0126  Tot=              1.8823
 Quadrupole moment (field-independent basis, Debye-Ang):
   XX=            -19.4828   YY=            -14.8490   ZZ=            -16.3835
   XY=             -2.2954   XZ=             -0.0123   YZ=              0.0171
 Traceless Quadrupole moment (field-independent basis, Debye-Ang):
   XX=             -2.5777   YY=              2.0561   ZZ=              0.5216
   XY=             -2.2954   XZ=             -0.0123   YZ=              0.0171
 Octapole moment (field-independent basis, Debye-Ang**2):
  XXX=             -2.4866  YYY=              5.6316  ZZZ=             -0.0025  XYY=             -3.0394
  XXY=              2.9267  XXZ=              0.0089  XZZ=             -0.0476  YZZ=              0.7623
  YYZ=              0.0079  XYZ=             -0.0150
 Hexadecapole moment (field-independent basis, Debye-Ang**3):
 XXXX=           -105.9947 YYYY=            -25.1972 ZZZZ=            -14.3198 XXXY=             -3.5013
 XXXZ=             -0.0187 YYYX=             -2.8225 YYYZ=              0.0307 ZZZX=             -0.0076
 ZZZY=              0.0121 XXYY=            -18.6762 XXZZ=            -19.7926 YYZZ=             -6.7687
 XXYZ=              0.0199 YYXZ=             -0.0146 ZZXY=             -0.1854
 N-N= 6.344246335198D+01 E-N=-5.724124526563D+02  KE= 1.885461111931D+02
                          Isotropic Fermi Contact Couplings
        Atom                 a.u.       MegaHertz       Gauss      10(-4) cm-1
     1  C(13)              0.56609     636.39823     227.08271     212.27960
     2  O(17)              0.08502     -51.53602     -18.38933     -17.19057
     3  O(17)              0.34342    -208.18228     -74.28461     -69.44213
     4  H(1)               0.01520      67.92251      24.23644      22.65651
 --------------------------------------------------------
       Center         ----  Spin Dipole Couplings  ----
                      3XX-RR        3YY-RR        3ZZ-RR
 --------------------------------------------------------
     1   Atom       -0.358046      0.650176     -0.292130
     2   Atom       -0.513034      1.219413     -0.706379
     3   Atom        0.182036     -0.000728     -0.181308
     4   Atom        0.002407      0.015290     -0.017698
 --------------------------------------------------------
                        XY            XZ            YZ
 --------------------------------------------------------
     1   Atom        0.114693     -0.000159     -0.002109
     2   Atom       -0.325012      0.000895     -0.004569
     3   Atom       -0.225477      0.003832     -0.002520
     4   Atom       -0.008938      0.000079      0.000149
 --------------------------------------------------------


 ---------------------------------------------------------------------------------
              Anisotropic Spin Dipole Couplings in Principal Axis System
 ---------------------------------------------------------------------------------

       Atom             a.u.   MegaHertz   Gauss  10(-4) cm-1        Axes

              Baa    -0.3709   -49.775   -17.761   -16.603  0.9938 -0.1116 -0.0010
     1 C(13)  Bbb    -0.2921   -39.202   -13.988   -13.076  0.0012  0.0021  1.0000
              Bcc     0.6631    88.977    31.749    29.679  0.1116  0.9937 -0.0022
 
              Baa    -0.7064    51.114    18.239    17.050 -0.0009  0.0022  1.0000
     2 O(17)  Bbb    -0.5720    41.390    14.769    13.806  0.9839  0.1785  0.0005
              Bcc     1.2784   -92.503   -33.008   -30.856 -0.1785  0.9839 -0.0023
 
              Baa    -0.1813    13.122     4.682     4.377 -0.0084  0.0035  1.0000
     3 O(17)  Bbb    -0.1526    11.045     3.941     3.684  0.5587  0.8293  0.0018
              Bcc     0.3340   -24.167    -8.623    -8.061  0.8293 -0.5587  0.0089
 
              Baa    -0.0177    -9.443    -3.370    -3.150 -0.0067 -0.0063  1.0000
     4 H(1)   Bbb    -0.0022    -1.156    -0.413    -0.386  0.8901  0.4557  0.0089
              Bcc     0.0199    10.600     3.782     3.536 -0.4557  0.8901  0.0026
 

 ---------------------------------------------------------------------------------

 Calling FoFJK, ICntrl=      2127 FMM=F ISym2X=0 I1Cent= 0 IOpClX= 1 NMat=1 NMatS=1 NMatT=0.
 ***** Axes restored to original set *****
 -------------------------------------------------------------------
 Center     Atomic                   Forces (Hartrees/Bohr)
 Number     Number              X              Y              Z
 -------------------------------------------------------------------
      1        6          -0.020634486    0.001430492   -0.013580691
      2        8           0.014127146    0.001700885    0.010915468
      3        8           0.010027905   -0.005019249    0.003914003
      4        1          -0.003520565    0.001887871   -0.001248779
 -------------------------------------------------------------------
 Cartesian Forces:  Max     0.020634486 RMS     0.009541441

 GradGradGradGradGradGradGradGradGradGradGradGradGradGradGradGradGradGrad
 Berny optimization.
 FormGI is forming the generalized inverse of G from B-inverse, IUseBI=4.
 Internal  Forces:  Max     0.018913362 RMS     0.010308724
 Search for a local minimum.
 Step number   1 out of a maximum of   20
 All quantities printed in internal units (Hartrees-Bohrs-Radians)
 Mixed Optimization -- RFO/linear search
 Second derivative matrix not updated -- first step.
 The second derivative matrix:
                          R1        R2        R3        A1        A2
           R1           1.10412
           R2           0.00000   0.59891
           R3           0.00000   0.00000   0.54510
           A1           0.00000   0.00000   0.00000   0.25000
           A2           0.00000   0.00000   0.00000   0.00000   0.16000
           D1           0.00000   0.00000   0.00000   0.00000   0.00000
                          D1
           D1           0.02639
 ITU=  0
     Eigenvalues ---    0.02639   0.16000   0.25000   0.54510   0.59891
     Eigenvalues ---    1.10412
 RFO step:  Lambda=-1.71045006D-03 EMin= 2.63922168D-02
 Linear search not attempted -- first point.
 Iteration  1 RMS(Cart)=  0.04743030 RMS(Int)=  0.00136596
 Iteration  2 RMS(Cart)=  0.00125159 RMS(Int)=  0.00000027
 Iteration  3 RMS(Cart)=  0.00000029 RMS(Int)=  0.00000000
 Variable       Old X    -DE/DX   Delta X   Delta X   Delta X     New X
                                 (Linear)    (Quad)   (Total)
    R1        2.24737  -0.01584   0.00000  -0.01432  -0.01432   2.23305
    R2        2.51027  -0.00320   0.00000  -0.00533  -0.00533   2.50494
    R3        1.82270   0.00412   0.00000   0.00753   0.00753   1.83023
    A1        2.20731   0.01891   0.00000   0.07514   0.07514   2.28245
    A2        1.88575   0.00135   0.00000   0.00834   0.00834   1.89409
    D1       -0.01154   0.00030   0.00000   0.01069   0.01069  -0.00084
         Item               Value     Threshold  Converged?
 Maximum Force            0.018913     0.000450     NO 
 RMS     Force            0.010309     0.000300     NO 
 Maximum Displacement     0.066629     0.001800     NO 
 RMS     Displacement     0.046876     0.001200     NO 
 Predicted change in Energy=-8.604588D-04
 GradGradGradGradGradGradGradGradGradGradGradGradGradGradGradGradGradGrad

                          Input orientation:                          
 ---------------------------------------------------------------------
 Center     Atomic      Atomic             Coordinates (Angstroms)
 Number     Number       Type             X           Y           Z
 ---------------------------------------------------------------------
      1          6           0       -3.489753    0.087410   -0.314237
      2          8           0       -4.080816   -0.549819   -1.114829
      3          8           0       -3.741926    1.284010    0.197287
      4          1           0       -4.557283    1.623087   -0.200515
 ---------------------------------------------------------------------
                    Distance matrix (angstroms):
                    1          2          3          4
     1  C    0.000000
     2  O    1.181679   0.000000
     3  O    1.325556   2.280225   0.000000
     4  H    1.873728   2.405101   0.968518   0.000000
 Stoichiometry    CHO2(2)
 Framework group  C1[X(CHO2)]
 Deg. of freedom     6
 Full point group                 C1      NOp   1
 Largest Abelian subgroup         C1      NOp   1
 Largest concise Abelian subgroup C1      NOp   1
                         Standard orientation:                         
 ---------------------------------------------------------------------
 Center     Atomic      Atomic             Coordinates (Angstroms)
 Number     Number       Type             X           Y           Z
 ---------------------------------------------------------------------
      1          6           0        0.133139   -0.418466    0.000113
      2          8           0        1.156730    0.171979   -0.000047
      3          8           0       -1.118323    0.018503   -0.000083
      4          1           0       -1.106087    0.986943    0.000364
 ---------------------------------------------------------------------
 Rotational constants (GHZ):         144.0185133          11.7925815          10.9000587
 Standard basis: 6-311+G(2d,2p) (5D, 7F)
 There are    96 symmetry adapted cartesian basis functions of A   symmetry.
 There are    90 symmetry adapted basis functions of A   symmetry.
    90 basis functions,   137 primitive gaussians,    96 cartesian basis functions
    12 alpha electrons       11 beta electrons
       nuclear repulsion energy        63.3357830293 Hartrees.
 NAtoms=    4 NActive=    4 NUniq=    4 SFac= 1.00D+00 NAtFMM=   60 NAOKFM=F Big=F
 Integral buffers will be    131072 words long.
 Raffenetti 2 integral format.
 Two-electron integral symmetry is turned on.
 Nuclear repulsion after empirical dispersion term =       63.3355933494 Hartrees.
 One-electron integrals computed using PRISM.
 NBasis=    90 RedAO= T EigKep=  9.80D-04  NBF=    90
 NBsUse=    90 1.00D-06 EigRej= -1.00D+00 NBFU=    90
 Initial guess from the checkpoint file:  "cooh.chk"
 B after Tr=     0.000000   -0.000000    0.000000
         Rot=    0.999999    0.000099    0.000006   -0.001322 Ang=   0.15 deg.
 Initial guess <Sx>= 0.0000 <Sy>= 0.0000 <Sz>= 0.5000 <S**2>= 0.7537 S= 0.5018
 ExpMin= 4.38D-02 ExpMax= 8.59D+03 ExpMxC= 1.30D+03 IAcc=2 IRadAn=         4 AccDes= 0.00D+00
 Harris functional with IExCor= 4639 and IRadAn=       4 diagonalized for initial guess.
 HarFok:  IExCor= 4639 AccDes= 0.00D+00 IRadAn=         4 IDoV= 1 UseB2=F ITyADJ=14
 ICtDFT=  3500011 ScaDFX=  1.000000  1.000000  1.000000  1.000000
 FoFCou: FMM=F IPFlag=           0 FMFlag=      100000 FMFlg1=           0
         NFxFlg=           0 DoJE=T BraDBF=F KetDBF=T FulRan=T
         wScrn=  0.000000 ICntrl=       500 IOpCl=  0 I1Cent=   200000004 NGrid=           0
         NMat0=    1 NMatS0=      1 NMatT0=    0 NMatD0=    1 NMtDS0=    0 NMtDT0=    0
 Petite list used in FoFCou.
 Keep R1 and R2 ints in memory in canonical form, NReq=55649328.
 Requested convergence on RMS density matrix=1.00D-08 within 128 cycles.
 Requested convergence on MAX density matrix=1.00D-06.
 Requested convergence on             energy=1.00D-06.
 No special actions if energy rises.
 SCF Done:  E(UwB97XD) =  -189.096692128     A.U. after   13 cycles
            NFock= 13  Conv=0.79D-08     -V/T= 2.0028
 <Sx>= 0.0000 <Sy>= 0.0000 <Sz>= 0.5000 <S**2>= 0.7537 S= 0.5018
 <L.S>= 0.000000000000E+00
 Annihilation of the first spin contaminant:
 S**2 before annihilation     0.7537,   after     0.7500
 Calling FoFJK, ICntrl=      2127 FMM=F ISym2X=0 I1Cent= 0 IOpClX= 1 NMat=1 NMatS=1 NMatT=0.
 ***** Axes restored to original set *****
 -------------------------------------------------------------------
 Center     Atomic                   Forces (Hartrees/Bohr)
 Number     Number              X              Y              Z
 -------------------------------------------------------------------
      1        6          -0.001019321   -0.001322127   -0.001478186
      2        8           0.002262521    0.004853354    0.004449879
      3        8           0.000201640   -0.005294765   -0.002959275
      4        1          -0.001444840    0.001763538   -0.000012417
 -------------------------------------------------------------------
 Cartesian Forces:  Max     0.005294765 RMS     0.002820724

 GradGradGradGradGradGradGradGradGradGradGradGradGradGradGradGradGradGrad
 Berny optimization.
 Using GEDIIS/GDIIS optimizer.
 FormGI is forming the generalized inverse of G from B-inverse, IUseBI=4.
 Internal  Forces:  Max     0.006763040 RMS     0.003777580
 Search for a local minimum.
 Step number   2 out of a maximum of   20
 All quantities printed in internal units (Hartrees-Bohrs-Radians)
 Mixed Optimization -- RFO/linear search
 Update second derivatives using D2CorX and points    1    2
 DE= -7.84D-04 DEPred=-8.60D-04 R= 9.11D-01
 TightC=F SS=  1.41D+00  RLast= 7.82D-02 DXNew= 5.0454D-01 2.3469D-01
 Trust test= 9.11D-01 RLast= 7.82D-02 DXMaxT set to 3.00D-01
 The second derivative matrix:
                          R1        R2        R3        A1        A2
           R1           1.00192
           R2          -0.03413   0.59335
           R3           0.02690   0.00882   0.53802
           A1           0.06292   0.04632  -0.01727   0.32095
           A2           0.01795   0.00196  -0.00461  -0.02854   0.15964
           D1           0.00124   0.00067  -0.00033   0.00032  -0.00039
                          D1
           D1           0.02639
 ITU=  1  0
 Use linear search instead of GDIIS.
     Eigenvalues ---    0.02638   0.15325   0.31088   0.53785   0.60053
     Eigenvalues ---    1.01138
 RFO step:  Lambda=-1.38099336D-04 EMin= 2.63837716D-02
 Quartic linear search produced a step of -0.06946.
 Iteration  1 RMS(Cart)=  0.00757347 RMS(Int)=  0.00004832
 Iteration  2 RMS(Cart)=  0.00003809 RMS(Int)=  0.00000000
 Iteration  3 RMS(Cart)=  0.00000000 RMS(Int)=  0.00000000
 Variable       Old X    -DE/DX   Delta X   Delta X   Delta X     New X
                                 (Linear)    (Quad)   (Total)
    R1        2.23305  -0.00676   0.00099  -0.00785  -0.00685   2.22619
    R2        2.50494  -0.00410   0.00037  -0.00716  -0.00679   2.49814
    R3        1.83023   0.00184  -0.00052   0.00426   0.00374   1.83397
    A1        2.28245  -0.00369  -0.00522  -0.00255  -0.00777   2.27467
    A2        1.89409   0.00247  -0.00058   0.01557   0.01499   1.90909
    D1       -0.00084   0.00002  -0.00074   0.00217   0.00142   0.00058
         Item               Value     Threshold  Converged?
 Maximum Force            0.006763     0.000450     NO 
 RMS     Force            0.003778     0.000300     NO 
 Maximum Displacement     0.009594     0.001800     NO 
 RMS     Displacement     0.007568     0.001200     NO 
 Predicted change in Energy=-7.334259D-05
 GradGradGradGradGradGradGradGradGradGradGradGradGradGradGradGradGradGrad

                          Input orientation:                          
 ---------------------------------------------------------------------
 Center     Atomic      Atomic             Coordinates (Angstroms)
 Number     Number       Type             X           Y           Z
 ---------------------------------------------------------------------
      1          6           0       -3.487610    0.085013   -0.313692
      2          8           0       -4.079744   -0.546754   -1.112474
      3          8           0       -3.743053    1.278933    0.193147
      4          1           0       -4.559370    1.627495   -0.199275
 ---------------------------------------------------------------------
                    Distance matrix (angstroms):
                    1          2          3          4
     1  C    0.000000
     2  O    1.178051   0.000000
     3  O    1.321961   2.269612   0.000000
     4  H    1.881757   2.406518   0.970497   0.000000
 Stoichiometry    CHO2(2)
 Framework group  C1[X(CHO2)]
 Deg. of freedom     6
 Full point group                 C1      NOp   1
 Largest Abelian subgroup         C1      NOp   1
 Largest concise Abelian subgroup C1      NOp   1
                         Standard orientation:                         
 ---------------------------------------------------------------------
 Center     Atomic      Atomic             Coordinates (Angstroms)
 Number     Number       Type             X           Y           Z
 ---------------------------------------------------------------------
      1          6           0        0.134179   -0.420520   -0.000077
      2          8           0        1.151379    0.173709    0.000032
      3          8           0       -1.112893    0.018106    0.000057
      4          1           0       -1.112970    0.988603   -0.000250
 ---------------------------------------------------------------------
 Rotational constants (GHZ):         142.6998210          11.8958813          10.9805132
 Standard basis: 6-311+G(2d,2p) (5D, 7F)
 There are    96 symmetry adapted cartesian basis functions of A   symmetry.
 There are    90 symmetry adapted basis functions of A   symmetry.
    90 basis functions,   137 primitive gaussians,    96 cartesian basis functions
    12 alpha electrons       11 beta electrons
       nuclear repulsion energy        63.5063490152 Hartrees.
 NAtoms=    4 NActive=    4 NUniq=    4 SFac= 1.00D+00 NAtFMM=   60 NAOKFM=F Big=F
 Integral buffers will be    131072 words long.
 Raffenetti 2 integral format.
 Two-electron integral symmetry is turned on.
 Nuclear repulsion after empirical dispersion term =       63.5061595387 Hartrees.
 One-electron integrals computed using PRISM.
 NBasis=    90 RedAO= T EigKep=  9.68D-04  NBF=    90
 NBsUse=    90 1.00D-06 EigRej= -1.00D+00 NBFU=    90
 Initial guess from the checkpoint file:  "cooh.chk"
 B after Tr=    -0.000000   -0.000000   -0.000000
         Rot=    1.000000   -0.000000    0.000000   -0.000661 Ang=  -0.08 deg.
 Initial guess <Sx>= 0.0000 <Sy>= 0.0000 <Sz>= 0.5000 <S**2>= 0.7537 S= 0.5018
 Keep R1 and R2 ints in memory in canonical form, NReq=55649328.
 Requested convergence on RMS density matrix=1.00D-08 within 128 cycles.
 Requested convergence on MAX density matrix=1.00D-06.
 Requested convergence on             energy=1.00D-06.
 No special actions if energy rises.
 SCF Done:  E(UwB97XD) =  -189.096765228     A.U. after   12 cycles
            NFock= 12  Conv=0.49D-08     -V/T= 2.0027
 <Sx>= 0.0000 <Sy>= 0.0000 <Sz>= 0.5000 <S**2>= 0.7536 S= 0.5018
 <L.S>= 0.000000000000E+00
 Annihilation of the first spin contaminant:
 S**2 before annihilation     0.7536,   after     0.7500
 Calling FoFJK, ICntrl=      2127 FMM=F ISym2X=0 I1Cent= 0 IOpClX= 1 NMat=1 NMatS=1 NMatT=0.
 ***** Axes restored to original set *****
 -------------------------------------------------------------------
 Center     Atomic                   Forces (Hartrees/Bohr)
 Number     Number              X              Y              Z
 -------------------------------------------------------------------
      1        6           0.000128138    0.001451018    0.000914594
      2        8          -0.000387514   -0.000415158   -0.000511960
      3        8          -0.000055355   -0.000843465   -0.000508710
      4        1           0.000314730   -0.000192395    0.000106076
 -------------------------------------------------------------------
 Cartesian Forces:  Max     0.001451018 RMS     0.000623404

 GradGradGradGradGradGradGradGradGradGradGradGradGradGradGradGradGradGrad
 Berny optimization.
 Using GEDIIS/GDIIS optimizer.
 FormGI is forming the generalized inverse of G from B-inverse, IUseBI=4.
 Internal  Forces:  Max     0.001140009 RMS     0.000583890
 Search for a local minimum.
 Step number   3 out of a maximum of   20
 All quantities printed in internal units (Hartrees-Bohrs-Radians)
 Mixed Optimization -- En-DIIS/RFO-DIIS
 Update second derivatives using D2CorX and points    1    2    3
 DE= -7.31D-05 DEPred=-7.33D-05 R= 9.97D-01
 TightC=F SS=  1.41D+00  RLast= 1.99D-02 DXNew= 5.0454D-01 5.9576D-02
 Trust test= 9.97D-01 RLast= 1.99D-02 DXMaxT set to 3.00D-01
 The second derivative matrix:
                          R1        R2        R3        A1        A2
           R1           1.08703
           R2          -0.08110   0.53569
           R3          -0.00646   0.01785   0.55004
           A1           0.07199   0.02931  -0.02210   0.31813
           A2          -0.00291   0.01906   0.00418  -0.02965   0.16433
           D1          -0.00019   0.00054   0.00013   0.00002   0.00002
                          D1
           D1           0.02640
 ITU=  1  1  0
 Use linear search instead of GDIIS.
     Eigenvalues ---    0.02640   0.15696   0.30981   0.52523   0.55849
     Eigenvalues ---    1.10473
 RFO step:  Lambda=-3.01054434D-06 EMin= 2.64013597D-02
 Quartic linear search produced a step of -0.00629.
 Iteration  1 RMS(Cart)=  0.00107632 RMS(Int)=  0.00000016
 Iteration  2 RMS(Cart)=  0.00000015 RMS(Int)=  0.00000000
 Variable       Old X    -DE/DX   Delta X   Delta X   Delta X     New X
                                 (Linear)    (Quad)   (Total)
    R1        2.22619   0.00077   0.00004   0.00051   0.00055   2.22675
    R2        2.49814  -0.00114   0.00004  -0.00205  -0.00200   2.49614
    R3        1.83397  -0.00038  -0.00002  -0.00059  -0.00061   1.83336
    A1        2.27467   0.00000   0.00005  -0.00008  -0.00003   2.27465
    A2        1.90909  -0.00013  -0.00009  -0.00046  -0.00055   1.90853
    D1        0.00058  -0.00001  -0.00001  -0.00050  -0.00050   0.00008
         Item               Value     Threshold  Converged?
 Maximum Force            0.001140     0.000450     NO 
 RMS     Force            0.000584     0.000300     NO 
 Maximum Displacement     0.001609     0.001800     YES
 RMS     Displacement     0.001076     0.001200     YES
 Predicted change in Energy=-1.508216D-06
 GradGradGradGradGradGradGradGradGradGradGradGradGradGradGradGradGradGrad

                          Input orientation:                          
 ---------------------------------------------------------------------
 Center     Atomic      Atomic             Coordinates (Angstroms)
 Number     Number       Type             X           Y           Z
 ---------------------------------------------------------------------
      1          6           0       -3.487667    0.085714   -0.313459
      2          8           0       -4.080034   -0.546267   -1.112329
      3          8           0       -3.743030    1.278596    0.193100
      4          1           0       -4.559047    1.626643   -0.199605
 ---------------------------------------------------------------------
                    Distance matrix (angstroms):
                    1          2          3          4
     1  C    0.000000
     2  O    1.178343   0.000000
     3  O    1.320901   2.268885   0.000000
     4  H    1.880234   2.405006   0.970174   0.000000
 Stoichiometry    CHO2(2)
 Framework group  C1[X(CHO2)]
 Deg. of freedom     6
 Full point group                 C1      NOp   1
 Largest Abelian subgroup         C1      NOp   1
 Largest concise Abelian subgroup C1      NOp   1
                         Standard orientation:                         
 ---------------------------------------------------------------------
 Center     Atomic      Atomic             Coordinates (Angstroms)
 Number     Number       Type             X           Y           Z
 ---------------------------------------------------------------------
      1          6           0        0.133522   -0.420481   -0.000010
      2          8           0        1.151185    0.173534    0.000004
      3          8           0       -1.112382    0.018271    0.000007
      4          1           0       -1.111552    0.988444   -0.000033
 ---------------------------------------------------------------------
 Rotational constants (GHZ):         142.7607532          11.9044646          10.9881870
 Standard basis: 6-311+G(2d,2p) (5D, 7F)
 There are    96 symmetry adapted cartesian basis functions of A   symmetry.
 There are    90 symmetry adapted basis functions of A   symmetry.
    90 basis functions,   137 primitive gaussians,    96 cartesian basis functions
    12 alpha electrons       11 beta electrons
       nuclear repulsion energy        63.5251376659 Hartrees.
 NAtoms=    4 NActive=    4 NUniq=    4 SFac= 1.00D+00 NAtFMM=   60 NAOKFM=F Big=F
 Integral buffers will be    131072 words long.
 Raffenetti 2 integral format.
 Two-electron integral symmetry is turned on.
 Nuclear repulsion after empirical dispersion term =       63.5249486860 Hartrees.
 One-electron integrals computed using PRISM.
 NBasis=    90 RedAO= T EigKep=  9.68D-04  NBF=    90
 NBsUse=    90 1.00D-06 EigRej= -1.00D+00 NBFU=    90
 Initial guess from the checkpoint file:  "cooh.chk"
 B after Tr=    -0.000000   -0.000000    0.000000
         Rot=    1.000000    0.000000   -0.000000    0.000119 Ang=   0.01 deg.
 Initial guess <Sx>= 0.0000 <Sy>= 0.0000 <Sz>= 0.5000 <S**2>= 0.7536 S= 0.5018
 Keep R1 and R2 ints in memory in canonical form, NReq=55649328.
 Requested convergence on RMS density matrix=1.00D-08 within 128 cycles.
 Requested convergence on MAX density matrix=1.00D-06.
 Requested convergence on             energy=1.00D-06.
 No special actions if energy rises.
 SCF Done:  E(UwB97XD) =  -189.096767181     A.U. after   10 cycles
            NFock= 10  Conv=0.52D-08     -V/T= 2.0027
 <Sx>= 0.0000 <Sy>= 0.0000 <Sz>= 0.5000 <S**2>= 0.7536 S= 0.5018
 <L.S>= 0.000000000000E+00
 Annihilation of the first spin contaminant:
 S**2 before annihilation     0.7536,   after     0.7500
 Calling FoFJK, ICntrl=      2127 FMM=F ISym2X=0 I1Cent= 0 IOpClX= 1 NMat=1 NMatS=1 NMatT=0.
 ***** Axes restored to original set *****
 -------------------------------------------------------------------
 Center     Atomic                   Forces (Hartrees/Bohr)
 Number     Number              X              Y              Z
 -------------------------------------------------------------------
      1        6           0.000153104    0.000548930    0.000427643
      2        8          -0.000206139   -0.000249634   -0.000293740
      3        8           0.000028764   -0.000322386   -0.000163483
      4        1           0.000024271    0.000023089    0.000029580
 -------------------------------------------------------------------
 Cartesian Forces:  Max     0.000548930 RMS     0.000263347

 GradGradGradGradGradGradGradGradGradGradGradGradGradGradGradGradGradGrad
 Berny optimization.
 Using GEDIIS/GDIIS optimizer.
 FormGI is forming the generalized inverse of G from B-inverse, IUseBI=4.
 Internal  Forces:  Max     0.000437392 RMS     0.000226900
 Search for a local minimum.
 Step number   4 out of a maximum of   20
 All quantities printed in internal units (Hartrees-Bohrs-Radians)
 Mixed Optimization -- En-DIIS/RFO-DIIS
 Swapping is turned off.
 Update second derivatives using D2CorX and points    1    2    3    4
 DE= -1.95D-06 DEPred=-1.51D-06 R= 1.30D+00
 TightC=F SS=  1.41D+00  RLast= 2.29D-03 DXNew= 5.0454D-01 6.8733D-03
 Trust test= 1.30D+00 RLast= 2.29D-03 DXMaxT set to 3.00D-01
 The second derivative matrix:
                          R1        R2        R3        A1        A2
           R1           0.96967
           R2           0.09019   0.41108
           R3           0.03630   0.01060   0.55847
           A1           0.07101   0.04680  -0.01469   0.32052
           A2           0.00161   0.04846   0.01809  -0.02505   0.17418
           D1           0.00161  -0.00010   0.00033   0.00029   0.00051
                          D1
           D1           0.02641
 ITU=  1  1  1  0
     Eigenvalues ---    0.02640   0.15706   0.30788   0.41506   0.55811
     Eigenvalues ---    0.99580
 En-DIIS/RFO-DIIS/Sim-DIIS IScMMF=       -3 using points:     4    3
 RFO step:  Lambda=-6.38850886D-07.
 DidBck=F Rises=F RFO-DIIS coefs:    1.39335   -0.39335
 Iteration  1 RMS(Cart)=  0.00042251 RMS(Int)=  0.00000017
 Iteration  2 RMS(Cart)=  0.00000014 RMS(Int)=  0.00000000
 Variable       Old X    -DE/DX   Delta X   Delta X   Delta X     New X
                                 (Linear)    (Quad)   (Total)
    R1        2.22675   0.00044   0.00022   0.00032   0.00053   2.22728
    R2        2.49614  -0.00033  -0.00079  -0.00025  -0.00103   2.49511
    R3        1.83336  -0.00003  -0.00024   0.00016  -0.00008   1.83329
    A1        2.27465   0.00004  -0.00001   0.00023   0.00022   2.27487
    A2        1.90853   0.00007  -0.00022   0.00094   0.00073   1.90926
    D1        0.00008  -0.00000  -0.00020   0.00007  -0.00012  -0.00005
         Item               Value     Threshold  Converged?
 Maximum Force            0.000437     0.000450     YES
 RMS     Force            0.000227     0.000300     YES
 Maximum Displacement     0.000504     0.001800     YES
 RMS     Displacement     0.000423     0.001200     YES
 Predicted change in Energy=-3.194260D-07
 Optimization completed.
    -- Stationary point found.
                           ----------------------------
                           !   Optimized Parameters   !
                           ! (Angstroms and Degrees)  !
 --------------------------                            --------------------------
 ! Name  Definition              Value          Derivative Info.                !
 --------------------------------------------------------------------------------
 ! R1    R(1,2)                  1.1783         -DE/DX =    0.0004              !
 ! R2    R(1,3)                  1.3209         -DE/DX =   -0.0003              !
 ! R3    R(3,4)                  0.9702         -DE/DX =    0.0                 !
 ! A1    A(2,1,3)              130.3276         -DE/DX =    0.0                 !
 ! A2    A(1,3,4)              109.351          -DE/DX =    0.0001              !
 ! D1    D(2,1,3,4)              0.0043         -DE/DX =    0.0                 !
 --------------------------------------------------------------------------------
 GradGradGradGradGradGradGradGradGradGradGradGradGradGradGradGradGradGrad

                          Input orientation:                          
 ---------------------------------------------------------------------
 Center     Atomic      Atomic             Coordinates (Angstroms)
 Number     Number       Type             X           Y           Z
 ---------------------------------------------------------------------
      1          6           0       -3.487667    0.085714   -0.313459
      2          8           0       -4.080034   -0.546267   -1.112329
      3          8           0       -3.743030    1.278596    0.193100
      4          1           0       -4.559047    1.626643   -0.199605
 ---------------------------------------------------------------------
                    Distance matrix (angstroms):
                    1          2          3          4
     1  C    0.000000
     2  O    1.178343   0.000000
     3  O    1.320901   2.268885   0.000000
     4  H    1.880234   2.405006   0.970174   0.000000
 Stoichiometry    CHO2(2)
 Framework group  C1[X(CHO2)]
 Deg. of freedom     6
 Full point group                 C1      NOp   1
 Largest Abelian subgroup         C1      NOp   1
 Largest concise Abelian subgroup C1      NOp   1
                         Standard orientation:                         
 ---------------------------------------------------------------------
 Center     Atomic      Atomic             Coordinates (Angstroms)
 Number     Number       Type             X           Y           Z
 ---------------------------------------------------------------------
      1          6           0        0.133522   -0.420481   -0.000010
      2          8           0        1.151185    0.173534    0.000004
      3          8           0       -1.112382    0.018271    0.000007
      4          1           0       -1.111552    0.988444   -0.000033
 ---------------------------------------------------------------------
 Rotational constants (GHZ):         142.7607532          11.9044646          10.9881870

 **********************************************************************

            Population analysis using the SCF density.

 **********************************************************************

 Orbital symmetries:
 Alpha Orbitals:
       Occupied  (A) (A) (A) (A) (A) (A) (A) (A) (A) (A) (A) (A)
       Virtual   (A) (A) (A) (A) (A) (A) (A) (A) (A) (A) (A) (A)
                 (A) (A) (A) (A) (A) (A) (A) (A) (A) (A) (A) (A)
                 (A) (A) (A) (A) (A) (A) (A) (A) (A) (A) (A) (A)
                 (A) (A) (A) (A) (A) (A) (A) (A) (A) (A) (A) (A)
                 (A) (A) (A) (A) (A) (A) (A) (A) (A) (A) (A) (A)
                 (A) (A) (A) (A) (A) (A) (A) (A) (A) (A) (A) (A)
                 (A) (A) (A) (A) (A) (A)
 Beta  Orbitals:
       Occupied  (A) (A) (A) (A) (A) (A) (A) (A) (A) (A) (A)
       Virtual   (A) (A) (A) (A) (A) (A) (A) (A) (A) (A) (A) (A)
                 (A) (A) (A) (A) (A) (A) (A) (A) (A) (A) (A) (A)
                 (A) (A) (A) (A) (A) (A) (A) (A) (A) (A) (A) (A)
                 (A) (A) (A) (A) (A) (A) (A) (A) (A) (A) (A) (A)
                 (A) (A) (A) (A) (A) (A) (A) (A) (A) (A) (A) (A)
                 (A) (A) (A) (A) (A) (A) (A) (A) (A) (A) (A) (A)
                 (A) (A) (A) (A) (A) (A) (A)
 The electronic state is 2-A.
 Alpha  occ. eigenvalues --  -19.34304 -19.30116 -10.44305  -1.26236  -1.18563
 Alpha  occ. eigenvalues --   -0.77076  -0.62518  -0.59957  -0.57822  -0.49039
 Alpha  occ. eigenvalues --   -0.45763  -0.33609
 Alpha virt. eigenvalues --    0.05952   0.06165   0.09952   0.10406   0.10959
 Alpha virt. eigenvalues --    0.17955   0.22233   0.25293   0.25935   0.28398
 Alpha virt. eigenvalues --    0.29831   0.32269   0.32482   0.35260   0.39106
 Alpha virt. eigenvalues --    0.50002   0.53157   0.59647   0.63166   0.68762
 Alpha virt. eigenvalues --    0.68773   0.72710   0.79310   0.86176   0.97245
 Alpha virt. eigenvalues --    0.98077   1.05339   1.08896   1.10312   1.12317
 Alpha virt. eigenvalues --    1.13143   1.15751   1.32688   1.37307   1.49051
 Alpha virt. eigenvalues --    1.53595   1.57465   1.60988   1.73363   1.79443
 Alpha virt. eigenvalues --    1.95342   1.98772   2.10516   2.23881   2.34662
 Alpha virt. eigenvalues --    2.40032   2.59906   2.79440   2.84303   3.03743
 Alpha virt. eigenvalues --    3.27386   3.37660   3.38959   3.45014   3.58571
 Alpha virt. eigenvalues --    3.80456   3.85170   4.02098   4.17769   5.04353
 Alpha virt. eigenvalues --    5.08949   5.12903   5.46777   5.91436   6.26348
 Alpha virt. eigenvalues --    6.78384   6.84344   6.88746   7.00398   7.04090
 Alpha virt. eigenvalues --    7.09881   7.14777   7.24430   7.28588   7.46968
 Alpha virt. eigenvalues --   24.14648  49.96906  50.01458
  Beta  occ. eigenvalues --  -19.33994 -19.29484 -10.43255  -1.24939  -1.17135
  Beta  occ. eigenvalues --   -0.74802  -0.61525  -0.56994  -0.56813  -0.45633
  Beta  occ. eigenvalues --   -0.45409
  Beta virt. eigenvalues --   -0.03901   0.08183   0.08305   0.10925   0.12416
  Beta virt. eigenvalues --    0.12568   0.18905   0.22848   0.25659   0.26172
  Beta virt. eigenvalues --    0.29571   0.30360   0.32813   0.33037   0.35928
  Beta virt. eigenvalues --    0.40576   0.51228   0.54911   0.60411   0.65153
  Beta virt. eigenvalues --    0.69634   0.69906   0.74564   0.80427   0.87560
  Beta virt. eigenvalues --    0.98230   0.98761   1.05856   1.09183   1.11009
  Beta virt. eigenvalues --    1.13291   1.14018   1.16019   1.33948   1.38639
  Beta virt. eigenvalues --    1.50042   1.54018   1.58265   1.61745   1.74422
  Beta virt. eigenvalues --    1.79809   1.96454   1.99212   2.11038   2.24738
  Beta virt. eigenvalues --    2.35775   2.41241   2.60870   2.80506   2.85992
  Beta virt. eigenvalues --    3.07607   3.31827   3.41335   3.41635   3.48636
  Beta virt. eigenvalues --    3.60308   3.81126   3.87880   4.02945   4.18134
  Beta virt. eigenvalues --    5.04612   5.09442   5.15396   5.47426   5.92423
  Beta virt. eigenvalues --    6.27373   6.80182   6.86477   6.89425   7.01262
  Beta virt. eigenvalues --    7.05510   7.10751   7.15841   7.25859   7.29971
  Beta virt. eigenvalues --    7.47741  24.16406  49.97210  50.02010
          Condensed to atoms (all electrons):
               1          2          3          4
     1  C    5.191742   0.368282   0.125717   0.012793
     2  O    0.368282   7.947870  -0.029826   0.013955
     3  O    0.125717  -0.029826   7.958992   0.211833
     4  H    0.012793   0.013955   0.211833   0.495890
          Atomic-Atomic Spin Densities.
               1          2          3          4
     1  C    1.065089  -0.122259  -0.225422   0.033027
     2  O   -0.122259   0.321339  -0.000732   0.012917
     3  O   -0.225422  -0.000732   0.254414  -0.052176
     4  H    0.033027   0.012917  -0.052176   0.068448
 Mulliken charges and spin densities:
               1          2
     1  C    0.301467   0.750435
     2  O   -0.300280   0.211265
     3  O   -0.266716  -0.023916
     4  H    0.265529   0.062216
 Sum of Mulliken charges =  -0.00000   1.00000
 Mulliken charges and spin densities with hydrogens summed into heavy atoms:
               1          2
     1  C    0.301467   0.750435
     2  O   -0.300280   0.211265
     3  O   -0.001186   0.038300
 Electronic spatial extent (au):  <R**2>=            123.7643
 Charge=             -0.0000 electrons
 Dipole moment (field-independent basis, Debye):
    X=             -1.5399    Y=              1.3207    Z=             -0.0001  Tot=              2.0287
 Quadrupole moment (field-independent basis, Debye-Ang):
   XX=            -19.2373   YY=            -14.9831   ZZ=            -16.3699
   XY=             -2.4329   XZ=              0.0001   YZ=             -0.0001
 Traceless Quadrupole moment (field-independent basis, Debye-Ang):
   XX=             -2.3739   YY=              1.8803   ZZ=              0.4936
   XY=             -2.4329   XZ=              0.0001   YZ=             -0.0001
 Octapole moment (field-independent basis, Debye-Ang**2):
  XXX=             -2.9126  YYY=              5.4834  ZZZ=              0.0000  XYY=             -3.1082
  XXY=              3.1550  XXZ=             -0.0001  XZZ=             -0.0294  YZZ=              0.7548
  YYZ=             -0.0000  XYZ=              0.0001
 Hexadecapole moment (field-independent basis, Debye-Ang**3):
 XXXX=           -106.9520 YYYY=            -24.5694 ZZZZ=            -14.3788 XXXY=             -4.0442
 XXXZ=              0.0001 YYYX=             -2.9951 YYYZ=             -0.0002 ZZZX=              0.0000
 ZZZY=             -0.0001 XXYY=            -18.6780 XXZZ=            -20.0577 YYZZ=             -6.6837
 XXYZ=             -0.0001 YYXZ=              0.0001 ZZXY=             -0.2103
 N-N= 6.352494868604D+01 E-N=-5.725907872716D+02  KE= 1.885824122196D+02
                          Isotropic Fermi Contact Couplings
        Atom                 a.u.       MegaHertz       Gauss      10(-4) cm-1
     1  C(13)              0.54910     617.29075     220.26469     205.90603
     2  O(17)              0.09365     -56.76773     -20.25614     -18.93568
     3  O(17)              0.37554    -227.64854     -81.23066     -75.93538
     4  H(1)               0.01765      78.87246      28.14366      26.30902
 --------------------------------------------------------
       Center         ----  Spin Dipole Couplings  ----
                      3XX-RR        3YY-RR        3ZZ-RR
 --------------------------------------------------------
     1   Atom       -0.361446      0.658013     -0.296567
     2   Atom       -0.512031      1.198065     -0.686033
     3   Atom        0.177188     -0.009517     -0.167671
     4   Atom        0.002427      0.013765     -0.016192
 --------------------------------------------------------
                        XY            XZ            YZ
 --------------------------------------------------------
     1   Atom        0.121634      0.000001      0.000016
     2   Atom       -0.236567     -0.000005      0.000032
     3   Atom       -0.207946     -0.000025      0.000016
     4   Atom       -0.009425     -0.000000     -0.000001
 --------------------------------------------------------


 ---------------------------------------------------------------------------------
              Anisotropic Spin Dipole Couplings in Principal Axis System
 ---------------------------------------------------------------------------------

       Atom             a.u.   MegaHertz   Gauss  10(-4) cm-1        Axes

              Baa    -0.3758   -50.423   -17.992   -16.819  0.9931 -0.1169  0.0000
     1 C(13)  Bbb    -0.2966   -39.796   -14.200   -13.275 -0.0000 -0.0000  1.0000
              Bcc     0.6723    90.220    32.193    30.094  0.1169  0.9931  0.0000
 
              Baa    -0.6860    49.641    17.713    16.558  0.0000 -0.0000  1.0000
     2 O(17)  Bbb    -0.5442    39.375    14.050    13.134  0.9909  0.1346 -0.0000
              Bcc     1.2302   -89.015   -31.763   -29.692 -0.1346  0.9909  0.0000
 
              Baa    -0.1677    12.133     4.329     4.047  0.0000 -0.0000  1.0000
     3 O(17)  Bbb    -0.1441    10.427     3.721     3.478  0.5433  0.8395  0.0000
              Bcc     0.3118   -22.560    -8.050    -7.525  0.8395 -0.5433 -0.0001
 
              Baa    -0.0162    -8.639    -3.083    -2.882  0.0000  0.0000  1.0000
     4 H(1)   Bbb    -0.0029    -1.549    -0.553    -0.517  0.8705  0.4922 -0.0001
              Bcc     0.0191    10.188     3.635     3.398 -0.4922  0.8705 -0.0000
 

 ---------------------------------------------------------------------------------

 1\1\GINC-CCLEARCO\FOpt\UwB97XD\6-311+G(2d,2p)\C1H1O2(2)\RAPPE\14-Aug-2
 023\0\\# opt freq wb97xd/6-311+g(2d,2p) geom=connectivity\\Title Card 
 Required\\0,2\C,-3.487666687,0.0857140839,-0.3134592039\O,-4.080034237
 5,-0.5462666079,-1.1123289824\O,-3.7430295544,1.2785963256,0.193099804
 6\H,-4.5590465211,1.6266431984,-0.1996046183\\Version=EM64M-G16RevA.03
 \State=2-A\HF=-189.0967672\S2=0.753644\S2-1=0.\S2A=0.750008\RMSD=5.161
 e-09\RMSF=2.633e-04\Dipole=-0.3817553,0.6901372,0.1225242\Quadrupole=0
 .8010612,0.1089486,-0.9100097,-1.6778521,-0.6580045,-1.3728926\PG=C01 
 [X(C1H1O2)]\\@


 OLD AGE AND TREACHERY WILL ALWAYS PREVAIL OVER YOUTH AND SKILL.
 Job cpu time:       0 days  0 hours  8 minutes  1.2 seconds.
 Elapsed time:       0 days  0 hours  0 minutes 21.5 seconds.
 File lengths (MBytes):  RWF=     10 Int=      0 D2E=      0 Chk=      2 Scr=      1
 Normal termination of Gaussian 16 at Mon Aug 14 08:18:52 2023.
 Link1:  Proceeding to internal job step number  2.
 ----------------------------------------------------------------------
 #N Geom=AllCheck Guess=TCheck SCRF=Check GenChk UwB97XD/6-311+G(2d,2p)
  Freq
 ----------------------------------------------------------------------
 1/10=4,29=7,30=1,38=1,40=1/1,3;
 2/12=2,40=1/2;
 3/5=4,6=6,7=212,11=2,14=-4,25=1,30=1,70=2,71=2,74=-58,116=2,140=1/1,2,3;
 4/5=101/1;
 5/5=2,38=6,98=1/2;
 8/6=4,10=90,11=11/1;
 11/6=1,8=1,9=11,15=111,16=1/1,2,10;
 10/6=1/2;
 6/7=2,8=2,9=2,10=2,28=1/1;
 7/8=1,10=1,25=1/1,2,3,16;
 1/10=4,30=1/3;
 99//99;
 Structure from the checkpoint file:  "cooh.chk"
 -------------------
 Title Card Required
 -------------------
 Charge =  0 Multiplicity = 2
 Redundant internal coordinates found in file.  (old form).
 C,0,-3.487666687,0.0857140839,-0.3134592039
 O,0,-4.0800342375,-0.5462666079,-1.1123289824
 O,0,-3.7430295544,1.2785963256,0.1930998046
 H,0,-4.5590465211,1.6266431984,-0.1996046183
 Recover connectivity data from disk.

 GradGradGradGradGradGradGradGradGradGradGradGradGradGradGradGradGradGrad
 Berny optimization.
 Initialization pass.
                           ----------------------------
                           !    Initial Parameters    !
                           ! (Angstroms and Degrees)  !
 --------------------------                            --------------------------
 ! Name  Definition              Value          Derivative Info.                !
 --------------------------------------------------------------------------------
 ! R1    R(1,2)                  1.1783         calculate D2E/DX2 analytically  !
 ! R2    R(1,3)                  1.3209         calculate D2E/DX2 analytically  !
 ! R3    R(3,4)                  0.9702         calculate D2E/DX2 analytically  !
 ! A1    A(2,1,3)              130.3276         calculate D2E/DX2 analytically  !
 ! A2    A(1,3,4)              109.351          calculate D2E/DX2 analytically  !
 ! D1    D(2,1,3,4)              0.0043         calculate D2E/DX2 analytically  !
 --------------------------------------------------------------------------------
 Trust Radius=3.00D-01 FncErr=1.00D-07 GrdErr=1.00D-07 EigMax=2.50D+02 EigMin=1.00D-04
 Number of steps in this run=      2 maximum allowed number of steps=      2.
 GradGradGradGradGradGradGradGradGradGradGradGradGradGradGradGradGradGrad

                          Input orientation:                          
 ---------------------------------------------------------------------
 Center     Atomic      Atomic             Coordinates (Angstroms)
 Number     Number       Type             X           Y           Z
 ---------------------------------------------------------------------
      1          6           0       -3.487667    0.085714   -0.313459
      2          8           0       -4.080034   -0.546267   -1.112329
      3          8           0       -3.743030    1.278596    0.193100
      4          1           0       -4.559047    1.626643   -0.199605
 ---------------------------------------------------------------------
                    Distance matrix (angstroms):
                    1          2          3          4
     1  C    0.000000
     2  O    1.178343   0.000000
     3  O    1.320901   2.268885   0.000000
     4  H    1.880234   2.405006   0.970174   0.000000
 Stoichiometry    CHO2(2)
 Framework group  C1[X(CHO2)]
 Deg. of freedom     6
 Full point group                 C1      NOp   1
 Largest Abelian subgroup         C1      NOp   1
 Largest concise Abelian subgroup C1      NOp   1
                         Standard orientation:                         
 ---------------------------------------------------------------------
 Center     Atomic      Atomic             Coordinates (Angstroms)
 Number     Number       Type             X           Y           Z
 ---------------------------------------------------------------------
      1          6           0        0.133522   -0.420481   -0.000010
      2          8           0        1.151185    0.173534    0.000004
      3          8           0       -1.112382    0.018271    0.000007
      4          1           0       -1.111552    0.988444   -0.000033
 ---------------------------------------------------------------------
 Rotational constants (GHZ):         142.7607532          11.9044646          10.9881870
 Standard basis: 6-311+G(2d,2p) (5D, 7F)
 There are    96 symmetry adapted cartesian basis functions of A   symmetry.
 There are    90 symmetry adapted basis functions of A   symmetry.
    90 basis functions,   137 primitive gaussians,    96 cartesian basis functions
    12 alpha electrons       11 beta electrons
       nuclear repulsion energy        63.5251376659 Hartrees.
 NAtoms=    4 NActive=    4 NUniq=    4 SFac= 1.00D+00 NAtFMM=   60 NAOKFM=F Big=F
 Integral buffers will be    131072 words long.
 Raffenetti 2 integral format.
 Two-electron integral symmetry is turned on.
 Nuclear repulsion after empirical dispersion term =       63.5249486860 Hartrees.
 One-electron integrals computed using PRISM.
 NBasis=    90 RedAO= T EigKep=  9.68D-04  NBF=    90
 NBsUse=    90 1.00D-06 EigRej= -1.00D+00 NBFU=    90
 Initial guess from the checkpoint file:  "cooh.chk"
 B after Tr=     0.000000    0.000000    0.000000
         Rot=    1.000000    0.000000    0.000000   -0.000000 Ang=   0.00 deg.
 Initial guess <Sx>= 0.0000 <Sy>= 0.0000 <Sz>= 0.5000 <S**2>= 0.7536 S= 0.5018
 Keep R1 and R2 ints in memory in canonical form, NReq=55649328.
 Requested convergence on RMS density matrix=1.00D-08 within 128 cycles.
 Requested convergence on MAX density matrix=1.00D-06.
 Requested convergence on             energy=1.00D-06.
 No special actions if energy rises.
 SCF Done:  E(UwB97XD) =  -189.096767181     A.U. after    1 cycles
            NFock=  1  Conv=0.11D-08     -V/T= 2.0027
 <Sx>= 0.0000 <Sy>= 0.0000 <Sz>= 0.5000 <S**2>= 0.7536 S= 0.5018
 <L.S>= 0.000000000000E+00
 Annihilation of the first spin contaminant:
 S**2 before annihilation     0.7536,   after     0.7500
 DoSCS=F DFT=T ScalE2(SS,OS)=  1.000000  1.000000
 Range of M.O.s used for correlation:     1    90
 NBasis=    90 NAE=    12 NBE=    11 NFC=     0 NFV=     0
 NROrb=     90 NOA=    12 NOB=    11 NVA=    78 NVB=    79
 Symmetrizing basis deriv contribution to polar:
 IMax=3 JMax=2 DiffMx= 0.00D+00
 G2DrvN: will do     5 centers at a time, making    1 passes.
 Calling FoFCou, ICntrl=  3107 FMM=F I1Cent=   0 AccDes= 0.00D+00.
 End of G2Drv F.D. properties file   721 does not exist.
 End of G2Drv F.D. properties file   722 does not exist.
 End of G2Drv F.D. properties file   788 does not exist.
          IDoAtm=1111
          Differentiating once with respect to electric field.
                with respect to dipole field.
          Differentiating once with respect to nuclear coordinates.
 Keep R1 and R2 ints in memory in canonical form, NReq=55569072.
          There are    15 degrees of freedom in the 1st order CPHF.  IDoFFX=6 NUNeed=     3.
     12 vectors produced by pass  0 Test12= 1.20D-14 6.67D-09 XBig12= 2.17D+01 2.13D+00.
 AX will form    12 AO Fock derivatives at one time.
     12 vectors produced by pass  1 Test12= 1.20D-14 6.67D-09 XBig12= 6.10D+00 5.62D-01.
     12 vectors produced by pass  2 Test12= 1.20D-14 6.67D-09 XBig12= 3.12D-01 1.90D-01.
     12 vectors produced by pass  3 Test12= 1.20D-14 6.67D-09 XBig12= 9.45D-03 2.38D-02.
     12 vectors produced by pass  4 Test12= 1.20D-14 6.67D-09 XBig12= 1.26D-04 3.84D-03.
     12 vectors produced by pass  5 Test12= 1.20D-14 6.67D-09 XBig12= 2.81D-06 3.70D-04.
     12 vectors produced by pass  6 Test12= 1.20D-14 6.67D-09 XBig12= 2.65D-08 3.16D-05.
     12 vectors produced by pass  7 Test12= 1.20D-14 6.67D-09 XBig12= 2.08D-10 2.99D-06.
      5 vectors produced by pass  8 Test12= 1.20D-14 6.67D-09 XBig12= 1.82D-12 3.12D-07.
      3 vectors produced by pass  9 Test12= 1.20D-14 6.67D-09 XBig12= 1.29D-14 1.96D-08.
 InvSVY:  IOpt=1 It=  1 EMax= 1.78D-15
 Solved reduced A of dimension   104 with    12 vectors.
 Isotropic polarizability for W=    0.000000       20.44 Bohr**3.
 End of Minotr F.D. properties file   721 does not exist.
 End of Minotr F.D. properties file   722 does not exist.
 End of Minotr F.D. properties file   788 does not exist.

 **********************************************************************

            Population analysis using the SCF density.

 **********************************************************************

 Orbital symmetries:
 Alpha Orbitals:
       Occupied  (A) (A) (A) (A) (A) (A) (A) (A) (A) (A) (A) (A)
       Virtual   (A) (A) (A) (A) (A) (A) (A) (A) (A) (A) (A) (A)
                 (A) (A) (A) (A) (A) (A) (A) (A) (A) (A) (A) (A)
                 (A) (A) (A) (A) (A) (A) (A) (A) (A) (A) (A) (A)
                 (A) (A) (A) (A) (A) (A) (A) (A) (A) (A) (A) (A)
                 (A) (A) (A) (A) (A) (A) (A) (A) (A) (A) (A) (A)
                 (A) (A) (A) (A) (A) (A) (A) (A) (A) (A) (A) (A)
                 (A) (A) (A) (A) (A) (A)
 Beta  Orbitals:
       Occupied  (A) (A) (A) (A) (A) (A) (A) (A) (A) (A) (A)
       Virtual   (A) (A) (A) (A) (A) (A) (A) (A) (A) (A) (A) (A)
                 (A) (A) (A) (A) (A) (A) (A) (A) (A) (A) (A) (A)
                 (A) (A) (A) (A) (A) (A) (A) (A) (A) (A) (A) (A)
                 (A) (A) (A) (A) (A) (A) (A) (A) (A) (A) (A) (A)
                 (A) (A) (A) (A) (A) (A) (A) (A) (A) (A) (A) (A)
                 (A) (A) (A) (A) (A) (A) (A) (A) (A) (A) (A) (A)
                 (A) (A) (A) (A) (A) (A) (A)
 The electronic state is 2-A.
 Alpha  occ. eigenvalues --  -19.34304 -19.30116 -10.44305  -1.26236  -1.18563
 Alpha  occ. eigenvalues --   -0.77076  -0.62518  -0.59957  -0.57822  -0.49039
 Alpha  occ. eigenvalues --   -0.45763  -0.33609
 Alpha virt. eigenvalues --    0.05952   0.06165   0.09952   0.10406   0.10959
 Alpha virt. eigenvalues --    0.17955   0.22233   0.25293   0.25935   0.28398
 Alpha virt. eigenvalues --    0.29831   0.32269   0.32482   0.35260   0.39106
 Alpha virt. eigenvalues --    0.50002   0.53157   0.59647   0.63166   0.68762
 Alpha virt. eigenvalues --    0.68773   0.72710   0.79310   0.86176   0.97245
 Alpha virt. eigenvalues --    0.98077   1.05339   1.08896   1.10312   1.12317
 Alpha virt. eigenvalues --    1.13143   1.15751   1.32688   1.37307   1.49051
 Alpha virt. eigenvalues --    1.53595   1.57465   1.60988   1.73363   1.79443
 Alpha virt. eigenvalues --    1.95342   1.98772   2.10516   2.23881   2.34662
 Alpha virt. eigenvalues --    2.40032   2.59906   2.79440   2.84303   3.03743
 Alpha virt. eigenvalues --    3.27386   3.37660   3.38959   3.45014   3.58571
 Alpha virt. eigenvalues --    3.80456   3.85170   4.02098   4.17769   5.04353
 Alpha virt. eigenvalues --    5.08949   5.12903   5.46777   5.91436   6.26348
 Alpha virt. eigenvalues --    6.78384   6.84344   6.88746   7.00398   7.04090
 Alpha virt. eigenvalues --    7.09881   7.14777   7.24430   7.28588   7.46968
 Alpha virt. eigenvalues --   24.14648  49.96906  50.01458
  Beta  occ. eigenvalues --  -19.33994 -19.29484 -10.43255  -1.24939  -1.17135
  Beta  occ. eigenvalues --   -0.74802  -0.61525  -0.56994  -0.56813  -0.45633
  Beta  occ. eigenvalues --   -0.45409
  Beta virt. eigenvalues --   -0.03901   0.08183   0.08305   0.10925   0.12416
  Beta virt. eigenvalues --    0.12568   0.18905   0.22848   0.25659   0.26172
  Beta virt. eigenvalues --    0.29571   0.30360   0.32813   0.33037   0.35928
  Beta virt. eigenvalues --    0.40576   0.51228   0.54911   0.60411   0.65153
  Beta virt. eigenvalues --    0.69634   0.69906   0.74564   0.80427   0.87560
  Beta virt. eigenvalues --    0.98230   0.98761   1.05856   1.09183   1.11009
  Beta virt. eigenvalues --    1.13291   1.14018   1.16019   1.33948   1.38639
  Beta virt. eigenvalues --    1.50042   1.54018   1.58265   1.61745   1.74422
  Beta virt. eigenvalues --    1.79809   1.96454   1.99212   2.11038   2.24738
  Beta virt. eigenvalues --    2.35775   2.41241   2.60870   2.80506   2.85992
  Beta virt. eigenvalues --    3.07607   3.31827   3.41335   3.41635   3.48636
  Beta virt. eigenvalues --    3.60308   3.81126   3.87880   4.02945   4.18134
  Beta virt. eigenvalues --    5.04612   5.09442   5.15396   5.47426   5.92423
  Beta virt. eigenvalues --    6.27373   6.80182   6.86477   6.89425   7.01262
  Beta virt. eigenvalues --    7.05510   7.10751   7.15841   7.25859   7.29971
  Beta virt. eigenvalues --    7.47741  24.16406  49.97210  50.02010
          Condensed to atoms (all electrons):
               1          2          3          4
     1  C    5.191742   0.368282   0.125717   0.012793
     2  O    0.368282   7.947870  -0.029826   0.013955
     3  O    0.125717  -0.029826   7.958992   0.211833
     4  H    0.012793   0.013955   0.211833   0.495890
          Atomic-Atomic Spin Densities.
               1          2          3          4
     1  C    1.065088  -0.122259  -0.225422   0.033027
     2  O   -0.122259   0.321339  -0.000732   0.012917
     3  O   -0.225422  -0.000732   0.254414  -0.052176
     4  H    0.033027   0.012917  -0.052176   0.068448
 Mulliken charges and spin densities:
               1          2
     1  C    0.301467   0.750435
     2  O   -0.300280   0.211265
     3  O   -0.266716  -0.023916
     4  H    0.265529   0.062216
 Sum of Mulliken charges =  -0.00000   1.00000
 Mulliken charges and spin densities with hydrogens summed into heavy atoms:
               1          2
     1  C    0.301467   0.750435
     2  O   -0.300280   0.211265
     3  O   -0.001186   0.038300
 APT charges:
               1
     1  C    0.813190
     2  O   -0.551663
     3  O   -0.533310
     4  H    0.271783
 Sum of APT charges =  -0.00000
 APT charges with hydrogens summed into heavy atoms:
               1
     1  C    0.813190
     2  O   -0.551663
     3  O   -0.261527
 Electronic spatial extent (au):  <R**2>=            123.7643
 Charge=             -0.0000 electrons
 Dipole moment (field-independent basis, Debye):
    X=             -1.5399    Y=              1.3207    Z=             -0.0001  Tot=              2.0287
 Quadrupole moment (field-independent basis, Debye-Ang):
   XX=            -19.2373   YY=            -14.9831   ZZ=            -16.3699
   XY=             -2.4329   XZ=              0.0001   YZ=             -0.0001
 Traceless Quadrupole moment (field-independent basis, Debye-Ang):
   XX=             -2.3739   YY=              1.8803   ZZ=              0.4936
   XY=             -2.4329   XZ=              0.0001   YZ=             -0.0001
 Octapole moment (field-independent basis, Debye-Ang**2):
  XXX=             -2.9126  YYY=              5.4834  ZZZ=              0.0000  XYY=             -3.1082
  XXY=              3.1550  XXZ=             -0.0001  XZZ=             -0.0294  YZZ=              0.7548
  YYZ=             -0.0000  XYZ=              0.0001
 Hexadecapole moment (field-independent basis, Debye-Ang**3):
 XXXX=           -106.9520 YYYY=            -24.5694 ZZZZ=            -14.3788 XXXY=             -4.0442
 XXXZ=              0.0001 YYYX=             -2.9951 YYYZ=             -0.0002 ZZZX=              0.0000
 ZZZY=             -0.0001 XXYY=            -18.6780 XXZZ=            -20.0577 YYZZ=             -6.6837
 XXYZ=             -0.0001 YYXZ=              0.0001 ZZXY=             -0.2103
 N-N= 6.352494868604D+01 E-N=-5.725907873447D+02  KE= 1.885824122679D+02
  Exact polarizability:  25.656   0.580  20.998   0.000   0.000  14.661
 Approx polarizability:  28.148   2.456  21.254   0.000   0.000  14.948
                          Isotropic Fermi Contact Couplings
        Atom                 a.u.       MegaHertz       Gauss      10(-4) cm-1
     1  C(13)              0.54910     617.29069     220.26467     205.90601
     2  O(17)              0.09365     -56.76776     -20.25615     -18.93569
     3  O(17)              0.37554    -227.64852     -81.23065     -75.93537
     4  H(1)               0.01765      78.87242      28.14364      26.30901
 --------------------------------------------------------
       Center         ----  Spin Dipole Couplings  ----
                      3XX-RR        3YY-RR        3ZZ-RR
 --------------------------------------------------------
     1   Atom       -0.361446      0.658013     -0.296567
     2   Atom       -0.512031      1.198064     -0.686033
     3   Atom        0.177189     -0.009517     -0.167671
     4   Atom        0.002427      0.013765     -0.016192
 --------------------------------------------------------
                        XY            XZ            YZ
 --------------------------------------------------------
     1   Atom        0.121634      0.000001      0.000016
     2   Atom       -0.236568     -0.000005      0.000032
     3   Atom       -0.207946     -0.000025      0.000016
     4   Atom       -0.009425     -0.000000     -0.000001
 --------------------------------------------------------


 ---------------------------------------------------------------------------------
              Anisotropic Spin Dipole Couplings in Principal Axis System
 ---------------------------------------------------------------------------------

       Atom             a.u.   MegaHertz   Gauss  10(-4) cm-1        Axes

              Baa    -0.3758   -50.423   -17.992   -16.819  0.9931 -0.1169  0.0000
     1 C(13)  Bbb    -0.2966   -39.796   -14.200   -13.275 -0.0000 -0.0000  1.0000
              Bcc     0.6723    90.220    32.193    30.094  0.1169  0.9931  0.0000
 
              Baa    -0.6860    49.641    17.713    16.558  0.0000 -0.0000  1.0000
     2 O(17)  Bbb    -0.5442    39.375    14.050    13.134  0.9909  0.1346 -0.0000
              Bcc     1.2302   -89.015   -31.763   -29.692 -0.1346  0.9909  0.0000
 
              Baa    -0.1677    12.133     4.329     4.047  0.0000 -0.0000  1.0000
     3 O(17)  Bbb    -0.1441    10.427     3.721     3.478  0.5433  0.8395  0.0000
              Bcc     0.3118   -22.560    -8.050    -7.525  0.8395 -0.5433 -0.0001
 
              Baa    -0.0162    -8.639    -3.083    -2.882  0.0000  0.0000  1.0000
     4 H(1)   Bbb    -0.0029    -1.549    -0.553    -0.517  0.8705  0.4922 -0.0001
              Bcc     0.0191    10.188     3.635     3.398 -0.4922  0.8705 -0.0000
 

 ---------------------------------------------------------------------------------

 Calling FoFJK, ICntrl=    100127 FMM=F ISym2X=0 I1Cent= 0 IOpClX= 1 NMat=1 NMatS=1 NMatT=0.
 Full mass-weighted force constant matrix:
 Low frequencies ---  -23.8540  -12.5751    0.0006    0.0007    0.0016   28.5128
 Low frequencies ---  589.5384  611.6397 1104.3811
 Diagonal vibrational polarizability:
        8.4298301       1.1263447       8.9763738
 Harmonic frequencies (cm**-1), IR intensities (KM/Mole), Raman scattering
 activities (A**4/AMU), depolarization ratios for plane and unpolarized
 incident light, reduced masses (AMU), force constants (mDyne/A),
 and normal coordinates:
                      1                      2                      3
                      A                      A                      A
 Frequencies --    589.5379               611.6392              1104.3810
 Red. masses --      1.5137                 3.8913                 5.2375
 Frc consts  --      0.3100                 0.8577                 3.7637
 IR Inten    --    115.9288                35.1275               193.6966
  Atom  AN      X      Y      Z        X      Y      Z        X      Y      Z
     1   6    -0.00  -0.00   0.15    -0.01   0.30   0.00    -0.25   0.22   0.00
     2   8    -0.00   0.00  -0.06     0.25  -0.13  -0.00    -0.16  -0.09  -0.00
     3   8     0.00   0.00  -0.11    -0.19  -0.09  -0.00     0.40  -0.07  -0.00
     4   1     0.00   0.00   0.98    -0.88  -0.09   0.00    -0.83  -0.07  -0.00
                      4                      5                      6
                      A                      A                      A
 Frequencies --   1322.4068              1901.6187              3710.6038
 Red. masses --      1.5445                12.9977                 1.0632
 Frc consts  --      1.5914                27.6927                 8.6247
 IR Inten    --      0.0179               360.7992                35.8711
  Atom  AN      X      Y      Z        X      Y      Z        X      Y      Z
     1   6    -0.10   0.16  -0.00     0.71   0.39   0.00     0.00  -0.00   0.00
     2   8     0.02  -0.02  -0.00    -0.48  -0.29  -0.00    -0.00   0.00   0.00
     3   8    -0.00  -0.09   0.00    -0.06   0.00  -0.00     0.00  -0.06   0.00
     4   1     0.98  -0.06  -0.00     0.16   0.01   0.00    -0.02   1.00  -0.00

 -------------------
 - Thermochemistry -
 -------------------
 Temperature   298.150 Kelvin.  Pressure   1.00000 Atm.
 Atom     1 has atomic number  6 and mass  12.00000
 Atom     2 has atomic number  8 and mass  15.99491
 Atom     3 has atomic number  8 and mass  15.99491
 Atom     4 has atomic number  1 and mass   1.00783
 Molecular mass:    44.99765 amu.
 Principal axes and moments of inertia in atomic units:
                           1         2         3
     Eigenvalues --    12.64172 151.60205 164.24377
           X            0.99959  -0.02862   0.00000
           Y            0.02862   0.99959  -0.00001
           Z           -0.00000   0.00001   1.00000
 This molecule is an asymmetric top.
 Rotational symmetry number  1.
 Rotational temperatures (Kelvin)      6.85144     0.57132     0.52735
 Rotational constants (GHZ):         142.76075    11.90446    10.98819
 Zero-point vibrational energy      55268.6 (Joules/Mol)
                                   13.20951 (Kcal/Mol)
 Warning -- explicit consideration of   2 degrees of freedom as
           vibrations may cause significant error
 Vibrational temperatures:    848.21   880.01  1588.96  1902.65  2736.01
          (Kelvin)           5338.73
 
 Zero-point correction=                           0.021051 (Hartree/Particle)
 Thermal correction to Energy=                    0.024238
 Thermal correction to Enthalpy=                  0.025183
 Thermal correction to Gibbs Free Energy=        -0.003365
 Sum of electronic and zero-point Energies=           -189.075716
 Sum of electronic and thermal Energies=              -189.072529
 Sum of electronic and thermal Enthalpies=            -189.071585
 Sum of electronic and thermal Free Energies=         -189.100132
 
                     E (Thermal)             CV                S
                      KCal/Mol        Cal/Mol-Kelvin    Cal/Mol-Kelvin
 Total                   15.210              8.454             60.083
 Electronic               0.000              0.000              1.377
 Translational            0.889              2.981             37.338
 Rotational               0.889              2.981             20.382
 Vibrational             13.432              2.492              0.986
 Vibration     1          0.947              1.054              0.468
 Vibration     2          0.971              1.007              0.430
                       Q            Log10(Q)             Ln(Q)
 Total Bot       0.352930D+02          1.547688          3.563684
 Total V=0       0.169953D+12         11.230328         25.858785
 Vib (Bot)       0.234193D-09         -9.630426        -22.174875
 Vib (Bot)    1  0.256004D+00         -0.591754         -1.362564
 Vib (Bot)    2  0.241203D+00         -0.617617         -1.422116
 Vib (V=0)       0.112775D+01          0.052213          0.120226
 Vib (V=0)    1  0.106173D+01          0.026013          0.059897
 Vib (V=0)    2  0.105514D+01          0.023310          0.053672
 Electronic      0.200000D+01          0.301030          0.693147
 Translational   0.118642D+08          7.074239         16.289037
 Rotational      0.635105D+04          3.802846          8.756376
 ***** Axes restored to original set *****
 -------------------------------------------------------------------
 Center     Atomic                   Forces (Hartrees/Bohr)
 Number     Number              X              Y              Z
 -------------------------------------------------------------------
      1        6           0.000153111    0.000548932    0.000427631
      2        8          -0.000206145   -0.000249631   -0.000293732
      3        8           0.000028761   -0.000322387   -0.000163480
      4        1           0.000024273    0.000023086    0.000029581
 -------------------------------------------------------------------
 Cartesian Forces:  Max     0.000548932 RMS     0.000263346
 FormGI is forming the generalized inverse of G from B-inverse, IUseBI=4.

 GradGradGradGradGradGradGradGradGradGradGradGradGradGradGradGradGradGrad
 Berny optimization.
 Internal  Forces:  Max     0.000437387 RMS     0.000226899
 Search for a local minimum.
 Step number   1 out of a maximum of    2
 All quantities printed in internal units (Hartrees-Bohrs-Radians)
 Second derivative matrix not updated -- analytic derivatives used.
 The second derivative matrix:
                          R1        R2        R3        A1        A2
           R1           0.95142
           R2           0.09768   0.41214
           R3           0.00051   0.01957   0.49599
           A1           0.05444   0.04755  -0.02305   0.31393
           A2          -0.00113   0.04829   0.02049  -0.03439   0.17081
           D1           0.00000  -0.00000   0.00000  -0.00000  -0.00000
                          D1
           D1           0.02534
 ITU=  0
     Eigenvalues ---    0.02534   0.14960   0.30500   0.41137   0.50390
     Eigenvalues ---    0.97441
 Angle between quadratic step and forces=  35.16 degrees.
 Linear search not attempted -- first point.
 Iteration  1 RMS(Cart)=  0.00046518 RMS(Int)=  0.00000020
 Iteration  2 RMS(Cart)=  0.00000016 RMS(Int)=  0.00000000
 Variable       Old X    -DE/DX   Delta X   Delta X   Delta X     New X
                                 (Linear)    (Quad)   (Total)
    R1        2.22675   0.00044   0.00000   0.00055   0.00055   2.22730
    R2        2.49614  -0.00033   0.00000  -0.00106  -0.00106   2.49508
    R3        1.83336  -0.00003   0.00000  -0.00003  -0.00003   1.83333
    A1        2.27465   0.00004   0.00000   0.00028   0.00028   2.27493
    A2        1.90853   0.00007   0.00000   0.00078   0.00078   1.90931
    D1        0.00008  -0.00000   0.00000  -0.00008  -0.00008   0.00000
         Item               Value     Threshold  Converged?
 Maximum Force            0.000437     0.000450     YES
 RMS     Force            0.000227     0.000300     YES
 Maximum Displacement     0.000538     0.001800     YES
 RMS     Displacement     0.000465     0.001200     YES
 Predicted change in Energy=-3.305314D-07
 Optimization completed.
    -- Stationary point found.
                           ----------------------------
                           !   Optimized Parameters   !
                           ! (Angstroms and Degrees)  !
 --------------------------                            --------------------------
 ! Name  Definition              Value          Derivative Info.                !
 --------------------------------------------------------------------------------
 ! R1    R(1,2)                  1.1783         -DE/DX =    0.0004              !
 ! R2    R(1,3)                  1.3209         -DE/DX =   -0.0003              !
 ! R3    R(3,4)                  0.9702         -DE/DX =    0.0                 !
 ! A1    A(2,1,3)              130.3276         -DE/DX =    0.0                 !
 ! A2    A(1,3,4)              109.351          -DE/DX =    0.0001              !
 ! D1    D(2,1,3,4)              0.0043         -DE/DX =    0.0                 !
 --------------------------------------------------------------------------------
 GradGradGradGradGradGradGradGradGradGradGradGradGradGradGradGradGradGrad


 ----------------------------------------------------------------------

 Electric dipole moment (input orientation):
 (Debye = 10**-18 statcoulomb cm , SI units = C m)
                  (au)            (Debye)         (10**-30 SI)
   Tot        0.798147D+00      0.202869D+01      0.676697D+01
   x         -0.381755D+00     -0.970325D+00     -0.323666D+01
   y          0.690137D+00      0.175415D+01      0.585123D+01
   z          0.122524D+00      0.311426D+00      0.103880D+01

 Dipole polarizability, Alpha (input orientation).
 (esu units = cm**3 , SI units = C**2 m**2 J**-1)
 Alpha(0;0):
               (au)            (10**-24 esu)      (10**-40 SI)
   iso        0.204387D+02      0.302871D+01      0.336989D+01
   aniso      0.961142D+01      0.142427D+01      0.158471D+01
   xx         0.193239D+02      0.286351D+01      0.318608D+01
   yx        -0.696588D+00     -0.103224D+00     -0.114852D+00
   yy         0.227238D+02      0.336731D+01      0.374664D+01
   zx         0.299445D+01      0.443731D+00      0.493717D+00
   zy         0.417426D+01      0.618562D+00      0.688243D+00
   zz         0.192686D+02      0.285531D+01      0.317696D+01

 ----------------------------------------------------------------------

 Dipole orientation:
     6         -5.50886023         -1.79383641          3.20148607
     8         -7.55651804         -1.31002517          2.47250151
     8         -4.62964184         -2.00144878          5.52841442
     1         -5.98499560         -1.68124233          6.72076615

 Electric dipole moment (dipole orientation):
 (Debye = 10**-18 statcoulomb cm , SI units = C m)
                  (au)            (Debye)         (10**-30 SI)
   Tot        0.798147D+00      0.202869D+01      0.676697D+01
   x          0.000000D+00      0.000000D+00      0.000000D+00
   y          0.000000D+00      0.000000D+00      0.000000D+00
   z          0.798147D+00      0.202869D+01      0.676697D+01

 Dipole polarizability, Alpha (dipole orientation).
 (esu units = cm**3 , SI units = C**2 m**2 J**-1)
 Alpha(0;0):
               (au)            (10**-24 esu)      (10**-40 SI)
   iso        0.204387D+02      0.302871D+01      0.336989D+01
   aniso      0.961142D+01      0.142427D+01      0.158471D+01
   xx         0.230759D+02      0.341950D+01      0.380471D+01
   yx        -0.198810D+01     -0.294606D+00     -0.327793D+00
   yy         0.151312D+02      0.224221D+01      0.249480D+01
   zx         0.232614D+01      0.344698D+00      0.383528D+00
   zy        -0.549304D+00     -0.813985D-01     -0.905681D-01
   zz         0.231091D+02      0.342442D+01      0.381018D+01

 ----------------------------------------------------------------------
 1\1\GINC-CCLEARCO\Freq\UwB97XD\6-311+G(2d,2p)\C1H1O2(2)\RAPPE\14-Aug-2
 023\0\\#N Geom=AllCheck Guess=TCheck SCRF=Check GenChk UwB97XD/6-311+G
 (2d,2p) Freq\\Title Card Required\\0,2\C,-3.487666687,0.0857140839,-0.
 3134592039\O,-4.0800342375,-0.5462666079,-1.1123289824\O,-3.7430295544
 ,1.2785963256,0.1930998046\H,-4.5590465211,1.6266431984,-0.1996046183\
 \Version=EM64M-G16RevA.03\State=2-A\HF=-189.0967672\S2=0.753644\S2-1=0
 .\S2A=0.750008\RMSD=1.131e-09\RMSF=2.633e-04\ZeroPoint=0.0210507\Therm
 al=0.0242383\Dipole=-0.3817554,0.6901373,0.1225242\DipoleDeriv=0.27500
 54,0.0680504,0.1547145,0.0046191,1.4748777,0.7919227,0.1178694,0.83815
 91,0.6896861,-0.3363484,-0.3541771,-0.3005819,0.028838,-0.7291636,-0.2
 826914,-0.0781497,-0.5619208,-0.589477,-0.170819,0.234381,0.2157561,-0
 .0213244,-1.0407524,-0.4572912,0.067262,-0.2708577,-0.3883574,0.232162
 1,0.0517457,-0.0698887,-0.0121327,0.2950383,-0.0519401,-0.1069817,-0.0
 053806,0.2881483\Polar=19.3238911,-0.6965876,22.7237558,2.9944455,4.17
 42648,19.2686023\Quadrupole=0.801061,0.1089486,-0.9100097,-1.6778521,-
 0.6580045,-1.3728926\PG=C01 [X(C1H1O2)]\NImag=0\\0.40221042,0.08747096
 ,0.55261820,0.32286805,0.36784474,0.47801825,-0.28994678,-0.19565251,-
 0.31354286,0.25529713,-0.19449042,-0.27145337,-0.29030356,0.22720887,0
 .32791108,-0.31286782,-0.29115174,-0.41289499,0.31183692,0.35110739,0.
 43978784,-0.09956952,0.08569273,-0.00172555,0.03143688,-0.02522173,-0.
 00324567,0.41066993,0.05492601,-0.24715222,-0.08667919,-0.02249153,-0.
 06289024,-0.06209162,-0.16882428,0.38961882,-0.01959258,-0.06425202,-0
 .08053534,-0.00165943,-0.06408312,-0.02262547,0.18043266,0.08656124,0.
 21043811,-0.01269412,0.02248882,-0.00759964,0.00321277,-0.00749672,0.0
 0427658,-0.34253729,0.13638980,-0.15918065,0.35201864,0.05209345,-0.03
 401261,0.00913800,-0.00906483,0.00643253,0.00213597,0.10835328,-0.0795
 7636,0.04177390,-0.15138190,0.10715644,0.00959235,-0.01244098,0.015412
 08,0.00336537,0.00327928,-0.00426738,-0.17546144,0.06220957,-0.1072773
 0,0.16250372,-0.05304788,0.09613261\\-0.00015311,-0.00054893,-0.000427
 63,0.00020615,0.00024963,0.00029373,-0.00002876,0.00032239,0.00016348,
 -0.00002427,-0.00002309,-0.00002958\\\@


 ALL MEN WHO EXPLORE
 DEPLORE
 THAT FRUSTRATING HURDLE
 THE GIRDLE.

         -- COLIN FLETCHER
 Job cpu time:       0 days  0 hours  6 minutes 46.7 seconds.
 Elapsed time:       0 days  0 hours  0 minutes 17.3 seconds.
 File lengths (MBytes):  RWF=     12 Int=      0 D2E=      0 Chk=      2 Scr=      1
 Normal termination of Gaussian 16 at Mon Aug 14 08:19:10 2023.
