 Entering Gaussian System, Link 0=/applications/g16/g16/g16
 Initial command:
 /applications/g16/g16/l1.exe "/scratch/g98/Gau-61732.inp" -scrdir="/scratch/g98/"
 Entering Link 1 = /applications/g16/g16/l1.exe PID=     61733.
  
 Copyright (c) 1988,1990,1992,1993,1995,1998,2003,2009,2016,
            Gaussian, Inc.  All Rights Reserved.
  
 This is part of the Gaussian(R) 16 program.  It is based on
 the Gaussian(R) 09 system (copyright 2009, Gaussian, Inc.),
 the Gaussian(R) 03 system (copyright 2003, Gaussian, Inc.),
 the Gaussian(R) 98 system (copyright 1998, Gaussian, Inc.),
 the Gaussian(R) 94 system (copyright 1995, Gaussian, Inc.),
 the Gaussian 92(TM) system (copyright 1992, Gaussian, Inc.),
 the Gaussian 90(TM) system (copyright 1990, Gaussian, Inc.),
 the Gaussian 88(TM) system (copyright 1988, Gaussian, Inc.),
 the Gaussian 86(TM) system (copyright 1986, Carnegie Mellon
 University), and the Gaussian 82(TM) system (copyright 1983,
 Carnegie Mellon University). Gaussian is a federally registered
 trademark of Gaussian, Inc.
  
 This software contains proprietary and confidential information,
 including trade secrets, belonging to Gaussian, Inc.
  
 This software is provided under written license and may be
 used, copied, transmitted, or stored only in accord with that
 written license.
  
 The following legend is applicable only to US Government
 contracts under FAR:
  
                    RESTRICTED RIGHTS LEGEND
  
 Use, reproduction and disclosure by the US Government is
 subject to restrictions as set forth in subparagraphs (a)
 and (c) of the Commercial Computer Software - Restricted
 Rights clause in FAR 52.227-19.
  
 Gaussian, Inc.
 340 Quinnipiac St., Bldg. 40, Wallingford CT 06492
  
  
 ---------------------------------------------------------------
 Warning -- This program may not be used in any manner that
 competes with the business of Gaussian, Inc. or will provide
 assistance to any competitor of Gaussian, Inc.  The licensee
 of this program is prohibited from giving any competitor of
 Gaussian, Inc. access to this program.  By using this program,
 the user acknowledges that Gaussian, Inc. is engaged in the
 business of creating and licensing software in the field of
 computational chemistry and represents and warrants to the
 licensee that it is not a competitor of Gaussian, Inc. and that
 it will not use this program in any manner prohibited above.
 ---------------------------------------------------------------
  

 Cite this work as:
 Gaussian 16, Revision A.03,
 M. J. Frisch, G. W. Trucks, H. B. Schlegel, G. E. Scuseria, 
 M. A. Robb, J. R. Cheeseman, G. Scalmani, V. Barone, 
 G. A. Petersson, H. Nakatsuji, X. Li, M. Caricato, A. V. Marenich, 
 J. Bloino, B. G. Janesko, R. Gomperts, B. Mennucci, H. P. Hratchian, 
 J. V. Ortiz, A. F. Izmaylov, J. L. Sonnenberg, D. Williams-Young, 
 F. Ding, F. Lipparini, F. Egidi, J. Goings, B. Peng, A. Petrone, 
 T. Henderson, D. Ranasinghe, V. G. Zakrzewski, J. Gao, N. Rega, 
 G. Zheng, W. Liang, M. Hada, M. Ehara, K. Toyota, R. Fukuda, 
 J. Hasegawa, M. Ishida, T. Nakajima, Y. Honda, O. Kitao, H. Nakai, 
 T. Vreven, K. Throssell, J. A. Montgomery, Jr., J. E. Peralta, 
 F. Ogliaro, M. J. Bearpark, J. J. Heyd, E. N. Brothers, K. N. Kudin, 
 V. N. Staroverov, T. A. Keith, R. Kobayashi, J. Normand, 
 K. Raghavachari, A. P. Rendell, J. C. Burant, S. S. Iyengar, 
 J. Tomasi, M. Cossi, J. M. Millam, M. Klene, C. Adamo, R. Cammi, 
 J. W. Ochterski, R. L. Martin, K. Morokuma, O. Farkas, 
 J. B. Foresman, and D. J. Fox, Gaussian, Inc., Wallingford CT, 2016.
 
 ******************************************
 Gaussian 16:  EM64M-G16RevA.03 25-Dec-2016
                 5-May-2023 
 ******************************************
 %mem=220GB
 %nprocshared=56
 Will use up to   56 processors via shared memory.
 %chk=cpropane.chk
 -----------------------------------------------
 # opt wb97xd/6-311+g(2d) geom=connectivity freq
 -----------------------------------------------
 1/18=20,19=15,26=3,38=1,57=2/1,3;
 2/9=110,12=2,17=6,18=5,40=1/2;
 3/5=4,6=6,7=12,11=2,25=1,30=1,71=1,74=-58/1,2,3;
 4//1;
 5/5=2,38=5/2;
 6/7=2,8=2,9=2,10=2,28=1/1;
 7//1,2,3,16;
 1/18=20,19=15,26=3/3(2);
 2/9=110/2;
 99//99;
 2/9=110/2;
 3/5=4,6=6,7=12,11=2,25=1,30=1,71=1,74=-58/1,2,3;
 4/5=5,16=3,69=1/1;
 5/5=2,38=5/2;
 7//1,2,3,16;
 1/18=20,19=15,26=3/3(-5);
 2/9=110/2;
 6/7=2,8=2,9=2,10=2,19=2,28=1/1;
 99/9=1/99;
 -------------------
 Title Card Required
 -------------------
 Symbolic Z-matrix:
 Charge =  0 Multiplicity = 1
 C                    -0.30293  -0.82662  -0.00008 
 F                    -0.55699  -1.51897  -1.1008 
 F                    -0.55678  -1.51894   1.10072 
 C                    -0.56438   0.67583  -0.00021 
 F                    -1.03792   1.24111   1.10092 
 F                    -1.03739   1.24183  -1.10091 
 C                     0.86782   0.15098   0.00013 
 F                     1.59443   0.27715  -1.10084 
 F                     1.59431   0.27771   1.10102 
 

 GradGradGradGradGradGradGradGradGradGradGradGradGradGradGradGradGradGrad
 Berny optimization.
 Initialization pass.
                           ----------------------------
                           !    Initial Parameters    !
                           ! (Angstroms and Degrees)  !
 --------------------------                            --------------------------
 ! Name  Definition              Value          Derivative Info.                !
 --------------------------------------------------------------------------------
 ! R1    R(1,2)                  1.3249         estimate D2E/DX2                !
 ! R2    R(1,3)                  1.325          estimate D2E/DX2                !
 ! R3    R(1,4)                  1.525          estimate D2E/DX2                !
 ! R4    R(1,7)                  1.5252         estimate D2E/DX2                !
 ! R5    R(4,5)                  1.3252         estimate D2E/DX2                !
 ! R6    R(4,6)                  1.325          estimate D2E/DX2                !
 ! R7    R(4,7)                  1.5253         estimate D2E/DX2                !
 ! R8    R(7,8)                  1.3251         estimate D2E/DX2                !
 ! R9    R(7,9)                  1.3251         estimate D2E/DX2                !
 ! A1    A(2,1,3)              112.3603         estimate D2E/DX2                !
 ! A2    A(2,1,4)              118.808          estimate D2E/DX2                !
 ! A3    A(2,1,7)              118.8312         estimate D2E/DX2                !
 ! A4    A(3,1,4)              118.8169         estimate D2E/DX2                !
 ! A5    A(3,1,7)              118.8065         estimate D2E/DX2                !
 ! A6    A(1,4,5)              118.7785         estimate D2E/DX2                !
 ! A7    A(1,4,6)              118.8236         estimate D2E/DX2                !
 ! A8    A(5,4,6)              112.3624         estimate D2E/DX2                !
 ! A9    A(5,4,7)              118.8218         estimate D2E/DX2                !
 ! A10   A(6,4,7)              118.8393         estimate D2E/DX2                !
 ! A11   A(1,7,8)              118.8026         estimate D2E/DX2                !
 ! A12   A(1,7,9)              118.8329         estimate D2E/DX2                !
 ! A13   A(4,7,8)              118.8092         estimate D2E/DX2                !
 ! A14   A(4,7,9)              118.8204         estimate D2E/DX2                !
 ! A15   A(8,7,9)              112.3669         estimate D2E/DX2                !
 ! D1    D(2,1,4,5)            142.9136         estimate D2E/DX2                !
 ! D2    D(2,1,4,6)              0.0008         estimate D2E/DX2                !
 ! D3    D(3,1,4,5)             -0.0324         estimate D2E/DX2                !
 ! D4    D(3,1,4,6)           -142.9452         estimate D2E/DX2                !
 ! D5    D(2,1,7,8)             -0.0055         estimate D2E/DX2                !
 ! D6    D(2,1,7,9)           -142.9821         estimate D2E/DX2                !
 ! D7    D(3,1,7,8)            142.9614         estimate D2E/DX2                !
 ! D8    D(3,1,7,9)             -0.0152         estimate D2E/DX2                !
 ! D9    D(5,4,7,8)           -143.028          estimate D2E/DX2                !
 ! D10   D(5,4,7,9)             -0.0613         estimate D2E/DX2                !
 ! D11   D(6,4,7,8)             -0.0183         estimate D2E/DX2                !
 ! D12   D(6,4,7,9)            142.9483         estimate D2E/DX2                !
 --------------------------------------------------------------------------------
 Trust Radius=3.00D-01 FncErr=1.00D-07 GrdErr=1.00D-06 EigMax=2.50D+02 EigMin=1.00D-04
 Number of steps in this run=     46 maximum allowed number of steps=    100.
 GradGradGradGradGradGradGradGradGradGradGradGradGradGradGradGradGradGrad

                          Input orientation:                          
 ---------------------------------------------------------------------
 Center     Atomic      Atomic             Coordinates (Angstroms)
 Number     Number       Type             X           Y           Z
 ---------------------------------------------------------------------
      1          6           0       -0.302934   -0.826618   -0.000084
      2          9           0       -0.556990   -1.518974   -1.100798
      3          9           0       -0.556783   -1.518944    1.100721
      4          6           0       -0.564381    0.675826   -0.000212
      5          9           0       -1.037922    1.241111    1.100917
      6          9           0       -1.037385    1.241826   -1.100913
      7          6           0        0.867823    0.150979    0.000132
      8          9           0        1.594433    0.277148   -1.100837
      9          9           0        1.594307    0.277708    1.101020
 ---------------------------------------------------------------------
                    Distance matrix (angstroms):
                    1          2          3          4          5
     1  C    0.000000
     2  F    1.324942   0.000000
     3  F    1.324963   2.201519   0.000000
     4  C    1.525022   2.455299   2.455428   0.000000
     5  F    2.455181   3.563273   2.801678   1.325245   0.000000
     6  F    2.455545   2.802284   3.563709   1.325002   2.201830
     7  C    1.525244   2.455785   2.455492   1.525343   2.456009
     8  F    2.455597   2.802619   3.563781   2.455768   3.564581
     9  F    2.455909   3.564288   2.802703   2.455839   2.802994
                    6          7          8          9
     6  F    0.000000
     7  C    2.456026   0.000000
     8  F    2.803046   1.325147   0.000000
     9  F    3.564244   1.325064   2.201857   0.000000
 Stoichiometry    C3F6
 Framework group  C1[X(C3F6)]
 Deg. of freedom    21
 Full point group                 C1      NOp   1
 Largest Abelian subgroup         C1      NOp   1
 Largest concise Abelian subgroup C1      NOp   1
                         Standard orientation:                         
 ---------------------------------------------------------------------
 Center     Atomic      Atomic             Coordinates (Angstroms)
 Number     Number       Type             X           Y           Z
 ---------------------------------------------------------------------
      1          6           0        0.302946    0.826614   -0.000084
      2          9           0        0.557011    1.518966   -1.100798
      3          9           0        0.556804    1.518936    1.100721
      4          6           0        0.564371   -0.675834   -0.000212
      5          9           0        1.037904   -1.241126    1.100917
      6          9           0        1.037367   -1.241841   -1.100913
      7          6           0       -0.867825   -0.150967    0.000132
      8          9           0       -1.594437   -0.277125   -1.100837
      9          9           0       -1.594311   -0.277685    1.101020
 ---------------------------------------------------------------------
 Rotational constants (GHZ):           1.6775814           1.6768203           1.5485625
 Standard basis: 6-311+G(2d) (5D, 7F)
 There are   261 symmetry adapted cartesian basis functions of A   symmetry.
 There are   243 symmetry adapted basis functions of A   symmetry.
   243 basis functions,   378 primitive gaussians,   261 cartesian basis functions
    36 alpha electrons       36 beta electrons
       nuclear repulsion energy       528.8348918332 Hartrees.
 NAtoms=    9 NActive=    9 NUniq=    9 SFac= 1.00D+00 NAtFMM=   60 NAOKFM=F Big=F
 Integral buffers will be    131072 words long.
 Raffenetti 2 integral format.
 Two-electron integral symmetry is turned on.
 Nuclear repulsion after empirical dispersion term =      528.8317871510 Hartrees.
 One-electron integrals computed using PRISM.
 NBasis=   243 RedAO= T EigKep=  6.55D-05  NBF=   243
 NBsUse=   243 1.00D-06 EigRej= -1.00D+00 NBFU=   243
 ExpMin= 4.38D-02 ExpMax= 1.14D+04 ExpMxC= 1.72D+03 IAcc=3 IRadAn=         5 AccDes= 0.00D+00
 Harris functional with IExCor= 4639 and IRadAn=       5 diagonalized for initial guess.
 HarFok:  IExCor= 4639 AccDes= 0.00D+00 IRadAn=         5 IDoV= 1 UseB2=F ITyADJ=14
 ICtDFT=  3500011 ScaDFX=  1.000000  1.000000  1.000000  1.000000
 FoFCou: FMM=F IPFlag=           0 FMFlag=      100000 FMFlg1=           0
         NFxFlg=           0 DoJE=T BraDBF=F KetDBF=T FulRan=T
         wScrn=  0.000000 ICntrl=       500 IOpCl=  0 I1Cent=   200000004 NGrid=           0
         NMat0=    1 NMatS0=      1 NMatT0=    0 NMatD0=    1 NMtDS0=    0 NMtDT0=    0
 Petite list used in FoFCou.
 Keep R1 ints in memory in canonical form, NReq=940005793.
 Requested convergence on RMS density matrix=1.00D-08 within 128 cycles.
 Requested convergence on MAX density matrix=1.00D-06.
 Requested convergence on             energy=1.00D-06.
 No special actions if energy rises.
 SCF Done:  E(RwB97XD) =  -713.315250705     A.U. after   11 cycles
            NFock= 11  Conv=0.42D-08     -V/T= 2.0026

 **********************************************************************

            Population analysis using the SCF density.

 **********************************************************************

 Orbital symmetries:
       Occupied  (A) (A) (A) (A) (A) (A) (A) (A) (A) (A) (A) (A)
                 (A) (A) (A) (A) (A) (A) (A) (A) (A) (A) (A) (A)
                 (A) (A) (A) (A) (A) (A) (A) (A) (A) (A) (A) (A)
       Virtual   (A) (A) (A) (A) (A) (A) (A) (A) (A) (A) (A) (A)
                 (A) (A) (A) (A) (A) (A) (A) (A) (A) (A) (A) (A)
                 (A) (A) (A) (A) (A) (A) (A) (A) (A) (A) (A) (A)
                 (A) (A) (A) (A) (A) (A) (A) (A) (A) (A) (A) (A)
                 (A) (A) (A) (A) (A) (A) (A) (A) (A) (A) (A) (A)
                 (A) (A) (A) (A) (A) (A) (A) (A) (A) (A) (A) (A)
                 (A) (A) (A) (A) (A) (A) (A) (A) (A) (A) (A) (A)
                 (A) (A) (A) (A) (A) (A) (A) (A) (A) (A) (A) (A)
                 (A) (A) (A) (A) (A) (A) (A) (A) (A) (A) (A) (A)
                 (A) (A) (A) (A) (A) (A) (A) (A) (A) (A) (A) (A)
                 (A) (A) (A) (A) (A) (A) (A) (A) (A) (A) (A) (A)
                 (A) (A) (A) (A) (A) (A) (A) (A) (A) (A) (A) (A)
                 (A) (A) (A) (A) (A) (A) (A) (A) (A) (A) (A) (A)
                 (A) (A) (A) (A) (A) (A) (A) (A) (A) (A) (A) (A)
                 (A) (A) (A) (A) (A) (A) (A) (A) (A) (A) (A) (A)
                 (A) (A) (A) (A) (A) (A) (A) (A) (A) (A) (A) (A)
                 (A) (A) (A) (A) (A) (A) (A) (A) (A) (A) (A) (A)
                 (A) (A) (A)
 The electronic state is 1-A.
 Alpha  occ. eigenvalues --  -24.87770 -24.87770 -24.87768 -24.87767 -24.87767
 Alpha  occ. eigenvalues --  -24.87761 -10.50911 -10.50877 -10.50873  -1.44292
 Alpha  occ. eigenvalues --   -1.42140  -1.42134  -1.37933  -1.36647  -1.36643
 Alpha  occ. eigenvalues --   -1.02699  -0.79767  -0.79763  -0.74953  -0.73963
 Alpha  occ. eigenvalues --   -0.69377  -0.69372  -0.68871  -0.68867  -0.60855
 Alpha  occ. eigenvalues --   -0.60159  -0.60156  -0.58002  -0.57996  -0.57993
 Alpha  occ. eigenvalues --   -0.56902  -0.56128  -0.54471  -0.54468  -0.42314
 Alpha  occ. eigenvalues --   -0.42313
 Alpha virt. eigenvalues --    0.04875   0.05633   0.08503   0.08503   0.11897
 Alpha virt. eigenvalues --    0.13052   0.13053   0.13368   0.13369   0.13779
 Alpha virt. eigenvalues --    0.17290   0.19293   0.19690   0.19700   0.22598
 Alpha virt. eigenvalues --    0.26024   0.26042   0.30065   0.32013   0.32019
 Alpha virt. eigenvalues --    0.32636   0.33383   0.33390   0.34772   0.34776
 Alpha virt. eigenvalues --    0.35420   0.35427   0.35516   0.39826   0.40078
 Alpha virt. eigenvalues --    0.40897   0.40898   0.41771   0.41772   0.42782
 Alpha virt. eigenvalues --    0.42806   0.43997   0.44003   0.45866   0.45970
 Alpha virt. eigenvalues --    0.45972   0.54901   0.54903   0.55695   0.55707
 Alpha virt. eigenvalues --    0.62339   0.62346   0.69001   0.72272   0.73437
 Alpha virt. eigenvalues --    0.73449   0.75673   0.76458   0.76619   0.76625
 Alpha virt. eigenvalues --    0.95169   1.03368   1.03372   1.14956   1.14973
 Alpha virt. eigenvalues --    1.16350   1.18302   1.18322   1.27362   1.29412
 Alpha virt. eigenvalues --    1.30357   1.30381   1.32735   1.32737   1.33341
 Alpha virt. eigenvalues --    1.33347   1.38805   1.40678   1.44657   1.44670
 Alpha virt. eigenvalues --    1.45386   1.46204   1.46209   1.47696   1.47771
 Alpha virt. eigenvalues --    1.47786   1.51135   1.52255   1.53052   1.53065
 Alpha virt. eigenvalues --    1.53307   1.53309   1.56290   1.56294   1.71841
 Alpha virt. eigenvalues --    1.93936   1.93955   2.03307   2.03609   2.04458
 Alpha virt. eigenvalues --    2.04461   2.04683   2.06578   2.08283   2.10327
 Alpha virt. eigenvalues --    2.10342   2.20083   2.20120   2.20124   2.30769
 Alpha virt. eigenvalues --    2.30816   2.37505   2.37532   2.38949   2.45606
 Alpha virt. eigenvalues --    2.45611   2.47746   2.47796   2.59583   2.70880
 Alpha virt. eigenvalues --    2.70896   2.71104   2.76928   2.88437   2.89955
 Alpha virt. eigenvalues --    2.89966   2.91192   2.91241   3.06931   3.06951
 Alpha virt. eigenvalues --    3.08200   3.08222   3.08996   3.16868   3.19550
 Alpha virt. eigenvalues --    3.44113   3.44169   3.47521   3.47545   3.54693
 Alpha virt. eigenvalues --    3.61060   3.61063   3.62246   3.62296   3.72901
 Alpha virt. eigenvalues --    3.73213   3.82653   3.82665   3.84440   3.89960
 Alpha virt. eigenvalues --    4.29601   4.42759   4.42760   4.68419   4.68449
 Alpha virt. eigenvalues --    6.38725   6.41537   6.41546   6.43649   6.43666
 Alpha virt. eigenvalues --    6.45250   6.45261   6.45579   6.45979   6.47759
 Alpha virt. eigenvalues --    6.47763   6.48776   6.54377   6.80470   6.82727
 Alpha virt. eigenvalues --    6.82748   6.91356   6.91396   9.07572   9.11475
 Alpha virt. eigenvalues --    9.11479   9.14322   9.14424   9.15451   9.15456
 Alpha virt. eigenvalues --    9.16843   9.17791   9.17796   9.24771   9.24782
 Alpha virt. eigenvalues --    9.25731   9.31213   9.31240   9.36485   9.36497
 Alpha virt. eigenvalues --    9.38093   9.49089   9.49099   9.61490   9.67853
 Alpha virt. eigenvalues --    9.69090   9.74711   9.78312   9.78332   9.80981
 Alpha virt. eigenvalues --    9.80990   9.85003   9.85015  23.90386  23.90429
 Alpha virt. eigenvalues --   24.31793  66.94228  66.94242  66.98429  66.98432
 Alpha virt. eigenvalues --   66.98663  66.98688
          Condensed to atoms (all electrons):
               1          2          3          4          5          6
     1  C    5.153199   0.191607   0.191622   0.004388  -0.033943  -0.034051
     2  F    0.191607   9.200476  -0.043174  -0.033967   0.001476   0.005762
     3  F    0.191622  -0.043174   9.200455  -0.034021   0.005756   0.001490
     4  C    0.004388  -0.033967  -0.034021   5.153146   0.191691   0.191691
     5  F   -0.033943   0.001476   0.005756   0.191691   9.200396  -0.043185
     6  F   -0.034051   0.005762   0.001490   0.191691  -0.043185   9.200349
     7  C    0.004355  -0.034039  -0.033976   0.004495  -0.034023  -0.033961
     8  F   -0.033899   0.005708   0.001495  -0.034015   0.001512   0.005696
     9  F   -0.034008   0.001510   0.005721  -0.033922   0.005696   0.001508
               7          8          9
     1  C    0.004355  -0.033899  -0.034008
     2  F   -0.034039   0.005708   0.001510
     3  F   -0.033976   0.001495   0.005721
     4  C    0.004495  -0.034015  -0.033922
     5  F   -0.034023   0.001512   0.005696
     6  F   -0.033961   0.005696   0.001508
     7  C    5.153197   0.191557   0.191597
     8  F    0.191557   9.200466  -0.043182
     9  F    0.191597  -0.043182   9.200382
 Mulliken charges:
               1
     1  C    0.590730
     2  F   -0.295358
     3  F   -0.295368
     4  C    0.590514
     5  F   -0.295377
     6  F   -0.295299
     7  C    0.590798
     8  F   -0.295338
     9  F   -0.295301
 Sum of Mulliken charges =  -0.00000
 Mulliken charges with hydrogens summed into heavy atoms:
               1
     1  C    0.590730
     2  F   -0.295358
     3  F   -0.295368
     4  C    0.590514
     5  F   -0.295377
     6  F   -0.295299
     7  C    0.590798
     8  F   -0.295338
     9  F   -0.295301
 Electronic spatial extent (au):  <R**2>=            894.6380
 Charge=             -0.0000 electrons
 Dipole moment (field-independent basis, Debye):
    X=             -0.0010    Y=              0.0004    Z=             -0.0009  Tot=              0.0014
 Quadrupole moment (field-independent basis, Debye-Ang):
   XX=            -46.9686   YY=            -46.9658   ZZ=            -48.9417
   XY=              0.0006   XZ=             -0.0024   YZ=              0.0011
 Traceless Quadrupole moment (field-independent basis, Debye-Ang):
   XX=              0.6567   YY=              0.6596   ZZ=             -1.3163
   XY=              0.0006   XZ=             -0.0024   YZ=              0.0011
 Octapole moment (field-independent basis, Debye-Ang**2):
  XXX=              3.0333  YYY=             -1.7185  ZZZ=             -0.0006  XYY=             -3.0289
  XXY=              1.7253  XXZ=             -0.0005  XZZ=              0.0009  YZZ=              0.0020
  YYZ=             -0.0006  XYZ=              0.0010
 Hexadecapole moment (field-independent basis, Debye-Ang**3):
 XXXX=           -302.3543 YYYY=           -302.1263 ZZZZ=           -244.8144 XXXY=              0.0022
 XXXZ=             -0.0054 YYYX=              0.0016 YYYZ=              0.0020 ZZZX=             -0.0014
 ZZZY=              0.0022 XXYY=           -100.7473 XXZZ=            -95.0131 YYZZ=            -94.9751
 XXYZ=              0.0022 YYXZ=             -0.0014 ZZXY=              0.0010
 N-N= 5.288317871510D+02 E-N=-2.752174133657D+03  KE= 7.114885974662D+02
 Calling FoFJK, ICntrl=      2127 FMM=F ISym2X=0 I1Cent= 0 IOpClX= 0 NMat=1 NMatS=1 NMatT=0.
 ***** Axes restored to original set *****
 -------------------------------------------------------------------
 Center     Atomic                   Forces (Hartrees/Bohr)
 Number     Number              X              Y              Z
 -------------------------------------------------------------------
      1        6           0.000092422    0.000175456    0.000012633
      2        9           0.000007588   -0.000112660   -0.000164098
      3        9          -0.000051184   -0.000091555    0.000150916
      4        6           0.000056086   -0.000121474    0.000169850
      5        9           0.000056614    0.000043902   -0.000043457
      6        9          -0.000006576    0.000056369   -0.000076947
      7        6          -0.000207264    0.000031564   -0.000076670
      8        9           0.000023646    0.000026760    0.000002712
      9        9           0.000028669   -0.000008362    0.000025060
 -------------------------------------------------------------------
 Cartesian Forces:  Max     0.000207264 RMS     0.000091992

 GradGradGradGradGradGradGradGradGradGradGradGradGradGradGradGradGradGrad
 Berny optimization.
 FormGI is forming the generalized inverse of G from B-inverse, IUseBI=4.
 Internal  Forces:  Max     0.000193736 RMS     0.000058172
 Search for a local minimum.
 Step number   1 out of a maximum of   46
 All quantities printed in internal units (Hartrees-Bohrs-Radians)
 Mixed Optimization -- En-DIIS/RFO-DIIS
 Second derivative matrix not updated -- first step.
 ITU=  0
     Eigenvalues ---    0.02516   0.04272   0.04275   0.04276   0.04831
     Eigenvalues ---    0.04832   0.14942   0.14947   0.16738   0.25000
     Eigenvalues ---    0.25000   0.25000   0.28307   0.28320   0.29871
     Eigenvalues ---    0.60643   0.60667   0.60687   0.60702   0.60711
     Eigenvalues ---    0.60716
 RFO step:  Lambda=-5.62058609D-07 EMin= 2.51639920D-02
 Linear search not attempted -- first point.
 Iteration  1 RMS(Cart)=  0.00055644 RMS(Int)=  0.00000029
 Iteration  2 RMS(Cart)=  0.00000023 RMS(Int)=  0.00000016
 Variable       Old X    -DE/DX   Delta X   Delta X   Delta X     New X
                                 (Linear)    (Quad)   (Total)
    R1        2.50378   0.00019   0.00000   0.00032   0.00032   2.50410
    R2        2.50382   0.00018   0.00000   0.00030   0.00030   2.50412
    R3        2.88187   0.00004   0.00000   0.00020   0.00020   2.88207
    R4        2.88229  -0.00003   0.00000  -0.00010  -0.00010   2.88219
    R5        2.50435  -0.00004   0.00000  -0.00006  -0.00006   2.50429
    R6        2.50389   0.00009   0.00000   0.00015   0.00015   2.50404
    R7        2.88248  -0.00013   0.00000  -0.00051  -0.00051   2.88197
    R8        2.50416   0.00001   0.00000   0.00002   0.00002   2.50419
    R9        2.50401   0.00004   0.00000   0.00006   0.00006   2.50407
    A1        1.96106  -0.00001   0.00000   0.00004   0.00004   1.96110
    A2        2.07359   0.00003   0.00000   0.00035   0.00035   2.07394
    A3        2.07400  -0.00002   0.00000  -0.00036  -0.00036   2.07364
    A4        2.07375  -0.00000   0.00000  -0.00009  -0.00009   2.07366
    A5        2.07357   0.00003   0.00000   0.00017   0.00017   2.07374
    A6        2.07308   0.00004   0.00000   0.00066   0.00066   2.07374
    A7        2.07386   0.00000   0.00000   0.00022   0.00022   2.07408
    A8        1.96109  -0.00001   0.00000  -0.00006  -0.00006   1.96103
    A9        2.07383   0.00001   0.00000  -0.00046  -0.00046   2.07337
   A10        2.07414  -0.00004   0.00000  -0.00033  -0.00033   2.07381
   A11        2.07350   0.00000   0.00000   0.00023   0.00023   2.07372
   A12        2.07403  -0.00001   0.00000  -0.00012  -0.00012   2.07390
   A13        2.07361   0.00001   0.00000  -0.00008  -0.00008   2.07353
   A14        2.07381  -0.00002   0.00000   0.00006   0.00006   2.07387
   A15        1.96117  -0.00001   0.00000  -0.00013  -0.00013   1.96104
    D1        2.49431   0.00006   0.00000   0.00151   0.00151   2.49582
    D2        0.00001   0.00001   0.00000   0.00018   0.00018   0.00020
    D3       -0.00057   0.00002   0.00000   0.00100   0.00100   0.00043
    D4       -2.49486  -0.00003   0.00000  -0.00033  -0.00033  -2.49519
    D5       -0.00010  -0.00000   0.00000   0.00061   0.00061   0.00051
    D6       -2.49551   0.00002   0.00000   0.00070   0.00070  -2.49481
    D7        2.49515   0.00000   0.00000   0.00039   0.00039   2.49554
    D8       -0.00026   0.00003   0.00000   0.00048   0.00048   0.00021
    D9       -2.49631   0.00006   0.00000   0.00140   0.00140  -2.49491
   D10       -0.00107   0.00003   0.00000   0.00111   0.00111   0.00004
   D11       -0.00032  -0.00000   0.00000  -0.00002  -0.00002  -0.00034
   D12        2.49492  -0.00004   0.00000  -0.00031  -0.00031   2.49461
         Item               Value     Threshold  Converged?
 Maximum Force            0.000194     0.000450     YES
 RMS     Force            0.000058     0.000300     YES
 Maximum Displacement     0.001511     0.001800     YES
 RMS     Displacement     0.000556     0.001200     YES
 Predicted change in Energy=-2.810255D-07
 Optimization completed.
    -- Stationary point found.
                           ----------------------------
                           !   Optimized Parameters   !
                           ! (Angstroms and Degrees)  !
 --------------------------                            --------------------------
 ! Name  Definition              Value          Derivative Info.                !
 --------------------------------------------------------------------------------
 ! R1    R(1,2)                  1.3249         -DE/DX =    0.0002              !
 ! R2    R(1,3)                  1.325          -DE/DX =    0.0002              !
 ! R3    R(1,4)                  1.525          -DE/DX =    0.0                 !
 ! R4    R(1,7)                  1.5252         -DE/DX =    0.0                 !
 ! R5    R(4,5)                  1.3252         -DE/DX =    0.0                 !
 ! R6    R(4,6)                  1.325          -DE/DX =    0.0001              !
 ! R7    R(4,7)                  1.5253         -DE/DX =   -0.0001              !
 ! R8    R(7,8)                  1.3251         -DE/DX =    0.0                 !
 ! R9    R(7,9)                  1.3251         -DE/DX =    0.0                 !
 ! A1    A(2,1,3)              112.3603         -DE/DX =    0.0                 !
 ! A2    A(2,1,4)              118.808          -DE/DX =    0.0                 !
 ! A3    A(2,1,7)              118.8312         -DE/DX =    0.0                 !
 ! A4    A(3,1,4)              118.8169         -DE/DX =    0.0                 !
 ! A5    A(3,1,7)              118.8065         -DE/DX =    0.0                 !
 ! A6    A(1,4,5)              118.7785         -DE/DX =    0.0                 !
 ! A7    A(1,4,6)              118.8236         -DE/DX =    0.0                 !
 ! A8    A(5,4,6)              112.3624         -DE/DX =    0.0                 !
 ! A9    A(5,4,7)              118.8218         -DE/DX =    0.0                 !
 ! A10   A(6,4,7)              118.8393         -DE/DX =    0.0                 !
 ! A11   A(1,7,8)              118.8026         -DE/DX =    0.0                 !
 ! A12   A(1,7,9)              118.8329         -DE/DX =    0.0                 !
 ! A13   A(4,7,8)              118.8092         -DE/DX =    0.0                 !
 ! A14   A(4,7,9)              118.8204         -DE/DX =    0.0                 !
 ! A15   A(8,7,9)              112.3669         -DE/DX =    0.0                 !
 ! D1    D(2,1,4,5)            142.9136         -DE/DX =    0.0001              !
 ! D2    D(2,1,4,6)              0.0008         -DE/DX =    0.0                 !
 ! D3    D(3,1,4,5)             -0.0324         -DE/DX =    0.0                 !
 ! D4    D(3,1,4,6)           -142.9452         -DE/DX =    0.0                 !
 ! D5    D(2,1,7,8)             -0.0055         -DE/DX =    0.0                 !
 ! D6    D(2,1,7,9)           -142.9821         -DE/DX =    0.0                 !
 ! D7    D(3,1,7,8)            142.9614         -DE/DX =    0.0                 !
 ! D8    D(3,1,7,9)             -0.0152         -DE/DX =    0.0                 !
 ! D9    D(5,4,7,8)           -143.028          -DE/DX =    0.0001              !
 ! D10   D(5,4,7,9)             -0.0613         -DE/DX =    0.0                 !
 ! D11   D(6,4,7,8)             -0.0183         -DE/DX =    0.0                 !
 ! D12   D(6,4,7,9)            142.9483         -DE/DX =    0.0                 !
 --------------------------------------------------------------------------------
 GradGradGradGradGradGradGradGradGradGradGradGradGradGradGradGradGradGrad

                          Input orientation:                          
 ---------------------------------------------------------------------
 Center     Atomic      Atomic             Coordinates (Angstroms)
 Number     Number       Type             X           Y           Z
 ---------------------------------------------------------------------
      1          6           0       -0.302934   -0.826618   -0.000084
      2          9           0       -0.556990   -1.518974   -1.100798
      3          9           0       -0.556783   -1.518944    1.100721
      4          6           0       -0.564381    0.675826   -0.000212
      5          9           0       -1.037922    1.241111    1.100917
      6          9           0       -1.037385    1.241826   -1.100913
      7          6           0        0.867823    0.150979    0.000132
      8          9           0        1.594433    0.277148   -1.100837
      9          9           0        1.594307    0.277708    1.101020
 ---------------------------------------------------------------------
                    Distance matrix (angstroms):
                    1          2          3          4          5
     1  C    0.000000
     2  F    1.324942   0.000000
     3  F    1.324963   2.201519   0.000000
     4  C    1.525022   2.455299   2.455428   0.000000
     5  F    2.455181   3.563273   2.801678   1.325245   0.000000
     6  F    2.455545   2.802284   3.563709   1.325002   2.201830
     7  C    1.525244   2.455785   2.455492   1.525343   2.456009
     8  F    2.455597   2.802619   3.563781   2.455768   3.564581
     9  F    2.455909   3.564288   2.802703   2.455839   2.802994
                    6          7          8          9
     6  F    0.000000
     7  C    2.456026   0.000000
     8  F    2.803046   1.325147   0.000000
     9  F    3.564244   1.325064   2.201857   0.000000
 Stoichiometry    C3F6
 Framework group  C1[X(C3F6)]
 Deg. of freedom    21
 Full point group                 C1      NOp   1
 Largest Abelian subgroup         C1      NOp   1
 Largest concise Abelian subgroup C1      NOp   1
                         Standard orientation:                         
 ---------------------------------------------------------------------
 Center     Atomic      Atomic             Coordinates (Angstroms)
 Number     Number       Type             X           Y           Z
 ---------------------------------------------------------------------
      1          6           0        0.302946    0.826614   -0.000084
      2          9           0        0.557011    1.518966   -1.100798
      3          9           0        0.556804    1.518936    1.100721
      4          6           0        0.564371   -0.675834   -0.000212
      5          9           0        1.037904   -1.241126    1.100917
      6          9           0        1.037367   -1.241841   -1.100913
      7          6           0       -0.867825   -0.150967    0.000132
      8          9           0       -1.594437   -0.277125   -1.100837
      9          9           0       -1.594311   -0.277685    1.101020
 ---------------------------------------------------------------------
 Rotational constants (GHZ):           1.6775814           1.6768203           1.5485625
 1\1\GINC-CCLEARNH3\FOpt\RwB97XD\6-311+G(2d)\C3F6\RAPPE\05-May-2023\0\\
 # opt wb97xd/6-311+g(2d) geom=connectivity freq\\Title Card Required\\
 0,1\C,-0.302934,-0.826618,-0.000084\F,-0.55699,-1.518974,-1.100798\F,-
 0.556783,-1.518944,1.100721\C,-0.564381,0.675826,-0.000212\F,-1.037922
 ,1.241111,1.100917\F,-1.037385,1.241826,-1.100913\C,0.867823,0.150979,
 0.000132\F,1.594433,0.277148,-1.100837\F,1.594307,0.277708,1.10102\\Ve
 rsion=EM64M-G16RevA.03\State=1-A\HF=-713.3152507\RMSD=4.163e-09\RMSF=9
 .199e-05\Dipole=0.0004041,-0.0001544,-0.000351\Quadrupole=0.488272,0.4
 903723,-0.9786443,0.000433,0.0017684,-0.0008294\PG=C01 [X(C3F6)]\\@


 IF AT FIRST YOU DON'T SUCCEED, TRY, TRY AGAIN.
 THEN GIVE UP;
 THERE'S NO USE BEING A DAMN FOOL ABOUT IT.

                                 -- W. C. FIELDS
 Job cpu time:       0 days  1 hours 25 minutes 16.6 seconds.
 Elapsed time:       0 days  0 hours 10 minutes 49.4 seconds.
 File lengths (MBytes):  RWF=     27 Int=      0 D2E=      0 Chk=      5 Scr=      1
 Normal termination of Gaussian 16 at Fri May  5 16:13:36 2023.
 Link1:  Proceeding to internal job step number  2.
 ----------------------------------------------------------------------
 #N Geom=AllCheck Guess=TCheck SCRF=Check GenChk RwB97XD/6-311+G(2d) Fr
 eq
 ----------------------------------------------------------------------
 1/10=4,29=7,30=1,38=1,40=1/1,3;
 2/12=2,40=1/2;
 3/5=4,6=6,7=12,11=2,14=-4,25=1,30=1,70=2,71=2,74=-58,116=1,140=1/1,2,3;
 4/5=101/1;
 5/5=2,38=6,98=1/2;
 8/6=4,10=90,11=11/1;
 11/6=1,8=1,9=11,15=111,16=1/1,2,10;
 10/6=1/2;
 6/7=2,8=2,9=2,10=2,28=1/1;
 7/8=1,10=1,25=1/1,2,3,16;
 1/10=4,30=1/3;
 99//99;
 Structure from the checkpoint file:  "cpropane.chk"
 -------------------
 Title Card Required
 -------------------
 Charge =  0 Multiplicity = 1
 Redundant internal coordinates found in file.  (old form).
 C,0,-0.302934,-0.826618,-0.000084
 F,0,-0.55699,-1.518974,-1.100798
 F,0,-0.556783,-1.518944,1.100721
 C,0,-0.564381,0.675826,-0.000212
 F,0,-1.037922,1.241111,1.100917
 F,0,-1.037385,1.241826,-1.100913
 C,0,0.867823,0.150979,0.000132
 F,0,1.594433,0.277148,-1.100837
 F,0,1.594307,0.277708,1.10102
 Recover connectivity data from disk.

 GradGradGradGradGradGradGradGradGradGradGradGradGradGradGradGradGradGrad
 Berny optimization.
 Initialization pass.
                           ----------------------------
                           !    Initial Parameters    !
                           ! (Angstroms and Degrees)  !
 --------------------------                            --------------------------
 ! Name  Definition              Value          Derivative Info.                !
 --------------------------------------------------------------------------------
 ! R1    R(1,2)                  1.3249         calculate D2E/DX2 analytically  !
 ! R2    R(1,3)                  1.325          calculate D2E/DX2 analytically  !
 ! R3    R(1,4)                  1.525          calculate D2E/DX2 analytically  !
 ! R4    R(1,7)                  1.5252         calculate D2E/DX2 analytically  !
 ! R5    R(4,5)                  1.3252         calculate D2E/DX2 analytically  !
 ! R6    R(4,6)                  1.325          calculate D2E/DX2 analytically  !
 ! R7    R(4,7)                  1.5253         calculate D2E/DX2 analytically  !
 ! R8    R(7,8)                  1.3251         calculate D2E/DX2 analytically  !
 ! R9    R(7,9)                  1.3251         calculate D2E/DX2 analytically  !
 ! A1    A(2,1,3)              112.3603         calculate D2E/DX2 analytically  !
 ! A2    A(2,1,4)              118.808          calculate D2E/DX2 analytically  !
 ! A3    A(2,1,7)              118.8312         calculate D2E/DX2 analytically  !
 ! A4    A(3,1,4)              118.8169         calculate D2E/DX2 analytically  !
 ! A5    A(3,1,7)              118.8065         calculate D2E/DX2 analytically  !
 ! A6    A(1,4,5)              118.7785         calculate D2E/DX2 analytically  !
 ! A7    A(1,4,6)              118.8236         calculate D2E/DX2 analytically  !
 ! A8    A(5,4,6)              112.3624         calculate D2E/DX2 analytically  !
 ! A9    A(5,4,7)              118.8218         calculate D2E/DX2 analytically  !
 ! A10   A(6,4,7)              118.8393         calculate D2E/DX2 analytically  !
 ! A11   A(1,7,8)              118.8026         calculate D2E/DX2 analytically  !
 ! A12   A(1,7,9)              118.8329         calculate D2E/DX2 analytically  !
 ! A13   A(4,7,8)              118.8092         calculate D2E/DX2 analytically  !
 ! A14   A(4,7,9)              118.8204         calculate D2E/DX2 analytically  !
 ! A15   A(8,7,9)              112.3669         calculate D2E/DX2 analytically  !
 ! D1    D(2,1,4,5)            142.9136         calculate D2E/DX2 analytically  !
 ! D2    D(2,1,4,6)              0.0008         calculate D2E/DX2 analytically  !
 ! D3    D(3,1,4,5)             -0.0324         calculate D2E/DX2 analytically  !
 ! D4    D(3,1,4,6)           -142.9452         calculate D2E/DX2 analytically  !
 ! D5    D(2,1,7,8)             -0.0055         calculate D2E/DX2 analytically  !
 ! D6    D(2,1,7,9)           -142.9821         calculate D2E/DX2 analytically  !
 ! D7    D(3,1,7,8)            142.9614         calculate D2E/DX2 analytically  !
 ! D8    D(3,1,7,9)             -0.0152         calculate D2E/DX2 analytically  !
 ! D9    D(5,4,7,8)           -143.028          calculate D2E/DX2 analytically  !
 ! D10   D(5,4,7,9)             -0.0613         calculate D2E/DX2 analytically  !
 ! D11   D(6,4,7,8)             -0.0183         calculate D2E/DX2 analytically  !
 ! D12   D(6,4,7,9)            142.9483         calculate D2E/DX2 analytically  !
 --------------------------------------------------------------------------------
 Trust Radius=3.00D-01 FncErr=1.00D-07 GrdErr=1.00D-07 EigMax=2.50D+02 EigMin=1.00D-04
 Number of steps in this run=      2 maximum allowed number of steps=      2.
 GradGradGradGradGradGradGradGradGradGradGradGradGradGradGradGradGradGrad

                          Input orientation:                          
 ---------------------------------------------------------------------
 Center     Atomic      Atomic             Coordinates (Angstroms)
 Number     Number       Type             X           Y           Z
 ---------------------------------------------------------------------
      1          6           0       -0.302934   -0.826618   -0.000084
      2          9           0       -0.556990   -1.518974   -1.100798
      3          9           0       -0.556783   -1.518944    1.100721
      4          6           0       -0.564381    0.675826   -0.000212
      5          9           0       -1.037922    1.241111    1.100917
      6          9           0       -1.037385    1.241826   -1.100913
      7          6           0        0.867823    0.150979    0.000132
      8          9           0        1.594433    0.277148   -1.100837
      9          9           0        1.594307    0.277708    1.101020
 ---------------------------------------------------------------------
                    Distance matrix (angstroms):
                    1          2          3          4          5
     1  C    0.000000
     2  F    1.324942   0.000000
     3  F    1.324963   2.201519   0.000000
     4  C    1.525022   2.455299   2.455428   0.000000
     5  F    2.455181   3.563273   2.801678   1.325245   0.000000
     6  F    2.455545   2.802284   3.563709   1.325002   2.201830
     7  C    1.525244   2.455785   2.455492   1.525343   2.456009
     8  F    2.455597   2.802619   3.563781   2.455768   3.564581
     9  F    2.455909   3.564288   2.802703   2.455839   2.802994
                    6          7          8          9
     6  F    0.000000
     7  C    2.456026   0.000000
     8  F    2.803046   1.325147   0.000000
     9  F    3.564244   1.325064   2.201857   0.000000
 Stoichiometry    C3F6
 Framework group  C1[X(C3F6)]
 Deg. of freedom    21
 Full point group                 C1      NOp   1
 Largest Abelian subgroup         C1      NOp   1
 Largest concise Abelian subgroup C1      NOp   1
                         Standard orientation:                         
 ---------------------------------------------------------------------
 Center     Atomic      Atomic             Coordinates (Angstroms)
 Number     Number       Type             X           Y           Z
 ---------------------------------------------------------------------
      1          6           0        0.302946    0.826614   -0.000084
      2          9           0        0.557011    1.518966   -1.100798
      3          9           0        0.556804    1.518936    1.100721
      4          6           0        0.564371   -0.675834   -0.000212
      5          9           0        1.037904   -1.241126    1.100917
      6          9           0        1.037367   -1.241841   -1.100913
      7          6           0       -0.867825   -0.150967    0.000132
      8          9           0       -1.594437   -0.277125   -1.100837
      9          9           0       -1.594311   -0.277685    1.101020
 ---------------------------------------------------------------------
 Rotational constants (GHZ):           1.6775814           1.6768203           1.5485625
 Standard basis: 6-311+G(2d) (5D, 7F)
 There are   261 symmetry adapted cartesian basis functions of A   symmetry.
 There are   243 symmetry adapted basis functions of A   symmetry.
   243 basis functions,   378 primitive gaussians,   261 cartesian basis functions
    36 alpha electrons       36 beta electrons
       nuclear repulsion energy       528.8348918332 Hartrees.
 NAtoms=    9 NActive=    9 NUniq=    9 SFac= 1.00D+00 NAtFMM=   60 NAOKFM=F Big=F
 Integral buffers will be    131072 words long.
 Raffenetti 2 integral format.
 Two-electron integral symmetry is turned on.
 Nuclear repulsion after empirical dispersion term =      528.8317871510 Hartrees.
 One-electron integrals computed using PRISM.
 NBasis=   243 RedAO= T EigKep=  6.55D-05  NBF=   243
 NBsUse=   243 1.00D-06 EigRej= -1.00D+00 NBFU=   243
 Initial guess from the checkpoint file:  "cpropane.chk"
 B after Tr=     0.000000   -0.000000   -0.000000
         Rot=    1.000000    0.000000   -0.000000   -0.000000 Ang=   0.00 deg.
 Keep R1 ints in memory in canonical form, NReq=940005793.
 Requested convergence on RMS density matrix=1.00D-08 within 128 cycles.
 Requested convergence on MAX density matrix=1.00D-06.
 Requested convergence on             energy=1.00D-06.
 No special actions if energy rises.
 SCF Done:  E(RwB97XD) =  -713.315250705     A.U. after    1 cycles
            NFock=  1  Conv=0.22D-08     -V/T= 2.0026
 DoSCS=F DFT=T ScalE2(SS,OS)=  1.000000  1.000000
 Range of M.O.s used for correlation:     1   243
 NBasis=   243 NAE=    36 NBE=    36 NFC=     0 NFV=     0
 NROrb=    243 NOA=    36 NOB=    36 NVA=   207 NVB=   207

 **** Warning!!: The largest alpha MO coefficient is  0.47769664D+02

 Symmetrizing basis deriv contribution to polar:
 IMax=3 JMax=2 DiffMx= 0.00D+00
 G2DrvN: will do    10 centers at a time, making    1 passes.
 Calling FoFCou, ICntrl=  3107 FMM=F I1Cent=   0 AccDes= 0.00D+00.
 End of G2Drv F.D. properties file   721 does not exist.
 End of G2Drv F.D. properties file   722 does not exist.
 End of G2Drv F.D. properties file   788 does not exist.
          IDoAtm=111111111
          Differentiating once with respect to electric field.
                with respect to dipole field.
          Differentiating once with respect to nuclear coordinates.
 Keep R1 ints in memory in canonical form, NReq=939818305.
          There are    30 degrees of freedom in the 1st order CPHF.  IDoFFX=6 NUNeed=     3.
     27 vectors produced by pass  0 Test12= 2.48D-14 3.33D-09 XBig12= 1.22D+01 1.45D+00.
 AX will form    27 AO Fock derivatives at one time.
     27 vectors produced by pass  1 Test12= 2.48D-14 3.33D-09 XBig12= 2.40D+00 3.10D-01.
     27 vectors produced by pass  2 Test12= 2.48D-14 3.33D-09 XBig12= 6.84D-02 5.91D-02.
     27 vectors produced by pass  3 Test12= 2.48D-14 3.33D-09 XBig12= 6.32D-03 2.13D-02.
     27 vectors produced by pass  4 Test12= 2.48D-14 3.33D-09 XBig12= 5.44D-05 1.51D-03.
     27 vectors produced by pass  5 Test12= 2.48D-14 3.33D-09 XBig12= 2.55D-07 9.52D-05.
     27 vectors produced by pass  6 Test12= 2.48D-14 3.33D-09 XBig12= 1.56D-09 7.21D-06.
     14 vectors produced by pass  7 Test12= 2.48D-14 3.33D-09 XBig12= 8.37D-12 5.39D-07.
      6 vectors produced by pass  8 Test12= 2.48D-14 3.33D-09 XBig12= 3.75D-14 4.33D-08.
 InvSVY:  IOpt=1 It=  1 EMax= 4.44D-16
 Solved reduced A of dimension   209 with    30 vectors.
 Isotropic polarizability for W=    0.000000       37.81 Bohr**3.
 End of Minotr F.D. properties file   721 does not exist.
 End of Minotr F.D. properties file   722 does not exist.
 End of Minotr F.D. properties file   788 does not exist.

 **********************************************************************

            Population analysis using the SCF density.

 **********************************************************************

 Orbital symmetries:
       Occupied  (A) (A) (A) (A) (A) (A) (A) (A) (A) (A) (A) (A)
                 (A) (A) (A) (A) (A) (A) (A) (A) (A) (A) (A) (A)
                 (A) (A) (A) (A) (A) (A) (A) (A) (A) (A) (A) (A)
       Virtual   (A) (A) (A) (A) (A) (A) (A) (A) (A) (A) (A) (A)
                 (A) (A) (A) (A) (A) (A) (A) (A) (A) (A) (A) (A)
                 (A) (A) (A) (A) (A) (A) (A) (A) (A) (A) (A) (A)
                 (A) (A) (A) (A) (A) (A) (A) (A) (A) (A) (A) (A)
                 (A) (A) (A) (A) (A) (A) (A) (A) (A) (A) (A) (A)
                 (A) (A) (A) (A) (A) (A) (A) (A) (A) (A) (A) (A)
                 (A) (A) (A) (A) (A) (A) (A) (A) (A) (A) (A) (A)
                 (A) (A) (A) (A) (A) (A) (A) (A) (A) (A) (A) (A)
                 (A) (A) (A) (A) (A) (A) (A) (A) (A) (A) (A) (A)
                 (A) (A) (A) (A) (A) (A) (A) (A) (A) (A) (A) (A)
                 (A) (A) (A) (A) (A) (A) (A) (A) (A) (A) (A) (A)
                 (A) (A) (A) (A) (A) (A) (A) (A) (A) (A) (A) (A)
                 (A) (A) (A) (A) (A) (A) (A) (A) (A) (A) (A) (A)
                 (A) (A) (A) (A) (A) (A) (A) (A) (A) (A) (A) (A)
                 (A) (A) (A) (A) (A) (A) (A) (A) (A) (A) (A) (A)
                 (A) (A) (A) (A) (A) (A) (A) (A) (A) (A) (A) (A)
                 (A) (A) (A) (A) (A) (A) (A) (A) (A) (A) (A) (A)
                 (A) (A) (A)
 The electronic state is 1-A.
 Alpha  occ. eigenvalues --  -24.87770 -24.87770 -24.87768 -24.87767 -24.87766
 Alpha  occ. eigenvalues --  -24.87761 -10.50911 -10.50877 -10.50873  -1.44292
 Alpha  occ. eigenvalues --   -1.42140  -1.42134  -1.37933  -1.36647  -1.36643
 Alpha  occ. eigenvalues --   -1.02699  -0.79767  -0.79763  -0.74953  -0.73963
 Alpha  occ. eigenvalues --   -0.69377  -0.69372  -0.68871  -0.68867  -0.60855
 Alpha  occ. eigenvalues --   -0.60159  -0.60156  -0.58002  -0.57996  -0.57993
 Alpha  occ. eigenvalues --   -0.56902  -0.56128  -0.54471  -0.54468  -0.42314
 Alpha  occ. eigenvalues --   -0.42313
 Alpha virt. eigenvalues --    0.04875   0.05633   0.08503   0.08503   0.11897
 Alpha virt. eigenvalues --    0.13052   0.13053   0.13368   0.13369   0.13779
 Alpha virt. eigenvalues --    0.17290   0.19293   0.19690   0.19700   0.22598
 Alpha virt. eigenvalues --    0.26023   0.26042   0.30065   0.32013   0.32019
 Alpha virt. eigenvalues --    0.32636   0.33383   0.33390   0.34772   0.34776
 Alpha virt. eigenvalues --    0.35420   0.35427   0.35516   0.39826   0.40078
 Alpha virt. eigenvalues --    0.40897   0.40898   0.41771   0.41772   0.42782
 Alpha virt. eigenvalues --    0.42806   0.43997   0.44003   0.45866   0.45970
 Alpha virt. eigenvalues --    0.45972   0.54901   0.54903   0.55695   0.55707
 Alpha virt. eigenvalues --    0.62339   0.62346   0.69001   0.72272   0.73437
 Alpha virt. eigenvalues --    0.73449   0.75673   0.76457   0.76619   0.76625
 Alpha virt. eigenvalues --    0.95169   1.03368   1.03372   1.14956   1.14973
 Alpha virt. eigenvalues --    1.16350   1.18302   1.18322   1.27362   1.29412
 Alpha virt. eigenvalues --    1.30357   1.30381   1.32735   1.32737   1.33341
 Alpha virt. eigenvalues --    1.33347   1.38805   1.40678   1.44657   1.44670
 Alpha virt. eigenvalues --    1.45386   1.46204   1.46209   1.47696   1.47771
 Alpha virt. eigenvalues --    1.47786   1.51135   1.52255   1.53052   1.53065
 Alpha virt. eigenvalues --    1.53307   1.53309   1.56290   1.56294   1.71841
 Alpha virt. eigenvalues --    1.93936   1.93955   2.03307   2.03609   2.04458
 Alpha virt. eigenvalues --    2.04461   2.04683   2.06578   2.08283   2.10327
 Alpha virt. eigenvalues --    2.10342   2.20083   2.20120   2.20124   2.30769
 Alpha virt. eigenvalues --    2.30816   2.37505   2.37532   2.38949   2.45606
 Alpha virt. eigenvalues --    2.45611   2.47746   2.47796   2.59583   2.70880
 Alpha virt. eigenvalues --    2.70896   2.71104   2.76928   2.88437   2.89955
 Alpha virt. eigenvalues --    2.89966   2.91192   2.91241   3.06931   3.06951
 Alpha virt. eigenvalues --    3.08200   3.08222   3.08996   3.16868   3.19550
 Alpha virt. eigenvalues --    3.44113   3.44169   3.47521   3.47545   3.54693
 Alpha virt. eigenvalues --    3.61060   3.61063   3.62246   3.62296   3.72901
 Alpha virt. eigenvalues --    3.73213   3.82653   3.82665   3.84440   3.89960
 Alpha virt. eigenvalues --    4.29601   4.42759   4.42760   4.68419   4.68449
 Alpha virt. eigenvalues --    6.38725   6.41537   6.41546   6.43649   6.43666
 Alpha virt. eigenvalues --    6.45250   6.45261   6.45579   6.45979   6.47759
 Alpha virt. eigenvalues --    6.47763   6.48776   6.54377   6.80470   6.82727
 Alpha virt. eigenvalues --    6.82748   6.91356   6.91396   9.07572   9.11475
 Alpha virt. eigenvalues --    9.11479   9.14322   9.14424   9.15451   9.15456
 Alpha virt. eigenvalues --    9.16843   9.17791   9.17796   9.24771   9.24782
 Alpha virt. eigenvalues --    9.25731   9.31213   9.31240   9.36485   9.36497
 Alpha virt. eigenvalues --    9.38093   9.49089   9.49099   9.61490   9.67853
 Alpha virt. eigenvalues --    9.69090   9.74711   9.78312   9.78332   9.80981
 Alpha virt. eigenvalues --    9.80990   9.85003   9.85015  23.90386  23.90429
 Alpha virt. eigenvalues --   24.31793  66.94228  66.94242  66.98429  66.98432
 Alpha virt. eigenvalues --   66.98663  66.98688
          Condensed to atoms (all electrons):
               1          2          3          4          5          6
     1  C    5.153199   0.191607   0.191622   0.004388  -0.033943  -0.034051
     2  F    0.191607   9.200476  -0.043174  -0.033967   0.001476   0.005762
     3  F    0.191622  -0.043174   9.200455  -0.034021   0.005756   0.001490
     4  C    0.004388  -0.033967  -0.034021   5.153146   0.191691   0.191691
     5  F   -0.033943   0.001476   0.005756   0.191691   9.200395  -0.043185
     6  F   -0.034051   0.005762   0.001490   0.191691  -0.043185   9.200349
     7  C    0.004355  -0.034039  -0.033976   0.004495  -0.034023  -0.033961
     8  F   -0.033899   0.005708   0.001495  -0.034015   0.001512   0.005696
     9  F   -0.034008   0.001510   0.005721  -0.033922   0.005696   0.001508
               7          8          9
     1  C    0.004355  -0.033899  -0.034008
     2  F   -0.034039   0.005708   0.001510
     3  F   -0.033976   0.001495   0.005721
     4  C    0.004495  -0.034015  -0.033922
     5  F   -0.034023   0.001512   0.005696
     6  F   -0.033961   0.005696   0.001508
     7  C    5.153197   0.191557   0.191597
     8  F    0.191557   9.200466  -0.043182
     9  F    0.191597  -0.043182   9.200382
 Mulliken charges:
               1
     1  C    0.590729
     2  F   -0.295358
     3  F   -0.295368
     4  C    0.590514
     5  F   -0.295376
     6  F   -0.295299
     7  C    0.590798
     8  F   -0.295338
     9  F   -0.295301
 Sum of Mulliken charges =   0.00000
 Mulliken charges with hydrogens summed into heavy atoms:
               1
     1  C    0.590729
     2  F   -0.295358
     3  F   -0.295368
     4  C    0.590514
     5  F   -0.295376
     6  F   -0.295299
     7  C    0.590798
     8  F   -0.295338
     9  F   -0.295301
 APT charges:
               1
     1  C    1.009055
     2  F   -0.504628
     3  F   -0.504594
     4  C    1.009437
     5  F   -0.504614
     6  F   -0.504620
     7  C    1.009810
     8  F   -0.504921
     9  F   -0.504925
 Sum of APT charges =  -0.00000
 APT charges with hydrogens summed into heavy atoms:
               1
     1  C    1.009055
     2  F   -0.504628
     3  F   -0.504594
     4  C    1.009437
     5  F   -0.504614
     6  F   -0.504620
     7  C    1.009810
     8  F   -0.504921
     9  F   -0.504925
 Electronic spatial extent (au):  <R**2>=            894.6380
 Charge=              0.0000 electrons
 Dipole moment (field-independent basis, Debye):
    X=             -0.0010    Y=              0.0004    Z=             -0.0009  Tot=              0.0014
 Quadrupole moment (field-independent basis, Debye-Ang):
   XX=            -46.9686   YY=            -46.9658   ZZ=            -48.9417
   XY=              0.0006   XZ=             -0.0024   YZ=              0.0011
 Traceless Quadrupole moment (field-independent basis, Debye-Ang):
   XX=              0.6567   YY=              0.6596   ZZ=             -1.3163
   XY=              0.0006   XZ=             -0.0024   YZ=              0.0011
 Octapole moment (field-independent basis, Debye-Ang**2):
  XXX=              3.0333  YYY=             -1.7185  ZZZ=             -0.0006  XYY=             -3.0289
  XXY=              1.7253  XXZ=             -0.0005  XZZ=              0.0009  YZZ=              0.0020
  YYZ=             -0.0006  XYZ=              0.0010
 Hexadecapole moment (field-independent basis, Debye-Ang**3):
 XXXX=           -302.3543 YYYY=           -302.1263 ZZZZ=           -244.8144 XXXY=              0.0022
 XXXZ=             -0.0054 YYYX=              0.0016 YYYZ=              0.0020 ZZZX=             -0.0014
 ZZZY=              0.0022 XXYY=           -100.7473 XXZZ=            -95.0131 YYZZ=            -94.9751
 XXYZ=              0.0022 YYXZ=             -0.0014 ZZXY=              0.0010
 N-N= 5.288317871510D+02 E-N=-2.752174132926D+03  KE= 7.114885967036D+02
  Exact polarizability:  37.314  -0.001  37.294   0.000  -0.000  38.811
 Approx polarizability:  39.501  -0.000  39.485  -0.000   0.000  44.539
 Calling FoFJK, ICntrl=    100127 FMM=F ISym2X=0 I1Cent= 0 IOpClX= 0 NMat=1 NMatS=1 NMatT=0.
 Full mass-weighted force constant matrix:
 Low frequencies ---   -9.5363   -6.3487   -3.2567    0.0009    0.0011    0.0014
 Low frequencies ---  140.5606  140.8011  201.0871
 Diagonal vibrational polarizability:
        8.7817477       8.7574660      13.1371302
 Harmonic frequencies (cm**-1), IR intensities (KM/Mole), Raman scattering
 activities (A**4/AMU), depolarization ratios for plane and unpolarized
 incident light, reduced masses (AMU), force constants (mDyne/A),
 and normal coordinates:
                      1                      2                      3
                      A                      A                      A
 Frequencies --    140.5601               140.8008               201.0867
 Red. masses --     18.9598                18.9599                18.1733
 Frc consts  --      0.2207                 0.2215                 0.4330
 IR Inten    --      0.0000                 0.0000                 5.0389
  Atom  AN      X      Y      Z        X      Y      Z        X      Y      Z
     1   6     0.00  -0.00   0.06    -0.00  -0.00  -0.00    -0.00   0.00  -0.20
     2   9    -0.10  -0.26  -0.15     0.45  -0.17  -0.00     0.13   0.36   0.06
     3   9     0.10   0.26  -0.15    -0.45   0.17  -0.00    -0.13  -0.36   0.06
     4   6    -0.00  -0.00  -0.03    -0.00  -0.00   0.05    -0.00  -0.00  -0.20
     5   9    -0.41  -0.16   0.07    -0.03  -0.34  -0.13    -0.24   0.29   0.06
     6   9     0.41   0.16   0.07     0.03   0.34  -0.13     0.24  -0.29   0.06
     7   6    -0.00  -0.00  -0.03    -0.00  -0.00  -0.05    -0.00   0.00  -0.20
     8   9    -0.21   0.39   0.07    -0.20  -0.28   0.13    -0.37  -0.06   0.06
     9   9     0.21  -0.39   0.07     0.20   0.28   0.13     0.37   0.06   0.06
                      4                      5                      6
                      A                      A                      A
 Frequencies --    250.0561               251.5471               251.7325
 Red. masses --     18.9980                18.3575                18.3577
 Frc consts  --      0.6999                 0.6844                 0.6854
 IR Inten    --      0.0005                 0.6826                 0.6926
  Atom  AN      X      Y      Z        X      Y      Z        X      Y      Z
     1   6    -0.00  -0.01   0.00    -0.08  -0.23   0.00    -0.04  -0.05  -0.00
     2   9    -0.38   0.13  -0.00    -0.20  -0.28  -0.06     0.36  -0.22  -0.01
     3   9     0.38  -0.15   0.00    -0.22  -0.27   0.06     0.36  -0.22   0.01
     4   6     0.00  -0.00   0.00     0.10  -0.14   0.00    -0.12   0.13   0.00
     5   9    -0.30  -0.26  -0.00     0.40   0.02  -0.04     0.07   0.38   0.04
     6   9     0.32   0.27   0.00     0.38   0.01   0.04     0.07   0.38  -0.04
     7   6    -0.00  -0.00   0.00    -0.07  -0.03  -0.00    -0.23  -0.04   0.00
     8   9     0.06  -0.39   0.00    -0.17   0.40   0.02    -0.30  -0.17   0.06
     9   9    -0.08   0.41  -0.00    -0.16   0.38  -0.02    -0.30  -0.18  -0.06
                      7                      8                      9
                      A                      A                      A
 Frequencies --    363.0576               508.5323               508.7058
 Red. masses --     18.7966                17.3544                17.3548
 Frc consts  --      1.4598                 2.6442                 2.6461
 IR Inten    --      0.0000                 0.0000                 0.0000
  Atom  AN      X      Y      Z        X      Y      Z        X      Y      Z
     1   6    -0.03  -0.09  -0.00    -0.00  -0.00  -0.21    -0.00  -0.00   0.34
     2   9    -0.13  -0.35  -0.16     0.19   0.14  -0.15    -0.04  -0.33   0.25
     3   9    -0.13  -0.35   0.16    -0.19  -0.14  -0.15     0.04   0.33   0.25
     4   6    -0.06   0.08   0.00    -0.00  -0.00  -0.19    -0.00  -0.00  -0.35
     5   9    -0.24   0.28   0.16    -0.22   0.05  -0.14    -0.16   0.30  -0.26
     6   9    -0.24   0.28  -0.16     0.22  -0.05  -0.14     0.16  -0.30  -0.26
     7   6     0.10   0.02  -0.00    -0.00  -0.00   0.40    -0.00  -0.00   0.01
     8   9     0.36   0.06  -0.16     0.38   0.07   0.29     0.04  -0.15   0.01
     9   9     0.36   0.06   0.16    -0.38  -0.07   0.29    -0.04   0.15   0.01
                     10                     11                     12
                      A                      A                      A
 Frequencies --    552.3700               552.4412               746.1714
 Red. masses --     16.7730                16.7741                18.1453
 Frc consts  --      3.0152                 3.0162                 5.9524
 IR Inten    --     20.1325                20.0900                 0.0003
  Atom  AN      X      Y      Z        X      Y      Z        X      Y      Z
     1   6     0.29  -0.03   0.00    -0.07  -0.35  -0.00     0.07   0.19   0.00
     2   9    -0.09   0.01  -0.09     0.02   0.11   0.45     0.05   0.13  -0.35
     3   9    -0.09   0.01   0.09     0.02   0.11  -0.45     0.05   0.13   0.35
     4   6     0.32  -0.09  -0.00    -0.01  -0.32   0.00     0.13  -0.15  -0.00
     5   9    -0.10   0.03   0.34     0.00   0.10   0.30     0.09  -0.11   0.36
     6   9    -0.10   0.03  -0.34    -0.00   0.10  -0.30     0.09  -0.11  -0.36
     7   6     0.35  -0.03   0.00    -0.07  -0.28  -0.00    -0.20  -0.03   0.00
     8   9    -0.11   0.01   0.43     0.02   0.09  -0.14    -0.14  -0.02  -0.36
     9   9    -0.11   0.01  -0.43     0.02   0.09   0.14    -0.14  -0.02   0.36
                     13                     14                     15
                      A                      A                      A
 Frequencies --    818.1441               875.3247               875.5529
 Red. masses --     12.3904                13.6885                13.6875
 Frc consts  --      4.8865                 6.1794                 6.1822
 IR Inten    --      0.0015               130.2544               130.0666
  Atom  AN      X      Y      Z        X      Y      Z        X      Y      Z
     1   6     0.53  -0.19  -0.00     0.66  -0.23  -0.00    -0.07   0.10   0.00
     2   9    -0.09   0.03  -0.00    -0.08   0.01   0.03    -0.05  -0.16   0.21
     3   9    -0.09   0.03   0.00    -0.08   0.01  -0.03    -0.05  -0.16  -0.21
     4   6    -0.43  -0.36   0.00     0.37   0.24   0.00     0.40   0.39  -0.00
     5   9     0.07   0.06  -0.00    -0.12   0.07  -0.17     0.02  -0.12   0.13
     6   9     0.07   0.06   0.00    -0.12   0.07   0.17     0.02  -0.12  -0.13
     7   6    -0.10   0.55   0.00     0.11  -0.25   0.00    -0.09   0.65   0.00
     8   9     0.02  -0.09  -0.00    -0.16   0.00  -0.20    -0.05  -0.08  -0.08
     9   9     0.02  -0.09   0.00    -0.16   0.00   0.20    -0.05  -0.08   0.08
                     16                     17                     18
                      A                      A                      A
 Frequencies --   1281.6369              1282.1365              1293.4059
 Red. masses --     12.9161                12.9164                13.5692
 Frc consts  --     12.5001                12.5100                13.3744
 IR Inten    --    130.5273               130.0887               585.7909
  Atom  AN      X      Y      Z        X      Y      Z        X      Y      Z
     1   6     0.32  -0.01   0.00     0.19   0.66   0.00     0.01   0.00   0.35
     2   9    -0.03  -0.01   0.02    -0.05  -0.14   0.14     0.03   0.08  -0.12
     3   9    -0.03  -0.01  -0.02    -0.05  -0.14  -0.15    -0.03  -0.08  -0.12
     4   6    -0.33   0.57  -0.02    -0.39   0.01  -0.01    -0.01   0.01   0.56
     5   9     0.08  -0.11   0.14     0.05  -0.03   0.06    -0.08   0.09  -0.17
     6   9     0.08  -0.11  -0.13     0.05  -0.03  -0.05     0.08  -0.09  -0.18
     7   6    -0.50  -0.28  -0.01     0.47  -0.17   0.00    -0.01  -0.01   0.58
     8   9     0.11   0.04   0.12    -0.09   0.00  -0.09    -0.12  -0.02  -0.18
     9   9     0.11   0.04  -0.11    -0.09   0.00   0.09     0.12   0.02  -0.18
                     19                     20                     21
                      A                      A                      A
 Frequencies --   1294.2603              1294.3586              1567.7277
 Red. masses --     13.0275                13.0280                12.4543
 Frc consts  --     12.8575                12.8599                18.0347
 IR Inten    --     10.6383                11.6724                 0.0002
  Atom  AN      X      Y      Z        X      Y      Z        X      Y      Z
     1   6    -0.00  -0.00  -0.53    -0.01  -0.01   0.64    -0.19  -0.52   0.00
     2   9    -0.01  -0.08   0.14     0.05   0.09  -0.17     0.03   0.07  -0.07
     3   9     0.01   0.08   0.14    -0.05  -0.09  -0.16     0.03   0.07   0.07
     4   6     0.00  -0.00  -0.34     0.01  -0.01  -0.63    -0.36   0.43   0.00
     5   9     0.02  -0.05   0.09     0.06  -0.06   0.15     0.05  -0.06   0.07
     6   9    -0.02   0.06   0.09    -0.06   0.06   0.16     0.05  -0.06  -0.07
     7   6     0.00   0.00   0.67     0.00   0.01   0.20     0.55   0.10  -0.00
     8   9    -0.09  -0.01  -0.16    -0.03  -0.03  -0.05    -0.08  -0.01  -0.07
     9   9     0.09   0.01  -0.16     0.03   0.03  -0.05    -0.08  -0.01   0.07

 -------------------
 - Thermochemistry -
 -------------------
 Temperature   298.150 Kelvin.  Pressure   1.00000 Atm.
 Atom     1 has atomic number  6 and mass  12.00000
 Atom     2 has atomic number  9 and mass  18.99840
 Atom     3 has atomic number  9 and mass  18.99840
 Atom     4 has atomic number  6 and mass  12.00000
 Atom     5 has atomic number  9 and mass  18.99840
 Atom     6 has atomic number  9 and mass  18.99840
 Atom     7 has atomic number  6 and mass  12.00000
 Atom     8 has atomic number  9 and mass  18.99840
 Atom     9 has atomic number  9 and mass  18.99840
 Molecular mass:   149.99042 amu.
 Principal axes and moments of inertia in atomic units:
                           1         2         3
     Eigenvalues --  1075.799461076.287801165.42999
           X            1.00000   0.00005  -0.00001
           Y           -0.00005   1.00000   0.00000
           Z            0.00001  -0.00000   1.00000
 This molecule is an asymmetric top.
 Rotational symmetry number  1.
 Warning -- assumption of classical behavior for rotation
           may cause significant error
 Rotational temperatures (Kelvin)      0.08051     0.08047     0.07432
 Rotational constants (GHZ):           1.67758     1.67682     1.54856
 Zero-point vibrational energy      90016.7 (Joules/Mol)
                                   21.51450 (Kcal/Mol)
 Warning -- explicit consideration of  11 degrees of freedom as
           vibrations may cause significant error
 Vibrational temperatures:    202.23   202.58   289.32   359.77   361.92
          (Kelvin)            362.19   522.36   731.66   731.91   794.74
                              794.84  1073.57  1177.13  1259.40  1259.73
                             1843.99  1844.71  1860.92  1862.15  1862.29
                             2255.61
 
 Zero-point correction=                           0.034286 (Hartree/Particle)
 Thermal correction to Energy=                    0.041960
 Thermal correction to Enthalpy=                  0.042904
 Thermal correction to Gibbs Free Energy=         0.001630
 Sum of electronic and zero-point Energies=           -713.280965
 Sum of electronic and thermal Energies=              -713.273291
 Sum of electronic and thermal Enthalpies=            -713.272347
 Sum of electronic and thermal Free Energies=         -713.313621
 
                     E (Thermal)             CV                S
                      KCal/Mol        Cal/Mol-Kelvin    Cal/Mol-Kelvin
 Total                   26.330             26.447             86.868
 Electronic               0.000              0.000              0.000
 Translational            0.889              2.981             40.926
 Rotational               0.889              2.981             28.691
 Vibrational             24.553             20.485             17.250
 Vibration     1          0.615              1.913              2.796
 Vibration     2          0.615              1.912              2.793
 Vibration     3          0.638              1.838              2.123
 Vibration     4          0.663              1.763              1.730
 Vibration     5          0.664              1.760              1.720
 Vibration     6          0.664              1.760              1.718
 Vibration     7          0.737              1.548              1.109
 Vibration     8          0.864              1.231              0.637
 Vibration     9          0.864              1.231              0.637
 Vibration    10          0.908              1.135              0.539
 Vibration    11          0.908              1.134              0.539
                       Q            Log10(Q)             Ln(Q)
 Total Bot       0.177946D+00         -0.749712         -1.726276
 Total V=0       0.104839D+16         15.020524         34.586035
 Vib (Bot)       0.592680D-14        -14.227180        -32.759292
 Vib (Bot)    1  0.144639D+01          0.160285          0.369071
 Vib (Bot)    2  0.144382D+01          0.159514          0.367295
 Vib (Bot)    3  0.991175D+00         -0.003850         -0.008864
 Vib (Bot)    4  0.780490D+00         -0.107633         -0.247833
 Vib (Bot)    5  0.775314D+00         -0.110522         -0.254487
 Vib (Bot)    6  0.774675D+00         -0.110881         -0.255312
 Vib (Bot)    7  0.503821D+00         -0.297723         -0.685534
 Vib (Bot)    8  0.320735D+00         -0.493854         -1.137140
 Vib (Bot)    9  0.320576D+00         -0.494070         -1.137637
 Vib (Bot)   10  0.283460D+00         -0.547508         -1.260683
 Vib (Bot)   11  0.283404D+00         -0.547593         -1.260880
 Vib (V=0)       0.349186D+02          1.543056          3.553019
 Vib (V=0)    1  0.203037D+01          0.307576          0.708220
 Vib (V=0)    2  0.202795D+01          0.307057          0.707024
 Vib (V=0)    3  0.161015D+01          0.206866          0.476326
 Vib (V=0)    4  0.142691D+01          0.154397          0.355512
 Vib (V=0)    5  0.142256D+01          0.153070          0.352456
 Vib (V=0)    6  0.142202D+01          0.152906          0.352078
 Vib (V=0)    7  0.120981D+01          0.082719          0.190467
 Vib (V=0)    8  0.109403D+01          0.039029          0.089868
 Vib (V=0)    9  0.109394D+01          0.038995          0.089789
 Vib (V=0)   10  0.107476D+01          0.031312          0.072098
 Vib (V=0)   11  0.107473D+01          0.031301          0.072072
 Electronic      0.100000D+01          0.000000          0.000000
 Translational   0.722020D+08          7.858549         18.094978
 Rotational      0.415833D+06          5.618919         12.938038
 ***** Axes restored to original set *****
 -------------------------------------------------------------------
 Center     Atomic                   Forces (Hartrees/Bohr)
 Number     Number              X              Y              Z
 -------------------------------------------------------------------
      1        6           0.000092410    0.000175399    0.000012683
      2        9           0.000007584   -0.000112671   -0.000164143
      3        9          -0.000051180   -0.000091538    0.000150909
      4        6           0.000056091   -0.000121430    0.000169937
      5        9           0.000056628    0.000043880   -0.000043494
      6        9          -0.000006586    0.000056377   -0.000076989
      7        6          -0.000207236    0.000031593   -0.000076626
      8        9           0.000023647    0.000026757    0.000002694
      9        9           0.000028642   -0.000008368    0.000025030
 -------------------------------------------------------------------
 Cartesian Forces:  Max     0.000207236 RMS     0.000091993
 FormGI is forming the generalized inverse of G from B-inverse, IUseBI=4.

 GradGradGradGradGradGradGradGradGradGradGradGradGradGradGradGradGradGrad
 Berny optimization.
 Internal  Forces:  Max     0.000193781 RMS     0.000058178
 Search for a local minimum.
 Step number   1 out of a maximum of    2
 All quantities printed in internal units (Hartrees-Bohrs-Radians)
 Second derivative matrix not updated -- analytic derivatives used.
 ITU=  0
     Eigenvalues ---    0.01463   0.01471   0.03673   0.06197   0.07468
     Eigenvalues ---    0.07473   0.10004   0.12501   0.12505   0.14438
     Eigenvalues ---    0.19709   0.19725   0.23158   0.23483   0.23502
     Eigenvalues ---    0.39060   0.40995   0.41021   0.46413   0.46439
     Eigenvalues ---    0.52468
 Angle between quadratic step and forces=  50.81 degrees.
 Linear search not attempted -- first point.
 Iteration  1 RMS(Cart)=  0.00041622 RMS(Int)=  0.00000014
 Iteration  2 RMS(Cart)=  0.00000012 RMS(Int)=  0.00000005
 Variable       Old X    -DE/DX   Delta X   Delta X   Delta X     New X
                                 (Linear)    (Quad)   (Total)
    R1        2.50378   0.00019   0.00000   0.00039   0.00039   2.50417
    R2        2.50382   0.00018   0.00000   0.00035   0.00035   2.50417
    R3        2.88187   0.00004   0.00000   0.00016   0.00016   2.88204
    R4        2.88229  -0.00003   0.00000  -0.00020  -0.00020   2.88209
    R5        2.50435  -0.00004   0.00000  -0.00018  -0.00018   2.50417
    R6        2.50389   0.00009   0.00000   0.00028   0.00028   2.50417
    R7        2.88248  -0.00013   0.00000  -0.00063  -0.00063   2.88186
    R8        2.50416   0.00001   0.00000   0.00000   0.00000   2.50417
    R9        2.50401   0.00004   0.00000   0.00016   0.00016   2.50417
    A1        1.96106  -0.00001   0.00000  -0.00002  -0.00002   1.96104
    A2        2.07359   0.00003   0.00000   0.00018   0.00018   2.07377
    A3        2.07400  -0.00002   0.00000  -0.00022  -0.00022   2.07377
    A4        2.07375  -0.00000   0.00000   0.00002   0.00002   2.07377
    A5        2.07357   0.00003   0.00000   0.00021   0.00021   2.07377
    A6        2.07308   0.00004   0.00000   0.00067   0.00067   2.07374
    A7        2.07386   0.00000   0.00000  -0.00012  -0.00012   2.07375
    A8        1.96109  -0.00001   0.00000  -0.00007  -0.00007   1.96102
    A9        2.07383   0.00001   0.00000  -0.00007  -0.00007   2.07377
   A10        2.07414  -0.00004   0.00000  -0.00037  -0.00037   2.07377
   A11        2.07350   0.00000   0.00000   0.00029   0.00029   2.07379
   A12        2.07403  -0.00001   0.00000  -0.00024  -0.00024   2.07379
   A13        2.07361   0.00001   0.00000   0.00012   0.00012   2.07373
   A14        2.07381  -0.00002   0.00000  -0.00008  -0.00008   2.07373
   A15        1.96117  -0.00001   0.00000  -0.00015  -0.00015   1.96102
    D1        2.49431   0.00006   0.00000   0.00080   0.00080   2.49511
    D2        0.00001   0.00001   0.00000   0.00004   0.00004   0.00006
    D3       -0.00057   0.00002   0.00000   0.00051   0.00051  -0.00006
    D4       -2.49486  -0.00003   0.00000  -0.00025  -0.00025  -2.49511
    D5       -0.00010  -0.00000   0.00000   0.00011   0.00011   0.00001
    D6       -2.49551   0.00002   0.00000   0.00032   0.00032  -2.49519
    D7        2.49515   0.00000   0.00000   0.00005   0.00005   2.49519
    D8       -0.00026   0.00003   0.00000   0.00026   0.00026  -0.00001
    D9       -2.49631   0.00006   0.00000   0.00124   0.00124  -2.49507
   D10       -0.00107   0.00003   0.00000   0.00101   0.00101  -0.00006
   D11       -0.00032  -0.00000   0.00000   0.00037   0.00037   0.00005
   D12        2.49492  -0.00004   0.00000   0.00015   0.00015   2.49507
         Item               Value     Threshold  Converged?
 Maximum Force            0.000194     0.000450     YES
 RMS     Force            0.000058     0.000300     YES
 Maximum Displacement     0.001250     0.001800     YES
 RMS     Displacement     0.000416     0.001200     YES
 Predicted change in Energy=-2.621334D-07
 Optimization completed.
    -- Stationary point found.
                           ----------------------------
                           !   Optimized Parameters   !
                           ! (Angstroms and Degrees)  !
 --------------------------                            --------------------------
 ! Name  Definition              Value          Derivative Info.                !
 --------------------------------------------------------------------------------
 ! R1    R(1,2)                  1.3249         -DE/DX =    0.0002              !
 ! R2    R(1,3)                  1.325          -DE/DX =    0.0002              !
 ! R3    R(1,4)                  1.525          -DE/DX =    0.0                 !
 ! R4    R(1,7)                  1.5252         -DE/DX =    0.0                 !
 ! R5    R(4,5)                  1.3252         -DE/DX =    0.0                 !
 ! R6    R(4,6)                  1.325          -DE/DX =    0.0001              !
 ! R7    R(4,7)                  1.5253         -DE/DX =   -0.0001              !
 ! R8    R(7,8)                  1.3251         -DE/DX =    0.0                 !
 ! R9    R(7,9)                  1.3251         -DE/DX =    0.0                 !
 ! A1    A(2,1,3)              112.3603         -DE/DX =    0.0                 !
 ! A2    A(2,1,4)              118.808          -DE/DX =    0.0                 !
 ! A3    A(2,1,7)              118.8312         -DE/DX =    0.0                 !
 ! A4    A(3,1,4)              118.8169         -DE/DX =    0.0                 !
 ! A5    A(3,1,7)              118.8065         -DE/DX =    0.0                 !
 ! A6    A(1,4,5)              118.7785         -DE/DX =    0.0                 !
 ! A7    A(1,4,6)              118.8236         -DE/DX =    0.0                 !
 ! A8    A(5,4,6)              112.3624         -DE/DX =    0.0                 !
 ! A9    A(5,4,7)              118.8218         -DE/DX =    0.0                 !
 ! A10   A(6,4,7)              118.8393         -DE/DX =    0.0                 !
 ! A11   A(1,7,8)              118.8026         -DE/DX =    0.0                 !
 ! A12   A(1,7,9)              118.8329         -DE/DX =    0.0                 !
 ! A13   A(4,7,8)              118.8092         -DE/DX =    0.0                 !
 ! A14   A(4,7,9)              118.8204         -DE/DX =    0.0                 !
 ! A15   A(8,7,9)              112.3669         -DE/DX =    0.0                 !
 ! D1    D(2,1,4,5)            142.9136         -DE/DX =    0.0001              !
 ! D2    D(2,1,4,6)              0.0008         -DE/DX =    0.0                 !
 ! D3    D(3,1,4,5)             -0.0324         -DE/DX =    0.0                 !
 ! D4    D(3,1,4,6)           -142.9452         -DE/DX =    0.0                 !
 ! D5    D(2,1,7,8)             -0.0055         -DE/DX =    0.0                 !
 ! D6    D(2,1,7,9)           -142.9821         -DE/DX =    0.0                 !
 ! D7    D(3,1,7,8)            142.9614         -DE/DX =    0.0                 !
 ! D8    D(3,1,7,9)             -0.0152         -DE/DX =    0.0                 !
 ! D9    D(5,4,7,8)           -143.028          -DE/DX =    0.0001              !
 ! D10   D(5,4,7,9)             -0.0613         -DE/DX =    0.0                 !
 ! D11   D(6,4,7,8)             -0.0183         -DE/DX =    0.0                 !
 ! D12   D(6,4,7,9)            142.9483         -DE/DX =    0.0                 !
 --------------------------------------------------------------------------------
 GradGradGradGradGradGradGradGradGradGradGradGradGradGradGradGradGradGrad


 ----------------------------------------------------------------------

 Electric dipole moment (input orientation):
 (Debye = 10**-18 statcoulomb cm , SI units = C m)
                  (au)            (Debye)         (10**-30 SI)
   Tot        0.556582D-03      0.141469D-02      0.471890D-02
   x          0.404119D-03      0.102717D-02      0.342626D-02
   y         -0.154649D-03     -0.393080D-03     -0.131117D-02
   z         -0.350079D-03     -0.889811D-03     -0.296809D-02

 Dipole polarizability, Alpha (input orientation).
 (esu units = cm**3 , SI units = C**2 m**2 J**-1)
 Alpha(0;0):
               (au)            (10**-24 esu)      (10**-40 SI)
   iso        0.378065D+02      0.560234D+01      0.623345D+01
   aniso      0.150739D+01      0.223372D+00      0.248535D+00
   xx         0.373143D+02      0.552941D+01      0.615230D+01
   yx        -0.139660D-02     -0.206955D-03     -0.230268D-03
   yy         0.372938D+02      0.552638D+01      0.614892D+01
   zx        -0.339451D-03     -0.503014D-04     -0.559678D-04
   zy         0.182416D-03      0.270312D-04      0.300763D-04
   zz         0.388114D+02      0.575125D+01      0.639913D+01

 ----------------------------------------------------------------------

 Dipole orientation:
     6         -0.58077185          1.55890170          0.01848417
     9         -2.57779769          2.28676132          1.34174324
     9          0.44312939          3.44261324         -1.27471154
     6         -0.56349283         -1.08462385         -1.12897951
     9          0.47437747         -1.41323302         -3.38433025
     9         -2.54585102         -2.57076348         -0.76687617
     6          1.14473273         -0.47481949          1.11128910
     9          0.59236985         -1.45008447          3.35061741
     9          3.61345910         -0.29493124          0.73302569

 Electric dipole moment (dipole orientation):
 (Debye = 10**-18 statcoulomb cm , SI units = C m)
                  (au)            (Debye)         (10**-30 SI)
   Tot        0.556582D-03      0.141469D-02      0.471890D-02
   x          0.000000D+00      0.000000D+00      0.000000D+00
   y          0.000000D+00      0.000000D+00      0.000000D+00
   z          0.556582D-03      0.141469D-02      0.471890D-02

 Dipole polarizability, Alpha (dipole orientation).
 (esu units = cm**3 , SI units = C**2 m**2 J**-1)
 Alpha(0;0):
               (au)            (10**-24 esu)      (10**-40 SI)
   iso        0.378065D+02      0.560234D+01      0.623345D+01
   aniso      0.150739D+01      0.223372D+00      0.248535D+00
   xx         0.381027D+02      0.564623D+01      0.628228D+01
   yx         0.305203D+00      0.452264D-01      0.503211D-01
   yy         0.374109D+02      0.554372D+01      0.616822D+01
   zx        -0.682922D+00     -0.101199D+00     -0.112599D+00
   zy        -0.266133D+00     -0.394369D-01     -0.438795D-01
   zz         0.379059D+02      0.561708D+01      0.624984D+01

 ----------------------------------------------------------------------
 1\1\GINC-CCLEARNH3\Freq\RwB97XD\6-311+G(2d)\C3F6\RAPPE\05-May-2023\0\\
 #N Geom=AllCheck Guess=TCheck SCRF=Check GenChk RwB97XD/6-311+G(2d) Fr
 eq\\Title Card Required\\0,1\C,-0.302934,-0.826618,-0.000084\F,-0.5569
 9,-1.518974,-1.100798\F,-0.556783,-1.518944,1.100721\C,-0.564381,0.675
 826,-0.000212\F,-1.037922,1.241111,1.100917\F,-1.037385,1.241826,-1.10
 0913\C,0.867823,0.150979,0.000132\F,1.594433,0.277148,-1.100837\F,1.59
 4307,0.277708,1.10102\\Version=EM64M-G16RevA.03\State=1-A\HF=-713.3152
 507\RMSD=2.227e-09\RMSF=9.199e-05\ZeroPoint=0.0342855\Thermal=0.041959
 6\Dipole=0.0004041,-0.0001546,-0.0003501\DipoleDeriv=0.641875,0.169341
 9,0.0001451,0.169544,1.0405272,0.0000461,0.0000976,0.0000109,1.3447618
 ,-0.2610381,-0.1353878,-0.1134152,-0.1354546,-0.5804866,-0.308413,-0.1
 354369,-0.3688142,-0.6723586,-0.2610008,-0.1353321,0.1132968,-0.135405
 6,-0.5804328,0.3083729,0.1353605,0.3688007,-0.672348,0.7958766,-0.2576
 13,-0.0001872,-0.2572712,0.888053,-0.0004631,-0.0001628,-0.0002456,1.3
 443822,-0.384163,0.2063291,0.2110468,0.2059348,-0.4575616,-0.2516111,0
 .2523886,-0.3014242,-0.6721183,-0.3838747,0.2064069,-0.2108566,0.20603
 34,-0.457916,0.2520459,-0.2521993,0.3017499,-0.6720685,1.0888824,0.087
 6259,-0.0000001,0.0879734,0.5951901,0.000315,-0.0000374,0.0001588,1.34
 53568,-0.6183099,-0.0705889,0.3239734,-0.0705703,-0.2236683,0.0561799,
 0.3876801,0.0671114,-0.6727842,-0.6182475,-0.0707822,-0.3240029,-0.070
 7838,-0.223705,-0.0564726,-0.3876905,-0.0673478,-0.6728232\Polar=37.31
 43047,-0.0013966,37.2938288,-0.0003395,0.0001824,38.8113503\Quadrupole
 =0.4882711,0.4903726,-0.9786437,0.0004335,0.001768,-0.000829\PG=C01 [X
 (C3F6)]\NImag=0\\0.36407691,0.12033854,0.64904481,-0.00001257,0.000048
 51,0.58558252,-0.07981036,-0.03890756,-0.04510545,0.05652390,-0.038871
 85,-0.17167720,-0.12300225,0.04592967,0.16501420,-0.04874748,-0.133073
 06,-0.23035805,0.05794724,0.15811227,0.31710482,-0.07980916,-0.0388840
 9,0.04508379,0.00955098,0.00666461,-0.00267802,0.05654096,-0.03887762,
 -0.17163932,0.12297439,0.00667453,0.02531243,-0.00730473,0.04593315,0.
 16497382,0.04874965,0.13304283,-0.23034729,0.00266458,0.00729977,-0.06
 864558,-0.05793335,-0.15807823,0.31710325,-0.04072473,0.04133986,-0.00
 000125,0.00458852,-0.01221092,-0.00271813,0.00458975,-0.01220366,0.002
 71189,0.47340900,0.02224840,-0.21822743,-0.00000639,-0.00343829,-0.002
 68898,-0.00153357,-0.00343848,-0.00267491,0.00153084,-0.18308948,0.539
 81159,-0.00001261,0.00001137,-0.03292556,0.01395926,-0.02831976,-0.014
 76761,-0.01396092,0.02828400,-0.01477455,0.00015690,-0.00030162,0.5855
 3015,-0.00122548,0.00397732,-0.00356980,-0.00004055,-0.00054393,0.0004
 4285,0.00310671,0.00433323,-0.00323930,-0.11504498,0.05908669,0.083898
 15,0.09812815,0.01276237,0.00309162,-0.03136728,0.00387359,-0.00927929
 ,-0.00614768,-0.00387665,0.00184500,0.00272823,0.05904561,-0.13617755,
 -0.10013179,-0.06978956,0.12319724,0.00310356,-0.00054342,-0.01481849,
 0.00167534,-0.00595047,-0.00323481,-0.00212584,-0.00365955,0.00894336,
 0.09073835,-0.10835327,-0.23010878,-0.10785321,0.12879020,0.31677111,-
 0.00122794,0.00398103,0.00358646,0.00310554,0.00433333,0.00323828,-0.0
 0003682,-0.00054810,-0.00044173,-0.11503004,0.05918767,-0.08399911,0.0
 1558634,-0.01014939,0.00499293,0.09809633,0.01273204,0.00311925,0.0313
 5728,-0.00387490,0.00184758,-0.00274567,0.00387650,-0.00927574,0.00615
 229,0.05915824,-0.13640157,0.10044689,-0.01014686,0.01925387,-0.005936
 21,-0.06989965,0.12339598,-0.00307184,0.00054281,-0.01478063,0.0021195
 1,0.00367249,0.00894265,-0.00167292,0.00594152,-0.00323018,-0.09084661
 ,0.10865551,-0.23044749,-0.00496424,0.00599145,-0.06849855,0.10790430,
 -0.12915621,0.31708090,-0.14601005,-0.10211851,-0.00000465,0.00927466,
 0.00207907,0.00106059,0.00925762,0.00206903,-0.00105962,-0.20152419,0.
 07027321,-0.00004890,0.00594784,0.00265765,-0.00006548,0.00596436,0.00
 266976,0.00007603,0.68159320,-0.08325165,-0.11286008,-0.00001135,-0.00
 664467,-0.00734987,-0.00288887,-0.00666174,-0.00735797,0.00290018,0.05
 143720,-0.05780858,0.00002862,0.01136678,-0.00399554,-0.00306311,0.011
 38686,-0.00400300,0.00306478,0.06297955,0.33175022,-0.00002427,-0.0000
 2115,-0.03282306,-0.02891960,-0.01254146,-0.01476711,0.02894486,0.0125
 7076,-0.01477233,-0.00004831,0.00001784,-0.03301360,0.03145121,-0.0020
 1437,-0.01474937,-0.03144172,0.00203106,-0.01475470,0.00011705,0.00005
 196,0.58542406,-0.00764149,0.00513619,0.01751977,0.00234222,-0.0047597
 6,-0.00422896,-0.00554219,-0.00262336,0.00431573,-0.00513094,-0.010408
 34,0.02532623,-0.00841404,0.00094464,0.00555230,0.00195660,0.00453211,
 -0.00398250,-0.18224426,-0.02027768,0.12884593,0.17751393,-0.00355487,
 0.00957332,0.02624824,0.00345472,0.00260081,0.00000119,-0.00706735,-0.
 00378534,0.00441969,-0.00173129,0.00707953,-0.01878571,0.00540535,-0.0
 0090737,-0.00271083,-0.00369118,0.00297313,-0.00142303,-0.02027181,-0.
 06917627,0.02238977,0.02396705,0.04393433,0.00267605,-0.00158365,-0.01
 477347,0.00077320,0.00418091,0.00895514,0.00511857,0.00345355,-0.00323
 267,0.00194724,0.00236117,-0.01474431,0.00598833,-0.00151360,-0.003235
 99,0.00215492,-0.00366958,0.00893151,0.13938944,0.02424593,-0.23019965
 ,-0.16570100,-0.02878847,0.31687374,-0.00762769,0.00513723,-0.01749630
 ,-0.00553492,-0.00262023,-0.00431637,0.00234216,-0.00475720,0.00423215
 ,-0.00513240,-0.01042139,-0.02531900,0.00195602,0.00453172,0.00398206,
 -0.00841436,0.00095277,-0.00556173,-0.18225919,-0.02033466,-0.12892514
 ,0.02716017,0.00348938,0.00765326,0.17751020,-0.00352537,0.00957503,-0
 .02624115,-0.00706710,-0.00377966,-0.00441989,0.00345405,0.00260203,0.
 00000440,-0.00174556,0.00708789,0.01876800,-0.00368903,0.00297203,0.00
 142667,0.00539943,-0.00090950,0.00271069,-0.02033796,-0.06919891,-0.02
 248442,0.00348915,0.00770787,0.00131374,0.02402239,0.04394322,-0.00266
 049,0.00157575,-0.01475598,-0.00511407,-0.00345150,-0.00322944,-0.0007
 7618,-0.00418172,0.00895599,-0.00194008,-0.00237050,-0.01474826,-0.002
 15399,0.00366485,0.00893152,-0.00599433,0.00152015,-0.00324351,-0.1394
 6446,-0.02432814,-0.23034425,-0.00764749,-0.00135085,-0.06857430,0.165
 75108,0.02892197,0.31700821\\-0.00009241,-0.00017540,-0.00001268,-0.00
 000758,0.00011267,0.00016414,0.00005118,0.00009154,-0.00015091,-0.0000
 5609,0.00012143,-0.00016994,-0.00005663,-0.00004388,0.00004349,0.00000
 659,-0.00005638,0.00007699,0.00020724,-0.00003159,0.00007663,-0.000023
 65,-0.00002676,-0.00000269,-0.00002864,0.00000837,-0.00002503\\\@


 BULLDOZER: SOMEONE WHO SLEEPS THROUGH SPEECHES.
 Job cpu time:       0 days  2 hours 28 minutes  4.6 seconds.
 Elapsed time:       0 days  0 hours 18 minutes 41.7 seconds.
 File lengths (MBytes):  RWF=     64 Int=      0 D2E=      0 Chk=      6 Scr=      1
 Normal termination of Gaussian 16 at Fri May  5 16:32:21 2023.
