 Entering Gaussian System, Link 0=g16
 Initial command:
 /usr/local/src/g16/l1.exe "/data/g09scratch/Gau-173351.inp" -scrdir="/data/g09scratch/"
 Entering Link 1 = /usr/local/src/g16/l1.exe PID=    173352.
  
 Copyright (c) 1988,1990,1992,1993,1995,1998,2003,2009,2016,
            Gaussian, Inc.  All Rights Reserved.
  
 This is part of the Gaussian(R) 16 program.  It is based on
 the Gaussian(R) 09 system (copyright 2009, Gaussian, Inc.),
 the Gaussian(R) 03 system (copyright 2003, Gaussian, Inc.),
 the Gaussian(R) 98 system (copyright 1998, Gaussian, Inc.),
 the Gaussian(R) 94 system (copyright 1995, Gaussian, Inc.),
 the Gaussian 92(TM) system (copyright 1992, Gaussian, Inc.),
 the Gaussian 90(TM) system (copyright 1990, Gaussian, Inc.),
 the Gaussian 88(TM) system (copyright 1988, Gaussian, Inc.),
 the Gaussian 86(TM) system (copyright 1986, Carnegie Mellon
 University), and the Gaussian 82(TM) system (copyright 1983,
 Carnegie Mellon University). Gaussian is a federally registered
 trademark of Gaussian, Inc.
  
 This software contains proprietary and confidential information,
 including trade secrets, belonging to Gaussian, Inc.
  
 This software is provided under written license and may be
 used, copied, transmitted, or stored only in accord with that
 written license.
  
 The following legend is applicable only to US Government
 contracts under FAR:
  
                    RESTRICTED RIGHTS LEGEND
  
 Use, reproduction and disclosure by the US Government is
 subject to restrictions as set forth in subparagraphs (a)
 and (c) of the Commercial Computer Software - Restricted
 Rights clause in FAR 52.227-19.
  
 Gaussian, Inc.
 340 Quinnipiac St., Bldg. 40, Wallingford CT 06492
  
  
 ---------------------------------------------------------------
 Warning -- This program may not be used in any manner that
 competes with the business of Gaussian, Inc. or will provide
 assistance to any competitor of Gaussian, Inc.  The licensee
 of this program is prohibited from giving any competitor of
 Gaussian, Inc. access to this program.  By using this program,
 the user acknowledges that Gaussian, Inc. is engaged in the
 business of creating and licensing software in the field of
 computational chemistry and represents and warrants to the
 licensee that it is not a competitor of Gaussian, Inc. and that
 it will not use this program in any manner prohibited above.
 ---------------------------------------------------------------
  

 Cite this work as:
 Gaussian 16, Revision A.03,
 M. J. Frisch, G. W. Trucks, H. B. Schlegel, G. E. Scuseria, 
 M. A. Robb, J. R. Cheeseman, G. Scalmani, V. Barone, 
 G. A. Petersson, H. Nakatsuji, X. Li, M. Caricato, A. V. Marenich, 
 J. Bloino, B. G. Janesko, R. Gomperts, B. Mennucci, H. P. Hratchian, 
 J. V. Ortiz, A. F. Izmaylov, J. L. Sonnenberg, D. Williams-Young, 
 F. Ding, F. Lipparini, F. Egidi, J. Goings, B. Peng, A. Petrone, 
 T. Henderson, D. Ranasinghe, V. G. Zakrzewski, J. Gao, N. Rega, 
 G. Zheng, W. Liang, M. Hada, M. Ehara, K. Toyota, R. Fukuda, 
 J. Hasegawa, M. Ishida, T. Nakajima, Y. Honda, O. Kitao, H. Nakai, 
 T. Vreven, K. Throssell, J. A. Montgomery, Jr., J. E. Peralta, 
 F. Ogliaro, M. J. Bearpark, J. J. Heyd, E. N. Brothers, K. N. Kudin, 
 V. N. Staroverov, T. A. Keith, R. Kobayashi, J. Normand, 
 K. Raghavachari, A. P. Rendell, J. C. Burant, S. S. Iyengar, 
 J. Tomasi, M. Cossi, J. M. Millam, M. Klene, C. Adamo, R. Cammi, 
 J. W. Ochterski, R. L. Martin, K. Morokuma, O. Farkas, 
 J. B. Foresman, and D. J. Fox, Gaussian, Inc., Wallingford CT, 2016.
 
 ******************************************
 Gaussian 16:  ES64L-G16RevA.03 25-Dec-2016
                30-Oct-2025 
 ******************************************
 %mem=320GB
 %nprocshared=60
 Will use up to   60 processors via shared memory.
 %chk=frd_903_0HFAts_prod.chk
 -----------------------------------------------
 # opt freq wb97xd/6-311+g(2d) geom=connectivity
 -----------------------------------------------
 1/18=20,19=15,26=3,38=1,57=2/1,3;
 2/9=110,12=2,17=6,18=5,40=1/2;
 3/5=4,6=6,7=12,11=2,25=1,30=1,71=1,74=-58/1,2,3;
 4//1;
 5/5=2,38=5/2;
 6/7=2,8=2,9=2,10=2,28=1/1;
 7//1,2,3,16;
 1/18=20,19=15,26=3/3(2);
 2/9=110/2;
 99//99;
 2/9=110/2;
 3/5=4,6=6,7=12,11=2,25=1,30=1,71=1,74=-58/1,2,3;
 4/5=5,16=3,69=1/1;
 5/5=2,38=5/2;
 7//1,2,3,16;
 1/18=20,19=15,26=3/3(-5);
 2/9=110/2;
 6/7=2,8=2,9=2,10=2,19=2,28=1/1;
 99/9=1/99;
 -------------------
 Title Card Required
 -------------------
 Symbolic Z-matrix:
 Charge =  0 Multiplicity = 1
 C                     3.217     0.17862   0.15349 
 F                     4.243    -0.65031   0.28424 
 F                     3.42319   0.95518  -0.90141 
 F                     3.13121   0.933     1.23911 
 C                     1.9236   -0.66414  -0.03216 
 F                     2.07968  -1.42904  -1.11814 
 F                     1.77897  -1.44314   1.04434 
 F                     0.7107    0.94984  -1.28758 
 F                     0.41458   0.94802   0.84742 
 C                     0.62234   0.16429  -0.20695 
 O                    -0.39895  -0.74586  -0.34946 
 C                    -1.6717   -0.2852   -0.45639 
 C                    -2.08318   0.98358  -1.04604 
 O                    -2.17324  -0.05716  -1.84303 
 O                    -2.27306   2.14969  -1.05356 
 H                    -2.1604    2.84436   0.65134 
 C                    -2.62313  -1.12713   0.38937 
 F                    -2.11379   2.85195   1.58205 
 F                    -2.58862  -2.39567  -0.00316 
 F                    -2.25756  -1.05909   1.6603 
 F                    -3.86439  -0.67384   0.26497 
 
 Add virtual bond connecting atoms H16        and O15        Dist= 3.49D+00.

 GradGradGradGradGradGradGradGradGradGradGradGradGradGradGradGradGradGrad
 Berny optimization.
 Initialization pass.
                           ----------------------------
                           !    Initial Parameters    !
                           ! (Angstroms and Degrees)  !
 --------------------------                            --------------------------
 ! Name  Definition              Value          Derivative Info.                !
 --------------------------------------------------------------------------------
 ! R1    R(1,2)                  1.3255         estimate D2E/DX2                !
 ! R2    R(1,3)                  1.326          estimate D2E/DX2                !
 ! R3    R(1,4)                  1.3248         estimate D2E/DX2                !
 ! R4    R(1,5)                  1.5549         estimate D2E/DX2                !
 ! R5    R(5,6)                  1.3375         estimate D2E/DX2                !
 ! R6    R(5,7)                  1.3366         estimate D2E/DX2                !
 ! R7    R(5,10)                 1.5525         estimate D2E/DX2                !
 ! R8    R(8,10)                 1.3389         estimate D2E/DX2                !
 ! R9    R(9,10)                 1.3301         estimate D2E/DX2                !
 ! R10   R(10,11)                1.3754         estimate D2E/DX2                !
 ! R11   R(11,12)                1.3578         estimate D2E/DX2                !
 ! R12   R(12,13)                1.4584         estimate D2E/DX2                !
 ! R13   R(12,14)                1.4921         estimate D2E/DX2                !
 ! R14   R(12,17)                1.5262         estimate D2E/DX2                !
 ! R15   R(13,14)                1.3139         estimate D2E/DX2                !
 ! R16   R(13,15)                1.1815         estimate D2E/DX2                !
 ! R17   R(15,16)                1.8444         estimate D2E/DX2                !
 ! R18   R(16,18)                0.9319         estimate D2E/DX2                !
 ! R19   R(17,19)                1.3283         estimate D2E/DX2                !
 ! R20   R(17,20)                1.3242         estimate D2E/DX2                !
 ! R21   R(17,21)                1.3273         estimate D2E/DX2                !
 ! A1    A(2,1,3)              108.9265         estimate D2E/DX2                !
 ! A2    A(2,1,4)              108.9901         estimate D2E/DX2                !
 ! A3    A(2,1,5)              108.4643         estimate D2E/DX2                !
 ! A4    A(3,1,4)              109.1777         estimate D2E/DX2                !
 ! A5    A(3,1,5)              110.5964         estimate D2E/DX2                !
 ! A6    A(4,1,5)              110.6477         estimate D2E/DX2                !
 ! A7    A(1,5,6)              108.0502         estimate D2E/DX2                !
 ! A8    A(1,5,7)              108.0432         estimate D2E/DX2                !
 ! A9    A(1,5,10)             114.9263         estimate D2E/DX2                !
 ! A10   A(6,5,7)              109.4674         estimate D2E/DX2                !
 ! A11   A(6,5,10)             108.1545         estimate D2E/DX2                !
 ! A12   A(7,5,10)             108.1186         estimate D2E/DX2                !
 ! A13   A(5,10,8)             110.4043         estimate D2E/DX2                !
 ! A14   A(5,10,9)             110.8615         estimate D2E/DX2                !
 ! A15   A(5,10,11)            106.3161         estimate D2E/DX2                !
 ! A16   A(8,10,9)             107.722          estimate D2E/DX2                !
 ! A17   A(8,10,11)            110.7094         estimate D2E/DX2                !
 ! A18   A(9,10,11)            110.8588         estimate D2E/DX2                !
 ! A19   A(10,11,12)           118.6657         estimate D2E/DX2                !
 ! A20   A(11,12,13)           126.2632         estimate D2E/DX2                !
 ! A21   A(11,12,14)           116.1119         estimate D2E/DX2                !
 ! A22   A(11,12,17)           110.7048         estimate D2E/DX2                !
 ! A23   A(13,12,17)           121.8773         estimate D2E/DX2                !
 ! A24   A(14,12,17)           112.9396         estimate D2E/DX2                !
 ! A25   A(12,13,15)           155.0392         estimate D2E/DX2                !
 ! A26   A(14,13,15)           140.0755         estimate D2E/DX2                !
 ! A27   A(13,15,16)           110.8566         estimate D2E/DX2                !
 ! A28   A(15,16,18)           158.3234         estimate D2E/DX2                !
 ! A29   A(12,17,19)           110.2957         estimate D2E/DX2                !
 ! A30   A(12,17,20)           109.3545         estimate D2E/DX2                !
 ! A31   A(12,17,21)           110.0383         estimate D2E/DX2                !
 ! A32   A(19,17,20)           108.9965         estimate D2E/DX2                !
 ! A33   A(19,17,21)           108.8289         estimate D2E/DX2                !
 ! A34   A(20,17,21)           109.3043         estimate D2E/DX2                !
 ! D1    D(2,1,5,6)            -58.8857         estimate D2E/DX2                !
 ! D2    D(2,1,5,7)             59.4612         estimate D2E/DX2                !
 ! D3    D(2,1,5,10)          -179.7378         estimate D2E/DX2                !
 ! D4    D(3,1,5,6)             60.5068         estimate D2E/DX2                !
 ! D5    D(3,1,5,7)            178.8537         estimate D2E/DX2                !
 ! D6    D(3,1,5,10)           -60.3454         estimate D2E/DX2                !
 ! D7    D(4,1,5,6)           -178.3867         estimate D2E/DX2                !
 ! D8    D(4,1,5,7)            -60.0397         estimate D2E/DX2                !
 ! D9    D(4,1,5,10)            60.7612         estimate D2E/DX2                !
 ! D10   D(1,5,10,8)            60.1166         estimate D2E/DX2                !
 ! D11   D(1,5,10,9)           -59.1794         estimate D2E/DX2                !
 ! D12   D(1,5,10,11)         -179.7495         estimate D2E/DX2                !
 ! D13   D(6,5,10,8)           -60.6784         estimate D2E/DX2                !
 ! D14   D(6,5,10,9)          -179.9744         estimate D2E/DX2                !
 ! D15   D(6,5,10,11)           59.4555         estimate D2E/DX2                !
 ! D16   D(7,5,10,8)          -179.1238         estimate D2E/DX2                !
 ! D17   D(7,5,10,9)            61.5801         estimate D2E/DX2                !
 ! D18   D(7,5,10,11)          -58.9899         estimate D2E/DX2                !
 ! D19   D(5,10,11,12)         176.8903         estimate D2E/DX2                !
 ! D20   D(8,10,11,12)         -63.1736         estimate D2E/DX2                !
 ! D21   D(9,10,11,12)          56.3185         estimate D2E/DX2                !
 ! D22   D(10,11,12,13)         30.7439         estimate D2E/DX2                !
 ! D23   D(10,11,12,14)         92.4456         estimate D2E/DX2                !
 ! D24   D(10,11,12,17)       -137.0661         estimate D2E/DX2                !
 ! D25   D(11,12,13,15)        -81.5096         estimate D2E/DX2                !
 ! D26   D(17,12,13,15)         85.0405         estimate D2E/DX2                !
 ! D27   D(11,12,17,19)        -59.3155         estimate D2E/DX2                !
 ! D28   D(11,12,17,20)         60.5359         estimate D2E/DX2                !
 ! D29   D(11,12,17,21)       -179.3926         estimate D2E/DX2                !
 ! D30   D(13,12,17,19)        132.2503         estimate D2E/DX2                !
 ! D31   D(13,12,17,20)       -107.8983         estimate D2E/DX2                !
 ! D32   D(13,12,17,21)         12.1731         estimate D2E/DX2                !
 ! D33   D(14,12,17,19)         72.82           estimate D2E/DX2                !
 ! D34   D(14,12,17,20)       -167.3286         estimate D2E/DX2                !
 ! D35   D(14,12,17,21)        -47.2572         estimate D2E/DX2                !
 ! D36   D(12,13,15,16)        -11.7532         estimate D2E/DX2                !
 ! D37   D(14,13,15,16)        169.7443         estimate D2E/DX2                !
 ! D38   D(13,15,16,18)        -12.3285         estimate D2E/DX2                !
 --------------------------------------------------------------------------------
 Trust Radius=3.00D-01 FncErr=1.00D-07 GrdErr=1.00D-06 EigMax=2.50D+02 EigMin=1.00D-04
 Number of steps in this run=    103 maximum allowed number of steps=    126.
 GradGradGradGradGradGradGradGradGradGradGradGradGradGradGradGradGradGrad

                          Input orientation:                          
 ---------------------------------------------------------------------
 Center     Atomic      Atomic             Coordinates (Angstroms)
 Number     Number       Type             X           Y           Z
 ---------------------------------------------------------------------
      1          6           0        3.216999    0.178616    0.153485
      2          9           0        4.243000   -0.650305    0.284240
      3          9           0        3.423187    0.955178   -0.901406
      4          9           0        3.131208    0.933004    1.239108
      5          6           0        1.923596   -0.664142   -0.032160
      6          9           0        2.079678   -1.429035   -1.118141
      7          9           0        1.778970   -1.443138    1.044341
      8          9           0        0.710704    0.949843   -1.287577
      9          9           0        0.414580    0.948016    0.847417
     10          6           0        0.622343    0.164293   -0.206952
     11          8           0       -0.398948   -0.745857   -0.349462
     12          6           0       -1.671701   -0.285201   -0.456391
     13          6           0       -2.083176    0.983581   -1.046044
     14          8           0       -2.173237   -0.057159   -1.843029
     15          8           0       -2.273061    2.149693   -1.053557
     16          1           0       -2.160401    2.844356    0.651337
     17          6           0       -2.623129   -1.127131    0.389369
     18          9           0       -2.113785    2.851945    1.582045
     19          9           0       -2.588624   -2.395673   -0.003157
     20          9           0       -2.257557   -1.059092    1.660296
     21          9           0       -3.864385   -0.673839    0.264967
 ---------------------------------------------------------------------
                    Distance matrix (angstroms):
                    1          2          3          4          5
     1  C    0.000000
     2  F    1.325475   0.000000
     3  F    1.326031   2.157643   0.000000
     4  F    1.324779   2.157480   2.160450   0.000000
     5  C    1.554862   2.340926   2.372037   2.371777   0.000000
     6  F    2.344157   2.693150   2.745262   3.498795   1.337452
     7  F    2.343424   2.697736   3.498757   2.740900   1.336640
     8  F    2.992151   4.184280   2.739840   3.499037   2.377420
     9  F    2.987820   4.186717   3.479964   2.744761   2.376939
    10  C    2.619611   3.743527   2.992072   2.996066   1.552455
    11  O    3.765990   4.685978   4.219820   4.219494   2.345542
    12  C    4.948380   5.972062   5.262553   5.237048   3.640018
    13  C    5.493514   6.667814   5.508336   5.693354   4.449402
    14  O    5.752939   6.785661   5.764672   6.214268   4.520146
    15  O    5.956749   7.217253   5.822135   5.995229   5.154886
    16  H    6.022496   7.304174   6.095610   5.656842   5.427316
    17  C    5.988966   6.883469   6.523806   6.170787   4.589635
    18  F    6.132270   7.372840   6.357933   5.595524   5.591866
    19  F    6.352697   7.056911   6.940960   6.733483   4.833133
    20  F    5.811468   6.657167   6.549080   5.760611   4.527961
    21  F    7.133380   8.107442   7.557965   7.243564   5.795611
                    6          7          8          9         10
     6  F    0.000000
     7  F    2.183335   0.000000
     8  F    2.749883   3.507904   0.000000
     9  F    3.505188   2.760065   2.155433   0.000000
    10  C    2.343669   2.342510   1.338898   1.330068   0.000000
    11  O    2.683503   2.678099   2.233111   2.227903   1.375397
    12  C    3.977325   3.937022   2.809281   2.751964   2.350937
    13  C    4.811992   5.017454   2.804504   3.134525   2.948752
    14  O    4.527117   5.087021   3.104786   3.865963   3.246699
    15  O    5.635406   5.807630   3.224478   3.504446   3.611360
    16  H    6.274647   5.835726   3.948647   3.203916   3.957659
    17  C    4.947739   4.461762   4.270879   3.707252   3.543510
    18  F    6.572893   5.821547   4.453141   3.249193   4.232066
    19  F    4.895980   4.591345   4.871117   4.574163   4.111602
    20  F    5.164124   4.101273   4.640727   3.439414   3.643777
    21  F    6.149406   5.748626   5.096879   4.612939   4.588671
                   11         12         13         14         15
    11  O    0.000000
    12  C    1.357769   0.000000
    13  C    2.512530   1.458359   0.000000
    14  O    2.419328   1.492081   1.313939   0.000000
    15  O    3.520264   2.578168   1.181495   2.345938   0.000000
    16  H    4.122371   3.355595   2.519831   3.826332   1.844427
    17  C    2.374494   1.526228   2.609035   2.516117   3.597521
    18  F    4.428946   3.767273   3.224682   4.494169   2.732201
    19  F    2.763422   2.345264   3.572457   3.004384   4.675818
    20  F    2.755299   2.328626   3.395173   3.644759   4.202563
    21  F    3.520222   2.340782   2.763783   2.771989   3.499021
                   16         17         18         19         20
    16  H    0.000000
    17  C    4.006926   0.000000
    18  F    0.931906   4.185087   0.000000
    19  F    5.298079   1.328332   5.502348   0.000000
    20  F    4.032908   1.324208   3.914461   2.159428   0.000000
    21  F    3.928173   1.327278   4.150957   2.159669   2.162697
                   21
    21  F    0.000000
 Stoichiometry    C6HF11O3
 Framework group  C1[X(C6HF11O3)]
 Deg. of freedom    57
 Full point group                 C1      NOp   1
 Largest Abelian subgroup         C1      NOp   1
 Largest concise Abelian subgroup C1      NOp   1
                         Standard orientation:                         
 ---------------------------------------------------------------------
 Center     Atomic      Atomic             Coordinates (Angstroms)
 Number     Number       Type             X           Y           Z
 ---------------------------------------------------------------------
      1          6           0        3.216999    0.178616    0.153485
      2          9           0        4.243000   -0.650305    0.284240
      3          9           0        3.423187    0.955178   -0.901406
      4          9           0        3.131208    0.933004    1.239108
      5          6           0        1.923596   -0.664142   -0.032160
      6          9           0        2.079678   -1.429035   -1.118141
      7          9           0        1.778970   -1.443138    1.044341
      8          9           0        0.710704    0.949843   -1.287577
      9          9           0        0.414580    0.948016    0.847417
     10          6           0        0.622343    0.164293   -0.206952
     11          8           0       -0.398948   -0.745857   -0.349462
     12          6           0       -1.671701   -0.285201   -0.456391
     13          6           0       -2.083176    0.983581   -1.046044
     14          8           0       -2.173237   -0.057159   -1.843029
     15          8           0       -2.273061    2.149693   -1.053557
     16          1           0       -2.160401    2.844356    0.651337
     17          6           0       -2.623129   -1.127131    0.389369
     18          9           0       -2.113785    2.851945    1.582045
     19          9           0       -2.588624   -2.395673   -0.003157
     20          9           0       -2.257557   -1.059092    1.660296
     21          9           0       -3.864385   -0.673839    0.264967
 ---------------------------------------------------------------------
 Rotational constants (GHZ):           0.5600385           0.2164090           0.1960105
 Standard basis: 6-311+G(2d) (5D, 7F)
 There are   583 symmetry adapted cartesian basis functions of A   symmetry.
 There are   543 symmetry adapted basis functions of A   symmetry.
   543 basis functions,   845 primitive gaussians,   583 cartesian basis functions
    80 alpha electrons       80 beta electrons
       nuclear repulsion energy      1988.6493426905 Hartrees.
 NAtoms=   21 NActive=   21 NUniq=   21 SFac= 1.00D+00 NAtFMM=   60 NAOKFM=F Big=F
 Integral buffers will be    131072 words long.
 Raffenetti 2 integral format.
 Two-electron integral symmetry is turned on.
 Nuclear repulsion after empirical dispersion term =     1988.6358220820 Hartrees.
 One-electron integrals computed using PRISM.
 NBasis=   543 RedAO= T EigKep=  9.68D-06  NBF=   543
 NBsUse=   543 1.00D-06 EigRej= -1.00D+00 NBFU=   543
 ExpMin= 4.38D-02 ExpMax= 1.14D+04 ExpMxC= 1.72D+03 IAcc=3 IRadAn=         5 AccDes= 0.00D+00
 Harris functional with IExCor= 4639 and IRadAn=       5 diagonalized for initial guess.
 HarFok:  IExCor= 4639 AccDes= 0.00D+00 IRadAn=         5 IDoV= 1 UseB2=F ITyADJ=14
 ICtDFT=  3500011 ScaDFX=  1.000000  1.000000  1.000000  1.000000
 FoFCou: FMM=F IPFlag=           0 FMFlag=      100000 FMFlg1=           0
         NFxFlg=           0 DoJE=T BraDBF=F KetDBF=T FulRan=T
         wScrn=  0.000000 ICntrl=       500 IOpCl=  0 I1Cent=   200000004 NGrid=           0
         NMat0=    1 NMatS0=      1 NMatT0=    0 NMatD0=    1 NMtDS0=    0 NMtDT0=    0
 Petite list used in FoFCou.
 Requested convergence on RMS density matrix=1.00D-08 within 128 cycles.
 Requested convergence on MAX density matrix=1.00D-06.
 Requested convergence on             energy=1.00D-06.
 No special actions if energy rises.
 SCF Done:  E(RwB97XD) =  -1553.19952173     A.U. after   15 cycles
            NFock= 15  Conv=0.30D-08     -V/T= 2.0026

 **********************************************************************

            Population analysis using the SCF density.

 **********************************************************************

 Orbital symmetries:
       Occupied  (A) (A) (A) (A) (A) (A) (A) (A) (A) (A) (A) (A)
                 (A) (A) (A) (A) (A) (A) (A) (A) (A) (A) (A) (A)
                 (A) (A) (A) (A) (A) (A) (A) (A) (A) (A) (A) (A)
                 (A) (A) (A) (A) (A) (A) (A) (A) (A) (A) (A) (A)
                 (A) (A) (A) (A) (A) (A) (A) (A) (A) (A) (A) (A)
                 (A) (A) (A) (A) (A) (A) (A) (A) (A) (A) (A) (A)
                 (A) (A) (A) (A) (A) (A) (A) (A)
       Virtual   (A) (A) (A) (A) (A) (A) (A) (A) (A) (A) (A) (A)
                 (A) (A) (A) (A) (A) (A) (A) (A) (A) (A) (A) (A)
                 (A) (A) (A) (A) (A) (A) (A) (A) (A) (A) (A) (A)
                 (A) (A) (A) (A) (A) (A) (A) (A) (A) (A) (A) (A)
                 (A) (A) (A) (A) (A) (A) (A) (A) (A) (A) (A) (A)
                 (A) (A) (A) (A) (A) (A) (A) (A) (A) (A) (A) (A)
                 (A) (A) (A) (A) (A) (A) (A) (A) (A) (A) (A) (A)
                 (A) (A) (A) (A) (A) (A) (A) (A) (A) (A) (A) (A)
                 (A) (A) (A) (A) (A) (A) (A) (A) (A) (A) (A) (A)
                 (A) (A) (A) (A) (A) (A) (A) (A) (A) (A) (A) (A)
                 (A) (A) (A) (A) (A) (A) (A) (A) (A) (A) (A) (A)
                 (A) (A) (A) (A) (A) (A) (A) (A) (A) (A) (A) (A)
                 (A) (A) (A) (A) (A) (A) (A) (A) (A) (A) (A) (A)
                 (A) (A) (A) (A) (A) (A) (A) (A) (A) (A) (A) (A)
                 (A) (A) (A) (A) (A) (A) (A) (A) (A) (A) (A) (A)
                 (A) (A) (A) (A) (A) (A) (A) (A) (A) (A) (A) (A)
                 (A) (A) (A) (A) (A) (A) (A) (A) (A) (A) (A) (A)
                 (A) (A) (A) (A) (A) (A) (A) (A) (A) (A) (A) (A)
                 (A) (A) (A) (A) (A) (A) (A) (A) (A) (A) (A) (A)
                 (A) (A) (A) (A) (A) (A) (A) (A) (A) (A) (A) (A)
                 (A) (A) (A) (A) (A) (A) (A) (A) (A) (A) (A) (A)
                 (A) (A) (A) (A) (A) (A) (A) (A) (A) (A) (A) (A)
                 (A) (A) (A) (A) (A) (A) (A) (A) (A) (A) (A) (A)
                 (A) (A) (A) (A) (A) (A) (A) (A) (A) (A) (A) (A)
                 (A) (A) (A) (A) (A) (A) (A) (A) (A) (A) (A) (A)
                 (A) (A) (A) (A) (A) (A) (A) (A) (A) (A) (A) (A)
                 (A) (A) (A) (A) (A) (A) (A) (A) (A) (A) (A) (A)
                 (A) (A) (A) (A) (A) (A) (A) (A) (A) (A) (A) (A)
                 (A) (A) (A) (A) (A) (A) (A) (A) (A) (A) (A) (A)
                 (A) (A) (A) (A) (A) (A) (A) (A) (A) (A) (A) (A)
                 (A) (A) (A) (A) (A) (A) (A) (A) (A) (A) (A) (A)
                 (A) (A) (A) (A) (A) (A) (A) (A) (A) (A) (A) (A)
                 (A) (A) (A) (A) (A) (A) (A) (A) (A) (A) (A) (A)
                 (A) (A) (A) (A) (A) (A) (A) (A) (A) (A) (A) (A)
                 (A) (A) (A) (A) (A) (A) (A) (A) (A) (A) (A) (A)
                 (A) (A) (A) (A) (A) (A) (A) (A) (A) (A) (A) (A)
                 (A) (A) (A) (A) (A) (A) (A) (A) (A) (A) (A) (A)
                 (A) (A) (A) (A) (A) (A) (A) (A) (A) (A) (A) (A)
                 (A) (A) (A) (A) (A) (A) (A)
 The electronic state is 1-A.
 Alpha  occ. eigenvalues --  -24.89879 -24.89657 -24.89271 -24.89077 -24.89044
 Alpha  occ. eigenvalues --  -24.89002 -24.88994 -24.88973 -24.88957 -24.88831
 Alpha  occ. eigenvalues --  -24.78194 -19.38851 -19.38824 -19.33365 -10.59929
 Alpha  occ. eigenvalues --  -10.59477 -10.59019 -10.54143 -10.51059 -10.50930
 Alpha  occ. eigenvalues --   -1.48556  -1.48233  -1.46834  -1.44148  -1.39718
 Alpha  occ. eigenvalues --   -1.39014  -1.38799  -1.38725  -1.38650  -1.37950
 Alpha  occ. eigenvalues --   -1.34414  -1.28751  -1.27785  -1.23826  -0.97782
 Alpha  occ. eigenvalues --   -0.93539  -0.87941  -0.83126  -0.82461  -0.79387
 Alpha  occ. eigenvalues --   -0.78093  -0.75863  -0.75647  -0.75024  -0.74744
 Alpha  occ. eigenvalues --   -0.73985  -0.73703  -0.72813  -0.70804  -0.70260
 Alpha  occ. eigenvalues --   -0.66093  -0.64229  -0.63337  -0.62762  -0.62152
 Alpha  occ. eigenvalues --   -0.62001  -0.61456  -0.61217  -0.60981  -0.60699
 Alpha  occ. eigenvalues --   -0.60180  -0.59268  -0.59005  -0.58293  -0.57492
 Alpha  occ. eigenvalues --   -0.57118  -0.56566  -0.56346  -0.55836  -0.55489
 Alpha  occ. eigenvalues --   -0.55044  -0.54799  -0.54657  -0.54181  -0.49629
 Alpha  occ. eigenvalues --   -0.49234  -0.48903  -0.48751  -0.48217  -0.43669
 Alpha virt. eigenvalues --   -0.00177   0.04302   0.06655   0.07177   0.07640
 Alpha virt. eigenvalues --    0.08155   0.09100   0.09605   0.10374   0.11131
 Alpha virt. eigenvalues --    0.11322   0.11936   0.12358   0.12771   0.12945
 Alpha virt. eigenvalues --    0.13981   0.14700   0.15221   0.16253   0.16563
 Alpha virt. eigenvalues --    0.16826   0.17620   0.18526   0.18957   0.19800
 Alpha virt. eigenvalues --    0.19996   0.20696   0.21456   0.22206   0.22839
 Alpha virt. eigenvalues --    0.23368   0.23931   0.24771   0.25257   0.25865
 Alpha virt. eigenvalues --    0.26344   0.26729   0.27130   0.27445   0.28089
 Alpha virt. eigenvalues --    0.28483   0.29713   0.29839   0.30459   0.31004
 Alpha virt. eigenvalues --    0.31408   0.32090   0.32421   0.32668   0.33169
 Alpha virt. eigenvalues --    0.33572   0.34202   0.34523   0.34739   0.35301
 Alpha virt. eigenvalues --    0.35795   0.36304   0.36824   0.37232   0.37670
 Alpha virt. eigenvalues --    0.38637   0.39008   0.39434   0.39717   0.40060
 Alpha virt. eigenvalues --    0.40281   0.41147   0.41725   0.42206   0.42671
 Alpha virt. eigenvalues --    0.42899   0.43424   0.43813   0.44174   0.44707
 Alpha virt. eigenvalues --    0.44758   0.45271   0.45651   0.46002   0.46234
 Alpha virt. eigenvalues --    0.47074   0.47571   0.48180   0.48693   0.49364
 Alpha virt. eigenvalues --    0.50559   0.51397   0.51599   0.51914   0.53390
 Alpha virt. eigenvalues --    0.54519   0.54891   0.55641   0.55798   0.57828
 Alpha virt. eigenvalues --    0.58806   0.60769   0.61851   0.63360   0.63869
 Alpha virt. eigenvalues --    0.64727   0.65749   0.66106   0.67738   0.69437
 Alpha virt. eigenvalues --    0.69923   0.70552   0.72611   0.73198   0.73761
 Alpha virt. eigenvalues --    0.74306   0.75759   0.77333   0.78570   0.79639
 Alpha virt. eigenvalues --    0.80561   0.80873   0.81971   0.83227   0.85596
 Alpha virt. eigenvalues --    0.85855   0.87150   0.88058   0.91234   0.93919
 Alpha virt. eigenvalues --    0.96232   0.97889   1.00853   1.02342   1.03274
 Alpha virt. eigenvalues --    1.04921   1.06749   1.08342   1.09340   1.10524
 Alpha virt. eigenvalues --    1.11417   1.13287   1.13825   1.15221   1.16165
 Alpha virt. eigenvalues --    1.17866   1.19000   1.20046   1.21154   1.21955
 Alpha virt. eigenvalues --    1.23721   1.24347   1.26981   1.27504   1.28305
 Alpha virt. eigenvalues --    1.29170   1.31666   1.34004   1.34390   1.35070
 Alpha virt. eigenvalues --    1.36184   1.37210   1.38130   1.39499   1.39798
 Alpha virt. eigenvalues --    1.41709   1.42366   1.43024   1.43637   1.43834
 Alpha virt. eigenvalues --    1.44753   1.45361   1.46032   1.46404   1.46742
 Alpha virt. eigenvalues --    1.47611   1.48313   1.48663   1.48989   1.49555
 Alpha virt. eigenvalues --    1.50643   1.50880   1.51306   1.52329   1.52755
 Alpha virt. eigenvalues --    1.52867   1.53812   1.54654   1.55525   1.55622
 Alpha virt. eigenvalues --    1.56370   1.57707   1.58009   1.59195   1.59399
 Alpha virt. eigenvalues --    1.61254   1.62902   1.63169   1.63585   1.66232
 Alpha virt. eigenvalues --    1.68000   1.68670   1.70413   1.73514   1.75711
 Alpha virt. eigenvalues --    1.77449   1.79896   1.84034   1.87078   1.88182
 Alpha virt. eigenvalues --    1.91662   1.93798   1.98070   1.98436   2.00816
 Alpha virt. eigenvalues --    2.01997   2.02855   2.03399   2.04596   2.04741
 Alpha virt. eigenvalues --    2.05124   2.05518   2.06769   2.07171   2.08267
 Alpha virt. eigenvalues --    2.09070   2.09742   2.10923   2.11787   2.12127
 Alpha virt. eigenvalues --    2.12778   2.14252   2.14395   2.16166   2.17855
 Alpha virt. eigenvalues --    2.18008   2.19059   2.20007   2.20302   2.20434
 Alpha virt. eigenvalues --    2.20979   2.23157   2.24708   2.26240   2.27957
 Alpha virt. eigenvalues --    2.29232   2.31157   2.33917   2.34639   2.36491
 Alpha virt. eigenvalues --    2.37574   2.38324   2.39910   2.43193   2.44150
 Alpha virt. eigenvalues --    2.46262   2.47289   2.48245   2.50530   2.51989
 Alpha virt. eigenvalues --    2.54587   2.54863   2.56445   2.58046   2.61826
 Alpha virt. eigenvalues --    2.62647   2.65726   2.67541   2.69418   2.70464
 Alpha virt. eigenvalues --    2.71777   2.72232   2.73700   2.74796   2.75521
 Alpha virt. eigenvalues --    2.76951   2.80172   2.86013   2.88085   2.89203
 Alpha virt. eigenvalues --    2.96728   2.98708   3.00746   3.07430   3.09099
 Alpha virt. eigenvalues --    3.11924   3.18250   3.22594   3.23628   3.24815
 Alpha virt. eigenvalues --    3.26118   3.30343   3.31839   3.34719   3.36215
 Alpha virt. eigenvalues --    3.39331   3.40738   3.44222   3.45456   3.45873
 Alpha virt. eigenvalues --    3.48986   3.49767   3.50271   3.51370   3.51813
 Alpha virt. eigenvalues --    3.53467   3.55303   3.58688   3.59244   3.62283
 Alpha virt. eigenvalues --    3.64630   3.66725   3.67582   3.69840   3.70639
 Alpha virt. eigenvalues --    3.70965   3.72916   3.75765   3.79529   3.81137
 Alpha virt. eigenvalues --    3.82497   3.89181   3.92121   4.00354   4.05523
 Alpha virt. eigenvalues --    4.15340   4.28060   4.29941   4.30229   4.31575
 Alpha virt. eigenvalues --    4.32111   4.35377   4.36084   4.37949   4.48118
 Alpha virt. eigenvalues --    4.50739   5.16870   5.18197   5.24202   5.27084
 Alpha virt. eigenvalues --    5.38244   5.57679   5.78445   6.04891   6.20207
 Alpha virt. eigenvalues --    6.38974   6.41259   6.41654   6.42379   6.43272
 Alpha virt. eigenvalues --    6.43701   6.43790   6.45252   6.46333   6.46701
 Alpha virt. eigenvalues --    6.47489   6.47828   6.48480   6.49273   6.49857
 Alpha virt. eigenvalues --    6.50433   6.51250   6.51766   6.52664   6.53700
 Alpha virt. eigenvalues --    6.54117   6.55723   6.57897   6.63247   6.64093
 Alpha virt. eigenvalues --    6.68284   6.71960   6.79910   6.80507   6.86809
 Alpha virt. eigenvalues --    6.87611   6.88227   6.90542   6.91353   6.93824
 Alpha virt. eigenvalues --    6.95392   6.98351   7.03292   7.11301   7.14796
 Alpha virt. eigenvalues --    7.22861   7.23159   7.27057   7.27812   7.34237
 Alpha virt. eigenvalues --    7.41205   7.48676   7.62143   9.07411   9.07706
 Alpha virt. eigenvalues --    9.07755   9.08831   9.09802   9.09932   9.10758
 Alpha virt. eigenvalues --    9.12380   9.13008   9.14402   9.14997   9.16918
 Alpha virt. eigenvalues --    9.17882   9.18016   9.18826   9.19590   9.20129
 Alpha virt. eigenvalues --    9.20401   9.21687   9.22286   9.23083   9.23467
 Alpha virt. eigenvalues --    9.24653   9.25023   9.25664   9.27059   9.27673
 Alpha virt. eigenvalues --    9.28507   9.33293   9.33897   9.34620   9.36927
 Alpha virt. eigenvalues --    9.42452   9.43101   9.45028   9.48849   9.49318
 Alpha virt. eigenvalues --    9.52094   9.63102   9.65164   9.67502   9.68174
 Alpha virt. eigenvalues --    9.68905   9.72225   9.74721   9.75269   9.75879
 Alpha virt. eigenvalues --    9.76135   9.79502   9.79982   9.86505   9.87979
 Alpha virt. eigenvalues --    9.89881   9.90808   9.91108  23.94876  23.96077
 Alpha virt. eigenvalues --   24.03472  24.04346  24.11080  24.24988  50.08624
 Alpha virt. eigenvalues --   50.10132  50.13644  66.91536  66.93105  66.93944
 Alpha virt. eigenvalues --   66.94706  66.94842  66.95159  66.96391  66.97874
 Alpha virt. eigenvalues --   66.99721  67.02742  67.04244
          Condensed to atoms (all electrons):
               1          2          3          4          5          6
     1  C    4.915897   0.230936   0.249522   0.252558  -0.539088  -0.134551
     2  F    0.230936   9.120505  -0.005133  -0.005026  -0.191878   0.021714
     3  F    0.249522  -0.005133   9.055255   0.018293  -0.104346   0.018754
     4  F    0.252558  -0.005026   0.018293   9.047614  -0.101061  -0.001343
     5  C   -0.539088  -0.191878  -0.104346  -0.101061  12.118988   0.334045
     6  F   -0.134551   0.021714   0.018754  -0.001343   0.334045   9.062388
     7  F   -0.139134   0.022648  -0.001310   0.018553   0.323797   0.003817
     8  F   -0.016822   0.000080   0.004081  -0.005562  -0.117549   0.017523
     9  F    0.006421   0.000004  -0.005691   0.005397  -0.109338   0.000712
    10  C    0.239031   0.089189   0.046484   0.037181  -6.105931  -0.089192
    11  O    0.019131  -0.000579   0.001366   0.001955  -0.215773   0.041284
    12  C   -0.040044   0.000905   0.002715   0.007959   0.413729  -0.007726
    13  C   -0.079914   0.000512   0.001256  -0.001421  -0.645858  -0.000345
    14  O    0.001286  -0.000003   0.000000   0.000037  -0.012839  -0.000217
    15  O    0.002631  -0.000006   0.000017   0.000025   0.014678  -0.000020
    16  H   -0.000231   0.000001   0.000005   0.000006  -0.003503   0.000002
    17  C   -0.037952  -0.000202  -0.001108   0.001564   0.343619  -0.006983
    18  F    0.000050  -0.000001   0.000002   0.000024   0.019682   0.000002
    19  F   -0.000054  -0.000001  -0.000000   0.000003  -0.005765   0.000073
    20  F    0.000879   0.000000  -0.000004   0.000012  -0.010293  -0.000082
    21  F    0.000037   0.000000  -0.000000   0.000000   0.002960   0.000019
               7          8          9         10         11         12
     1  C   -0.139134  -0.016822   0.006421   0.239031   0.019131  -0.040044
     2  F    0.022648   0.000080   0.000004   0.089189  -0.000579   0.000905
     3  F   -0.001310   0.004081  -0.005691   0.046484   0.001366   0.002715
     4  F    0.018553  -0.005562   0.005397   0.037181   0.001955   0.007959
     5  C    0.323797  -0.117549  -0.109338  -6.105931  -0.215773   0.413729
     6  F    0.003817   0.017523   0.000712  -0.089192   0.041284  -0.007726
     7  F    9.070338   0.001662   0.018079  -0.074868   0.032119  -0.010843
     8  F    0.001662   9.057742   0.026010   0.341637  -0.017981  -0.130094
     9  F    0.018079   0.026010   9.034341   0.342148  -0.038927   0.012861
    10  C   -0.074868   0.341637   0.342148  12.405973   0.130646  -1.211329
    11  O    0.032119  -0.017981  -0.038927   0.130646   8.472554  -0.142772
    12  C   -0.010843  -0.130094   0.012861  -1.211329  -0.142772  11.844054
    13  C    0.000710   0.092036  -0.032925   0.650538   0.246870  -3.868611
    14  O    0.000128   0.008587   0.003688   0.075167  -0.003990   0.212502
    15  O    0.000014  -0.001920   0.001999  -0.006186  -0.021668   0.330372
    16  H    0.000005   0.000547   0.000801   0.007613   0.001981  -0.070780
    17  C    0.000256   0.007748  -0.001254  -1.235335  -0.127733  -1.795449
    18  F    0.000016  -0.002006   0.001711  -0.023637  -0.004015   0.145881
    19  F   -0.000108  -0.000197  -0.000301   0.017233   0.034052  -0.133236
    20  F   -0.000757   0.000148  -0.001964   0.034980   0.026713   0.088175
    21  F   -0.000015   0.000026  -0.000414   0.001499   0.011215   0.003459
              13         14         15         16         17         18
     1  C   -0.079914   0.001286   0.002631  -0.000231  -0.037952   0.000050
     2  F    0.000512  -0.000003  -0.000006   0.000001  -0.000202  -0.000001
     3  F    0.001256   0.000000   0.000017   0.000005  -0.001108   0.000002
     4  F   -0.001421   0.000037   0.000025   0.000006   0.001564   0.000024
     5  C   -0.645858  -0.012839   0.014678  -0.003503   0.343619   0.019682
     6  F   -0.000345  -0.000217  -0.000020   0.000002  -0.006983   0.000002
     7  F    0.000710   0.000128   0.000014   0.000005   0.000256   0.000016
     8  F    0.092036   0.008587  -0.001920   0.000547   0.007748  -0.002006
     9  F   -0.032925   0.003688   0.001999   0.000801  -0.001254   0.001711
    10  C    0.650538   0.075167  -0.006186   0.007613  -1.235335  -0.023637
    11  O    0.246870  -0.003990  -0.021668   0.001981  -0.127733  -0.004015
    12  C   -3.868611   0.212502   0.330372  -0.070780  -1.795449   0.145881
    13  C    9.375901   0.178053   0.054114   0.083821  -0.158890  -0.111720
    14  O    0.178053   8.031413  -0.062869  -0.002223  -0.158643   0.002278
    15  O    0.054114  -0.062869   8.015855  -0.024618  -0.003386   0.007663
    16  H    0.083821  -0.002223  -0.024618   0.424967  -0.010232   0.193128
    17  C   -0.158890  -0.158643  -0.003386  -0.010232   7.403136   0.003886
    18  F   -0.111720   0.002278   0.007663   0.193128   0.003886   9.173101
    19  F    0.033809   0.009811  -0.000202   0.000091   0.269756  -0.000067
    20  F   -0.041593   0.001692  -0.002271   0.000861   0.167600  -0.002577
    21  F    0.063135   0.010248  -0.007807   0.001178   0.113392  -0.002960
              19         20         21
     1  C   -0.000054   0.000879   0.000037
     2  F   -0.000001   0.000000   0.000000
     3  F   -0.000000  -0.000004  -0.000000
     4  F    0.000003   0.000012   0.000000
     5  C   -0.005765  -0.010293   0.002960
     6  F    0.000073  -0.000082   0.000019
     7  F   -0.000108  -0.000757  -0.000015
     8  F   -0.000197   0.000148   0.000026
     9  F   -0.000301  -0.001964  -0.000414
    10  C    0.017233   0.034980   0.001499
    11  O    0.034052   0.026713   0.011215
    12  C   -0.133236   0.088175   0.003459
    13  C    0.033809  -0.041593   0.063135
    14  O    0.009811   0.001692   0.010248
    15  O   -0.000202  -0.002271  -0.007807
    16  H    0.000091   0.000861   0.001178
    17  C    0.269756   0.167600   0.113392
    18  F   -0.000067  -0.002577  -0.002960
    19  F    9.025238   0.008360   0.012157
    20  F    0.008360   8.955537  -0.008191
    21  F    0.012157  -0.008191   9.100029
 Mulliken charges:
               1
     1  C    1.069412
     2  F   -0.283664
     3  F   -0.280159
     4  F   -0.276766
     5  C    0.591722
     6  F   -0.259874
     7  F   -0.265107
     8  F   -0.265696
     9  F   -0.263358
    10  C    0.327160
    11  O   -0.446446
    12  C    0.348272
    13  C    0.160520
    14  O   -0.294105
    15  O   -0.296415
    16  H    0.396582
    17  C    1.226210
    18  F   -0.400443
    19  F   -0.270651
    20  F   -0.217227
    21  F   -0.299966
 Sum of Mulliken charges =  -0.00000
 Mulliken charges with hydrogens summed into heavy atoms:
               1
     1  C    1.069412
     2  F   -0.283664
     3  F   -0.280159
     4  F   -0.276766
     5  C    0.591722
     6  F   -0.259874
     7  F   -0.265107
     8  F   -0.265696
     9  F   -0.263358
    10  C    0.327160
    11  O   -0.446446
    12  C    0.348272
    13  C    0.160520
    14  O   -0.294105
    15  O   -0.296415
    17  C    1.226210
    18  F   -0.003861
    19  F   -0.270651
    20  F   -0.217227
    21  F   -0.299966
 Electronic spatial extent (au):  <R**2>=           5258.3967
 Charge=              0.0000 electrons
 Dipole moment (field-independent basis, Debye):
    X=              0.7521    Y=             -1.6830    Z=             -1.7196  Tot=              2.5210
 Quadrupole moment (field-independent basis, Debye-Ang):
   XX=           -107.2573   YY=           -113.3912   ZZ=           -111.6125
   XY=              4.4942   XZ=              3.4412   YZ=             -4.8117
 Traceless Quadrupole moment (field-independent basis, Debye-Ang):
   XX=              3.4964   YY=             -2.6375   ZZ=             -0.8588
   XY=              4.4942   XZ=              3.4412   YZ=             -4.8117
 Octapole moment (field-independent basis, Debye-Ang**2):
  XXX=             19.0780  YYY=            -16.0170  ZZZ=             10.3684  XYY=             18.6060
  XXY=             -7.5144  XXZ=             -0.5987  XZZ=             15.2397  YZZ=            -13.2578
  YYZ=             -7.5415  XYZ=             10.0015
 Hexadecapole moment (field-independent basis, Debye-Ang**3):
 XXXX=          -3747.2225 YYYY=          -1124.6687 ZZZZ=           -654.7595 XXXY=             38.9729
 XXXZ=            -13.1024 YYYX=             48.5018 YYYZ=            -29.6318 ZZZX=            -18.8805
 ZZZY=             -9.6757 XXYY=           -833.4943 XXZZ=           -756.4830 YYZZ=           -325.9179
 XXYZ=            -17.8122 YYXZ=             14.9628 ZZXY=             32.1721
 N-N= 1.988635822082D+03 E-N=-7.660411639254D+03  KE= 1.549175595269D+03
 Calling FoFJK, ICntrl=      2127 FMM=F ISym2X=0 I1Cent= 0 IOpClX= 0 NMat=1 NMatS=1 NMatT=0.
 ***** Axes restored to original set *****
 -------------------------------------------------------------------
 Center     Atomic                   Forces (Hartrees/Bohr)
 Number     Number              X              Y              Z
 -------------------------------------------------------------------
      1        6           0.000015034    0.000010324    0.000028470
      2        9          -0.000005620   -0.000012883   -0.000005676
      3        9          -0.000009721    0.000004752   -0.000012914
      4        9          -0.000006159   -0.000012194   -0.000001773
      5        6          -0.000005401    0.000009087   -0.000009902
      6        9           0.000001381    0.000000490    0.000000764
      7        9           0.000016415   -0.000008064    0.000010265
      8        9          -0.000003367    0.000000374    0.000003339
      9        9          -0.000026378    0.000026133    0.000033599
     10        6           0.000015146   -0.000054947   -0.000052159
     11        8           0.000007794    0.000032448    0.000000533
     12        6           0.000007686    0.000027411    0.000029170
     13        6           0.000006812    0.000023578    0.000001840
     14        8          -0.000009828   -0.000008387   -0.000028383
     15        8           0.000004466   -0.000035873   -0.000007994
     16        1          -0.000009053    0.000003470    0.000005740
     17        6           0.000014730   -0.000008083    0.000010328
     18        9           0.000005471    0.000001710    0.000017506
     19        9          -0.000001917    0.000002754   -0.000000175
     20        9          -0.000006946   -0.000006076   -0.000018593
     21        9          -0.000010547    0.000003977   -0.000003987
 -------------------------------------------------------------------
 Cartesian Forces:  Max     0.000054947 RMS     0.000016979

 GradGradGradGradGradGradGradGradGradGradGradGradGradGradGradGradGradGrad
 Berny optimization.
 FormGI is forming the generalized inverse of G from B-inverse, IUseBI=4.
 Internal  Forces:  Max     0.000045905 RMS     0.000010947
 Search for a local minimum.
 Step number   1 out of a maximum of  103
 All quantities printed in internal units (Hartrees-Bohrs-Radians)
 Mixed Optimization -- En-DIIS/RFO-DIIS
 Second derivative matrix not updated -- first step.
 ITU=  0
     Eigenvalues ---    0.00230   0.00230   0.00230   0.00419   0.02017
     Eigenvalues ---    0.02250   0.02321   0.02973   0.04582   0.05107
     Eigenvalues ---    0.05636   0.06961   0.08300   0.08439   0.08515
     Eigenvalues ---    0.08786   0.08906   0.08916   0.13261   0.13638
     Eigenvalues ---    0.16000   0.16918   0.19280   0.21085   0.21580
     Eigenvalues ---    0.23422   0.25000   0.25000   0.25000   0.25000
     Eigenvalues ---    0.25000   0.25000   0.25000   0.25000   0.25000
     Eigenvalues ---    0.25000   0.25000   0.27242   0.27444   0.29775
     Eigenvalues ---    0.29937   0.35007   0.49953   0.51012   0.53401
     Eigenvalues ---    0.57453   0.57780   0.57965   0.59490   0.59901
     Eigenvalues ---    0.60153   0.60453   0.60587   0.60756   0.60895
     Eigenvalues ---    0.61983   1.14700
 RFO step:  Lambda=-8.33142600D-08 EMin= 2.30000000D-03
 Linear search not attempted -- first point.
 Iteration  1 RMS(Cart)=  0.00055099 RMS(Int)=  0.00000021
 Iteration  2 RMS(Cart)=  0.00000025 RMS(Int)=  0.00000000
 Variable       Old X    -DE/DX   Delta X   Delta X   Delta X     New X
                                 (Linear)    (Quad)   (Total)
    R1        2.50479   0.00000   0.00000   0.00000   0.00000   2.50479
    R2        2.50583   0.00001   0.00000   0.00002   0.00002   2.50586
    R3        2.50347  -0.00001   0.00000  -0.00001  -0.00001   2.50346
    R4        2.93826  -0.00001   0.00000  -0.00003  -0.00003   2.93823
    R5        2.52742  -0.00000   0.00000  -0.00000  -0.00000   2.52742
    R6        2.52588   0.00001   0.00000   0.00002   0.00002   2.52590
    R7        2.93371   0.00001   0.00000   0.00003   0.00003   2.93375
    R8        2.53015  -0.00000   0.00000  -0.00000  -0.00000   2.53015
    R9        2.51346   0.00005   0.00000   0.00008   0.00008   2.51354
   R10        2.59912  -0.00003   0.00000  -0.00006  -0.00006   2.59906
   R11        2.56581  -0.00000   0.00000  -0.00000  -0.00000   2.56581
   R12        2.75590  -0.00002   0.00000  -0.00004  -0.00004   2.75586
   R13        2.81962   0.00002   0.00000   0.00007   0.00007   2.81969
   R14        2.88415   0.00000   0.00000   0.00001   0.00001   2.88416
   R15        2.48298   0.00001   0.00000   0.00002   0.00002   2.48300
   R16        2.23270  -0.00003   0.00000  -0.00003  -0.00003   2.23268
   R17        3.48546   0.00002   0.00000   0.00034   0.00034   3.48580
   R18        1.76105   0.00001   0.00000   0.00002   0.00002   1.76107
   R19        2.51018  -0.00000   0.00000  -0.00001  -0.00001   2.51018
   R20        2.50239  -0.00002   0.00000  -0.00003  -0.00003   2.50236
   R21        2.50819   0.00001   0.00000   0.00002   0.00002   2.50821
    A1        1.90113   0.00002   0.00000   0.00005   0.00005   1.90117
    A2        1.90224   0.00001   0.00000   0.00006   0.00006   1.90230
    A3        1.89306  -0.00002   0.00000  -0.00008  -0.00008   1.89298
    A4        1.90551   0.00001   0.00000   0.00007   0.00007   1.90558
    A5        1.93027  -0.00002   0.00000  -0.00007  -0.00007   1.93020
    A6        1.93117  -0.00001   0.00000  -0.00002  -0.00002   1.93114
    A7        1.88583   0.00000   0.00000  -0.00004  -0.00004   1.88579
    A8        1.88571  -0.00002   0.00000  -0.00008  -0.00008   1.88563
    A9        2.00584   0.00000   0.00000   0.00001   0.00001   2.00586
   A10        1.91057  -0.00000   0.00000  -0.00001  -0.00001   1.91056
   A11        1.88765  -0.00001   0.00000  -0.00003  -0.00003   1.88762
   A12        1.88703   0.00002   0.00000   0.00014   0.00014   1.88717
   A13        1.92692  -0.00000   0.00000  -0.00000  -0.00000   1.92692
   A14        1.93490   0.00002   0.00000   0.00011   0.00011   1.93500
   A15        1.85557   0.00002   0.00000   0.00008   0.00008   1.85565
   A16        1.88010  -0.00000   0.00000  -0.00003  -0.00003   1.88008
   A17        1.93224  -0.00001   0.00000  -0.00005  -0.00005   1.93219
   A18        1.93485  -0.00002   0.00000  -0.00011  -0.00011   1.93474
   A19        2.07111   0.00001   0.00000   0.00004   0.00004   2.07115
   A20        2.20371   0.00000   0.00000   0.00006   0.00006   2.20376
   A21        2.02654  -0.00000   0.00000  -0.00009  -0.00009   2.02644
   A22        1.93216   0.00000   0.00000  -0.00001  -0.00001   1.93216
   A23        2.12716  -0.00001   0.00000  -0.00000  -0.00000   2.12716
   A24        1.97117  -0.00001   0.00000  -0.00008  -0.00008   1.97109
   A25        2.70594  -0.00001   0.00000  -0.00003  -0.00003   2.70592
   A26        2.44478  -0.00000   0.00000  -0.00001  -0.00001   2.44477
   A27        1.93481   0.00001   0.00000   0.00005   0.00005   1.93486
   A28        2.76326   0.00001   0.00000   0.00002   0.00002   2.76329
   A29        1.92502   0.00000   0.00000   0.00001   0.00001   1.92504
   A30        1.90860   0.00001   0.00000   0.00003   0.00003   1.90862
   A31        1.92053  -0.00000   0.00000  -0.00001  -0.00001   1.92052
   A32        1.90235  -0.00000   0.00000  -0.00002  -0.00002   1.90233
   A33        1.89942  -0.00000   0.00000  -0.00001  -0.00001   1.89941
   A34        1.90772  -0.00000   0.00000   0.00000   0.00000   1.90772
    D1       -1.02775   0.00001   0.00000   0.00118   0.00118  -1.02657
    D2        1.03779  -0.00000   0.00000   0.00110   0.00110   1.03890
    D3       -3.13702   0.00001   0.00000   0.00124   0.00124  -3.13578
    D4        1.05604   0.00000   0.00000   0.00114   0.00114   1.05719
    D5        3.12159  -0.00001   0.00000   0.00107   0.00107   3.12266
    D6       -1.05323   0.00001   0.00000   0.00120   0.00120  -1.05202
    D7       -3.11343   0.00000   0.00000   0.00116   0.00116  -3.11227
    D8       -1.04789  -0.00000   0.00000   0.00109   0.00109  -1.04680
    D9        1.06048   0.00001   0.00000   0.00122   0.00122   1.06170
   D10        1.04923   0.00000   0.00000  -0.00038  -0.00038   1.04885
   D11       -1.03288  -0.00000   0.00000  -0.00042  -0.00042  -1.03329
   D12       -3.13722   0.00000   0.00000  -0.00040  -0.00040  -3.13762
   D13       -1.05904   0.00000   0.00000  -0.00032  -0.00032  -1.05936
   D14       -3.14115  -0.00000   0.00000  -0.00036  -0.00036  -3.14150
   D15        1.03769   0.00000   0.00000  -0.00033  -0.00033   1.03736
   D16       -3.12630  -0.00000   0.00000  -0.00037  -0.00037  -3.12667
   D17        1.07478  -0.00001   0.00000  -0.00040  -0.00040   1.07437
   D18       -1.02957  -0.00000   0.00000  -0.00038  -0.00038  -1.02995
   D19        3.08732   0.00001   0.00000   0.00001   0.00001   3.08733
   D20       -1.10259   0.00001   0.00000   0.00003   0.00003  -1.10255
   D21        0.98294  -0.00002   0.00000  -0.00010  -0.00010   0.98284
   D22        0.53658  -0.00000   0.00000  -0.00003  -0.00003   0.53655
   D23        1.61348   0.00000   0.00000  -0.00007  -0.00007   1.61341
   D24       -2.39226  -0.00001   0.00000  -0.00027  -0.00027  -2.39253
   D25       -1.42261  -0.00001   0.00000  -0.00028  -0.00028  -1.42289
   D26        1.48424  -0.00000   0.00000  -0.00001  -0.00001   1.48423
   D27       -1.03525   0.00000   0.00000   0.00012   0.00012  -1.03513
   D28        1.05655   0.00000   0.00000   0.00012   0.00012   1.05667
   D29       -3.13099   0.00001   0.00000   0.00013   0.00013  -3.13086
   D30        2.30820  -0.00000   0.00000  -0.00012  -0.00012   2.30808
   D31       -1.88318  -0.00000   0.00000  -0.00012  -0.00012  -1.88330
   D32        0.21246  -0.00000   0.00000  -0.00011  -0.00011   0.21235
   D33        1.27095  -0.00000   0.00000  -0.00009  -0.00009   1.27086
   D34       -2.92044  -0.00000   0.00000  -0.00009  -0.00009  -2.92052
   D35       -0.82479  -0.00000   0.00000  -0.00008  -0.00008  -0.82487
   D36       -0.20513  -0.00000   0.00000   0.00002   0.00002  -0.20512
   D37        2.96260  -0.00000   0.00000  -0.00014  -0.00014   2.96245
   D38       -0.21517   0.00000   0.00000   0.00132   0.00132  -0.21386
         Item               Value     Threshold  Converged?
 Maximum Force            0.000046     0.000450     YES
 RMS     Force            0.000011     0.000300     YES
 Maximum Displacement     0.002917     0.001800     NO 
 RMS     Displacement     0.000551     0.001200     YES
 Predicted change in Energy=-4.165663D-08
 GradGradGradGradGradGradGradGradGradGradGradGradGradGradGradGradGradGrad

                          Input orientation:                          
 ---------------------------------------------------------------------
 Center     Atomic      Atomic             Coordinates (Angstroms)
 Number     Number       Type             X           Y           Z
 ---------------------------------------------------------------------
      1          6           0        3.217151    0.178567    0.153270
      2          9           0        4.243265   -0.650426    0.282696
      3          9           0        3.422349    0.955691   -0.901413
      4          9           0        3.132159    0.932325    1.239385
      5          6           0        1.923679   -0.664182   -0.031789
      6          9           0        2.079560   -1.429507   -1.117494
      7          9           0        1.779344   -1.442766    1.045062
      8          9           0        0.710855    0.949649   -1.287488
      9          9           0        0.414472    0.948160    0.847481
     10          6           0        0.622427    0.164250   -0.206762
     11          8           0       -0.398914   -0.745803   -0.349222
     12          6           0       -1.671635   -0.285093   -0.456297
     13          6           0       -2.083072    0.983613   -1.046087
     14          8           0       -2.172922   -0.057151   -1.843078
     15          8           0       -2.273074    2.149691   -1.053650
     16          1           0       -2.160968    2.844518    0.651406
     17          6           0       -2.623220   -1.127112    0.389209
     18          9           0       -2.114165    2.852163    1.582117
     19          9           0       -2.588591   -2.395632   -0.003367
     20          9           0       -2.257964   -1.059148    1.660215
     21          9           0       -3.864472   -0.673855    0.264534
 ---------------------------------------------------------------------
                    Distance matrix (angstroms):
                    1          2          3          4          5
     1  C    0.000000
     2  F    1.325478   0.000000
     3  F    1.326041   2.157691   0.000000
     4  F    1.324771   2.157525   2.160503   0.000000
     5  C    1.554845   2.340848   2.371971   2.371738   0.000000
     6  F    2.344110   2.692418   2.745713   3.498727   1.337451
     7  F    2.343353   2.698131   3.498690   2.740242   1.336650
     8  F    2.991968   4.183735   2.738849   3.499728   2.377430
     9  F    2.988179   4.187376   3.479370   2.745844   2.377072
    10  C    2.619622   3.743492   2.991402   2.996670   1.552473
    11  O    3.766017   4.685963   4.219248   4.219984   2.345606
    12  C    4.948412   5.972071   5.261782   5.237736   3.640083
    13  C    5.493534   6.667705   5.507393   5.694264   4.449504
    14  O    5.752726   6.785157   5.763649   6.214864   4.520111
    15  O    5.956891   7.217282   5.821225   5.996376   5.155077
    16  H    6.023255   7.305121   6.095273   5.658568   5.427898
    17  C    5.989190   6.883836   6.523242   6.171585   4.589754
    18  F    6.132915   7.373842   6.357478   5.597067   5.592277
    19  F    6.352769   7.057041   6.940408   6.733997   4.833147
    20  F    5.812031   6.658122   6.548853   5.761639   4.528247
    21  F    7.133610   8.107792   7.557290   7.244515   5.795740
                    6          7          8          9         10
     6  F    0.000000
     7  F    2.183336   0.000000
     8  F    2.750025   3.508006   0.000000
     9  F    3.505274   2.760152   2.155444   0.000000
    10  C    2.343657   2.342652   1.338895   1.330109   0.000000
    11  O    2.683380   2.678543   2.233045   2.227825   1.375365
    12  C    3.977227   3.937453   2.809222   2.751834   2.350936
    13  C    4.812042   5.017815   2.804542   3.134419   2.948821
    14  O    4.526968   5.087405   3.104593   3.865795   3.246618
    15  O    5.635615   5.807962   3.224688   3.504408   3.611527
    16  H    6.275219   5.836251   3.949330   3.204295   3.958229
    17  C    4.947499   4.462325   4.270867   3.707336   3.543589
    18  F    6.573274   5.821877   4.453642   3.249450   4.232482
    19  F    4.895540   4.591951   4.870956   4.574196   4.111569
    20  F    5.164005   4.101881   4.640916   3.439729   3.644030
    21  F    6.149190   5.749183   5.096877   4.613038   4.588770
                   11         12         13         14         15
    11  O    0.000000
    12  C    1.357769   0.000000
    13  C    2.512545   1.458337   0.000000
    14  O    2.419287   1.492116   1.313948   0.000000
    15  O    3.520309   2.578126   1.181481   2.345929   0.000000
    16  H    4.122680   3.355729   2.520023   3.826523   1.844605
    17  C    2.374492   1.526234   2.609021   2.516087   3.597483
    18  F    4.429166   3.767405   3.224888   4.494388   2.732395
    19  F    2.763374   2.345278   3.572409   3.004298   4.675747
    20  F    2.755374   2.328639   3.395220   3.644762   4.202610
    21  F    3.520222   2.340783   2.763750   2.771948   3.498939
                   16         17         18         19         20
    16  H    0.000000
    17  C    4.007027   0.000000
    18  F    0.931918   4.185307   0.000000
    19  F    5.298184   1.328329   5.502562   0.000000
    20  F    4.033077   1.324193   3.914732   2.159400   0.000000
    21  F    3.928173   1.327288   4.151193   2.159666   2.162694
                   21
    21  F    0.000000
 Stoichiometry    C6HF11O3
 Framework group  C1[X(C6HF11O3)]
 Deg. of freedom    57
 Full point group                 C1      NOp   1
 Largest Abelian subgroup         C1      NOp   1
 Largest concise Abelian subgroup C1      NOp   1
                         Standard orientation:                         
 ---------------------------------------------------------------------
 Center     Atomic      Atomic             Coordinates (Angstroms)
 Number     Number       Type             X           Y           Z
 ---------------------------------------------------------------------
      1          6           0        3.217124    0.178716    0.153279
      2          9           0        4.243274   -0.650233    0.282705
      3          9           0        3.422289    0.955849   -0.901405
      4          9           0        3.132099    0.932471    1.239393
      5          6           0        1.923689   -0.664090   -0.031781
      6          9           0        2.079604   -1.429407   -1.117485
      7          9           0        1.779387   -1.442679    1.045071
      8          9           0        0.710795    0.949689   -1.287479
      9          9           0        0.414412    0.948187    0.847490
     10          6           0        0.622401    0.164286   -0.206754
     11          8           0       -0.398901   -0.745811   -0.349214
     12          6           0       -1.671642   -0.285157   -0.456288
     13          6           0       -2.083134    0.983531   -1.046078
     14          8           0       -2.172939   -0.057237   -1.843070
     15          8           0       -2.273186    2.149601   -1.053641
     16          1           0       -2.161111    2.844433    0.651415
     17          6           0       -2.623190   -1.127217    0.389218
     18          9           0       -2.114308    2.852080    1.582126
     19          9           0       -2.588506   -2.395736   -0.003358
     20          9           0       -2.257937   -1.059237    1.660223
     21          9           0       -3.864462   -0.674015    0.264542
 ---------------------------------------------------------------------
 Rotational constants (GHZ):           0.5600299           0.2163974           0.1959985
 Standard basis: 6-311+G(2d) (5D, 7F)
 There are   583 symmetry adapted cartesian basis functions of A   symmetry.
 There are   543 symmetry adapted basis functions of A   symmetry.
   543 basis functions,   845 primitive gaussians,   583 cartesian basis functions
    80 alpha electrons       80 beta electrons
       nuclear repulsion energy      1988.6255850206 Hartrees.
 NAtoms=   21 NActive=   21 NUniq=   21 SFac= 1.00D+00 NAtFMM=   60 NAOKFM=F Big=F
 Integral buffers will be    131072 words long.
 Raffenetti 2 integral format.
 Two-electron integral symmetry is turned on.
 Nuclear repulsion after empirical dispersion term =     1988.6120651955 Hartrees.
 One-electron integrals computed using PRISM.
 NBasis=   543 RedAO= T EigKep=  9.68D-06  NBF=   543
 NBsUse=   543 1.00D-06 EigRej= -1.00D+00 NBFU=   543
 Initial guess from the checkpoint file:  "frd_903_0HFAts_prod.chk"
 B after Tr=    -0.000000    0.000000   -0.000000
         Rot=    1.000000    0.000000   -0.000002   -0.000019 Ang=   0.00 deg.
 Requested convergence on RMS density matrix=1.00D-08 within 128 cycles.
 Requested convergence on MAX density matrix=1.00D-06.
 Requested convergence on             energy=1.00D-06.
 No special actions if energy rises.
 SCF Done:  E(RwB97XD) =  -1553.19952175     A.U. after    8 cycles
            NFock=  8  Conv=0.22D-08     -V/T= 2.0026
 Calling FoFJK, ICntrl=      2127 FMM=F ISym2X=0 I1Cent= 0 IOpClX= 0 NMat=1 NMatS=1 NMatT=0.
 ***** Axes restored to original set *****
 -------------------------------------------------------------------
 Center     Atomic                   Forces (Hartrees/Bohr)
 Number     Number              X              Y              Z
 -------------------------------------------------------------------
      1        6          -0.000009441   -0.000002139    0.000011130
      2        9           0.000000640    0.000006801    0.000001551
      3        9           0.000018764    0.000006929    0.000003782
      4        9          -0.000003457   -0.000007420   -0.000012149
      5        6          -0.000000847    0.000005116    0.000004159
      6        9          -0.000007031    0.000003412   -0.000003794
      7        9          -0.000004887   -0.000004366   -0.000001938
      8        9          -0.000002014    0.000000747    0.000002046
      9        9           0.000014488    0.000015735    0.000024056
     10        6          -0.000015589   -0.000026695   -0.000033722
     11        8           0.000005491    0.000005120    0.000011615
     12        6           0.000010729   -0.000009416    0.000008004
     13        6           0.000004203    0.000013908   -0.000011663
     14        8          -0.000010743    0.000002665   -0.000011790
     15        8           0.000002088   -0.000012041   -0.000001612
     16        1          -0.000003258    0.000002880    0.000020232
     17        6           0.000007282   -0.000006759    0.000007212
     18        9           0.000001716    0.000000193   -0.000002474
     19        9          -0.000000161    0.000002790   -0.000005039
     20        9          -0.000002332   -0.000001643   -0.000006413
     21        9          -0.000005640    0.000004182   -0.000003193
 -------------------------------------------------------------------
 Cartesian Forces:  Max     0.000033722 RMS     0.000009880

 GradGradGradGradGradGradGradGradGradGradGradGradGradGradGradGradGradGrad
 Berny optimization.
 Using GEDIIS/GDIIS optimizer.
 FormGI is forming the generalized inverse of G from B-inverse, IUseBI=4.
 Internal  Forces:  Max     0.000032848 RMS     0.000007602
 Search for a local minimum.
 Step number   2 out of a maximum of  103
 All quantities printed in internal units (Hartrees-Bohrs-Radians)
 Mixed Optimization -- En-DIIS/RFO-DIIS
 Swapping is turned off.
 Update second derivatives using D2CorX and points    1    2
 DE= -1.78D-08 DEPred=-4.17D-08 R= 4.27D-01
 Trust test= 4.27D-01 RLast= 3.95D-03 DXMaxT set to 3.00D-01
 ITU=  0  0
     Eigenvalues ---    0.00192   0.00230   0.00415   0.00441   0.02017
     Eigenvalues ---    0.02184   0.02295   0.02935   0.04541   0.05132
     Eigenvalues ---    0.05287   0.06958   0.08312   0.08475   0.08513
     Eigenvalues ---    0.08780   0.08906   0.08973   0.13357   0.13741
     Eigenvalues ---    0.15863   0.17325   0.18815   0.21524   0.21725
     Eigenvalues ---    0.23409   0.24250   0.25000   0.25000   0.25000
     Eigenvalues ---    0.25000   0.25000   0.25000   0.25000   0.25000
     Eigenvalues ---    0.25000   0.26920   0.27345   0.29201   0.29764
     Eigenvalues ---    0.30596   0.34558   0.48954   0.50895   0.53425
     Eigenvalues ---    0.56991   0.57473   0.57781   0.58139   0.59899
     Eigenvalues ---    0.60117   0.60409   0.60602   0.60731   0.60933
     Eigenvalues ---    0.62152   1.14075
 En-DIIS/RFO-DIIS/Sim-DIIS IScMMF=       -3 using points:     2    1
 RFO step:  Lambda=-5.48493280D-08.
 DidBck=T Rises=F RFO-DIIS coefs:    0.74407    0.25593
 Iteration  1 RMS(Cart)=  0.00055694 RMS(Int)=  0.00000012
 Iteration  2 RMS(Cart)=  0.00000017 RMS(Int)=  0.00000000
 Variable       Old X    -DE/DX   Delta X   Delta X   Delta X     New X
                                 (Linear)    (Quad)   (Total)
    R1        2.50479  -0.00000  -0.00000  -0.00000  -0.00000   2.50479
    R2        2.50586   0.00000  -0.00001   0.00002   0.00001   2.50587
    R3        2.50346  -0.00001   0.00000  -0.00003  -0.00002   2.50343
    R4        2.93823   0.00001   0.00001  -0.00000   0.00001   2.93824
    R5        2.52742  -0.00000   0.00000  -0.00000  -0.00000   2.52741
    R6        2.52590   0.00000  -0.00001   0.00002   0.00001   2.52591
    R7        2.93375  -0.00001  -0.00001  -0.00000  -0.00001   2.93374
    R8        2.53015  -0.00000   0.00000  -0.00000  -0.00000   2.53014
    R9        2.51354   0.00003  -0.00002   0.00008   0.00006   2.51361
   R10        2.59906  -0.00001   0.00002  -0.00005  -0.00004   2.59903
   R11        2.56581  -0.00000   0.00000  -0.00001  -0.00001   2.56581
   R12        2.75586   0.00000   0.00001  -0.00003  -0.00002   2.75584
   R13        2.81969   0.00001  -0.00002   0.00008   0.00006   2.81975
   R14        2.88416   0.00000  -0.00000   0.00001   0.00001   2.88417
   R15        2.48300   0.00000  -0.00000   0.00001   0.00001   2.48301
   R16        2.23268  -0.00001   0.00001  -0.00002  -0.00002   2.23266
   R17        3.48580   0.00001  -0.00009   0.00039   0.00031   3.48610
   R18        1.76107  -0.00001  -0.00001   0.00001   0.00001   1.76108
   R19        2.51018  -0.00000   0.00000  -0.00001  -0.00000   2.51017
   R20        2.50236  -0.00000   0.00001  -0.00003  -0.00002   2.50234
   R21        2.50821   0.00001  -0.00000   0.00002   0.00002   2.50823
    A1        1.90117  -0.00002  -0.00001   0.00000  -0.00001   1.90116
    A2        1.90230  -0.00000  -0.00002   0.00003   0.00001   1.90231
    A3        1.89298   0.00001   0.00002  -0.00004  -0.00002   1.89296
    A4        1.90558  -0.00001  -0.00002   0.00002   0.00001   1.90558
    A5        1.93020   0.00003   0.00002   0.00004   0.00006   1.93026
    A6        1.93114  -0.00001   0.00001  -0.00005  -0.00005   1.93110
    A7        1.88579   0.00001   0.00001   0.00003   0.00004   1.88584
    A8        1.88563  -0.00000   0.00002  -0.00008  -0.00006   1.88557
    A9        2.00586   0.00000  -0.00000   0.00002   0.00002   2.00587
   A10        1.91056   0.00000   0.00000  -0.00001  -0.00001   1.91055
   A11        1.88762  -0.00001   0.00001  -0.00002  -0.00001   1.88761
   A12        1.88717  -0.00001  -0.00004   0.00005   0.00001   1.88718
   A13        1.92692   0.00001   0.00000   0.00003   0.00003   1.92694
   A14        1.93500  -0.00002  -0.00003  -0.00001  -0.00003   1.93497
   A15        1.85565  -0.00001  -0.00002   0.00004   0.00002   1.85567
   A16        1.88008   0.00000   0.00001  -0.00002  -0.00001   1.88007
   A17        1.93219   0.00000   0.00001  -0.00000   0.00001   1.93220
   A18        1.93474   0.00001   0.00003  -0.00004  -0.00001   1.93473
   A19        2.07115   0.00000  -0.00001   0.00003   0.00002   2.07117
   A20        2.20376  -0.00000  -0.00001   0.00003   0.00002   2.20378
   A21        2.02644   0.00000   0.00002  -0.00004  -0.00001   2.02643
   A22        1.93216   0.00000   0.00000  -0.00000   0.00000   1.93216
   A23        2.12716   0.00000   0.00000  -0.00000  -0.00000   2.12716
   A24        1.97109  -0.00000   0.00002  -0.00006  -0.00004   1.97105
   A25        2.70592  -0.00001   0.00001  -0.00004  -0.00003   2.70589
   A26        2.44477   0.00000   0.00000   0.00000   0.00000   2.44477
   A27        1.93486   0.00001  -0.00001   0.00006   0.00005   1.93491
   A28        2.76329   0.00000  -0.00001   0.00003   0.00002   2.76331
   A29        1.92504  -0.00000  -0.00000   0.00000   0.00000   1.92504
   A30        1.90862   0.00000  -0.00001   0.00003   0.00002   1.90864
   A31        1.92052  -0.00000   0.00000  -0.00002  -0.00002   1.92050
   A32        1.90233   0.00000   0.00000  -0.00000   0.00000   1.90233
   A33        1.89941   0.00000   0.00000  -0.00001  -0.00000   1.89941
   A34        1.90772   0.00000  -0.00000   0.00000   0.00000   1.90772
    D1       -1.02657  -0.00001  -0.00030   0.00007  -0.00023  -1.02680
    D2        1.03890  -0.00000  -0.00028   0.00004  -0.00024   1.03865
    D3       -3.13578  -0.00001  -0.00032   0.00006  -0.00025  -3.13604
    D4        1.05719  -0.00000  -0.00029   0.00007  -0.00022   1.05697
    D5        3.12266   0.00000  -0.00027   0.00004  -0.00023   3.12242
    D6       -1.05202  -0.00000  -0.00031   0.00006  -0.00024  -1.05227
    D7       -3.11227  -0.00000  -0.00030   0.00009  -0.00020  -3.11248
    D8       -1.04680   0.00000  -0.00028   0.00006  -0.00022  -1.04702
    D9        1.06170  -0.00000  -0.00031   0.00008  -0.00023   1.06147
   D10        1.04885   0.00001   0.00010   0.00085   0.00095   1.04980
   D11       -1.03329   0.00001   0.00011   0.00086   0.00097  -1.03232
   D12       -3.13762   0.00001   0.00010   0.00089   0.00099  -3.13662
   D13       -1.05936  -0.00000   0.00008   0.00081   0.00090  -1.05846
   D14       -3.14150   0.00000   0.00009   0.00082   0.00091  -3.14059
   D15        1.03736   0.00000   0.00009   0.00085   0.00093   1.03829
   D16       -3.12667   0.00000   0.00010   0.00081   0.00090  -3.12577
   D17        1.07437   0.00001   0.00010   0.00082   0.00092   1.07529
   D18       -1.02995   0.00001   0.00010   0.00084   0.00094  -1.02901
   D19        3.08733  -0.00001  -0.00000  -0.00003  -0.00003   3.08730
   D20       -1.10255  -0.00000  -0.00001   0.00002   0.00002  -1.10254
   D21        0.98284   0.00001   0.00003  -0.00003  -0.00000   0.98284
   D22        0.53655  -0.00000   0.00001  -0.00008  -0.00007   0.53648
   D23        1.61341  -0.00000   0.00002  -0.00010  -0.00008   1.61333
   D24       -2.39253  -0.00000   0.00007  -0.00022  -0.00015  -2.39268
   D25       -1.42289   0.00000   0.00007  -0.00021  -0.00014  -1.42303
   D26        1.48423  -0.00000   0.00000  -0.00005  -0.00005   1.48418
   D27       -1.03513  -0.00000  -0.00003  -0.00000  -0.00003  -1.03517
   D28        1.05667  -0.00000  -0.00003   0.00001  -0.00002   1.05665
   D29       -3.13086  -0.00000  -0.00003   0.00002  -0.00002  -3.13088
   D30        2.30808  -0.00000   0.00003  -0.00014  -0.00011   2.30797
   D31       -1.88330  -0.00000   0.00003  -0.00013  -0.00010  -1.88340
   D32        0.21235  -0.00000   0.00003  -0.00013  -0.00010   0.21225
   D33        1.27086   0.00000   0.00002  -0.00011  -0.00009   1.27077
   D34       -2.92052   0.00000   0.00002  -0.00010  -0.00007  -2.92060
   D35       -0.82487   0.00000   0.00002  -0.00009  -0.00007  -0.82494
   D36       -0.20512   0.00000  -0.00000   0.00002   0.00002  -0.20510
   D37        2.96245  -0.00001   0.00004  -0.00017  -0.00013   2.96232
   D38       -0.21386   0.00000  -0.00034   0.00130   0.00097  -0.21289
         Item               Value     Threshold  Converged?
 Maximum Force            0.000033     0.000450     YES
 RMS     Force            0.000008     0.000300     YES
 Maximum Displacement     0.001766     0.001800     YES
 RMS     Displacement     0.000557     0.001200     YES
 Predicted change in Energy=-2.742476D-08
 Optimization completed.
    -- Stationary point found.
                           ----------------------------
                           !   Optimized Parameters   !
                           ! (Angstroms and Degrees)  !
 --------------------------                            --------------------------
 ! Name  Definition              Value          Derivative Info.                !
 --------------------------------------------------------------------------------
 ! R1    R(1,2)                  1.3255         -DE/DX =    0.0                 !
 ! R2    R(1,3)                  1.326          -DE/DX =    0.0                 !
 ! R3    R(1,4)                  1.3248         -DE/DX =    0.0                 !
 ! R4    R(1,5)                  1.5548         -DE/DX =    0.0                 !
 ! R5    R(5,6)                  1.3375         -DE/DX =    0.0                 !
 ! R6    R(5,7)                  1.3367         -DE/DX =    0.0                 !
 ! R7    R(5,10)                 1.5525         -DE/DX =    0.0                 !
 ! R8    R(8,10)                 1.3389         -DE/DX =    0.0                 !
 ! R9    R(9,10)                 1.3301         -DE/DX =    0.0                 !
 ! R10   R(10,11)                1.3754         -DE/DX =    0.0                 !
 ! R11   R(11,12)                1.3578         -DE/DX =    0.0                 !
 ! R12   R(12,13)                1.4583         -DE/DX =    0.0                 !
 ! R13   R(12,14)                1.4921         -DE/DX =    0.0                 !
 ! R14   R(12,17)                1.5262         -DE/DX =    0.0                 !
 ! R15   R(13,14)                1.3139         -DE/DX =    0.0                 !
 ! R16   R(13,15)                1.1815         -DE/DX =    0.0                 !
 ! R17   R(15,16)                1.8446         -DE/DX =    0.0                 !
 ! R18   R(16,18)                0.9319         -DE/DX =    0.0                 !
 ! R19   R(17,19)                1.3283         -DE/DX =    0.0                 !
 ! R20   R(17,20)                1.3242         -DE/DX =    0.0                 !
 ! R21   R(17,21)                1.3273         -DE/DX =    0.0                 !
 ! A1    A(2,1,3)              108.9292         -DE/DX =    0.0                 !
 ! A2    A(2,1,4)              108.9937         -DE/DX =    0.0                 !
 ! A3    A(2,1,5)              108.4599         -DE/DX =    0.0                 !
 ! A4    A(3,1,4)              109.1815         -DE/DX =    0.0                 !
 ! A5    A(3,1,5)              110.5922         -DE/DX =    0.0                 !
 ! A6    A(4,1,5)              110.6464         -DE/DX =    0.0                 !
 ! A7    A(1,5,6)              108.0481         -DE/DX =    0.0                 !
 ! A8    A(1,5,7)              108.0388         -DE/DX =    0.0                 !
 ! A9    A(1,5,10)             114.9271         -DE/DX =    0.0                 !
 ! A10   A(6,5,7)              109.4669         -DE/DX =    0.0                 !
 ! A11   A(6,5,10)             108.1527         -DE/DX =    0.0                 !
 ! A12   A(7,5,10)             108.1266         -DE/DX =    0.0                 !
 ! A13   A(5,10,8)             110.4041         -DE/DX =    0.0                 !
 ! A14   A(5,10,9)             110.8675         -DE/DX =    0.0                 !
 ! A15   A(5,10,11)            106.3209         -DE/DX =    0.0                 !
 ! A16   A(8,10,9)             107.7206         -DE/DX =    0.0                 !
 ! A17   A(8,10,11)            110.7065         -DE/DX =    0.0                 !
 ! A18   A(9,10,11)            110.8525         -DE/DX =    0.0                 !
 ! A19   A(10,11,12)           118.6679         -DE/DX =    0.0                 !
 ! A20   A(11,12,13)           126.2664         -DE/DX =    0.0                 !
 ! A21   A(11,12,14)           116.1066         -DE/DX =    0.0                 !
 ! A22   A(11,12,17)           110.7043         -DE/DX =    0.0                 !
 ! A23   A(13,12,17)           121.8773         -DE/DX =    0.0                 !
 ! A24   A(14,12,17)           112.9352         -DE/DX =    0.0                 !
 ! A25   A(12,13,15)           155.0377         -DE/DX =    0.0                 !
 ! A26   A(14,13,15)           140.0748         -DE/DX =    0.0                 !
 ! A27   A(13,15,16)           110.8596         -DE/DX =    0.0                 !
 ! A28   A(15,16,18)           158.3248         -DE/DX =    0.0                 !
 ! A29   A(12,17,19)           110.2965         -DE/DX =    0.0                 !
 ! A30   A(12,17,20)           109.356          -DE/DX =    0.0                 !
 ! A31   A(12,17,21)           110.0375         -DE/DX =    0.0                 !
 ! A32   A(19,17,20)           108.9955         -DE/DX =    0.0                 !
 ! A33   A(19,17,21)           108.8283         -DE/DX =    0.0                 !
 ! A34   A(20,17,21)           109.3043         -DE/DX =    0.0                 !
 ! D1    D(2,1,5,6)            -58.8183         -DE/DX =    0.0                 !
 ! D2    D(2,1,5,7)             59.5245         -DE/DX =    0.0                 !
 ! D3    D(2,1,5,10)          -179.667          -DE/DX =    0.0                 !
 ! D4    D(3,1,5,6)             60.5723         -DE/DX =    0.0                 !
 ! D5    D(3,1,5,7)            178.915          -DE/DX =    0.0                 !
 ! D6    D(3,1,5,10)           -60.2765         -DE/DX =    0.0                 !
 ! D7    D(4,1,5,6)           -178.3201         -DE/DX =    0.0                 !
 ! D8    D(4,1,5,7)            -59.9773         -DE/DX =    0.0                 !
 ! D9    D(4,1,5,10)            60.8312         -DE/DX =    0.0                 !
 ! D10   D(1,5,10,8)            60.0946         -DE/DX =    0.0                 !
 ! D11   D(1,5,10,9)           -59.2033         -DE/DX =    0.0                 !
 ! D12   D(1,5,10,11)         -179.7721         -DE/DX =    0.0                 !
 ! D13   D(6,5,10,8)           -60.6969         -DE/DX =    0.0                 !
 ! D14   D(6,5,10,9)          -179.9948         -DE/DX =    0.0                 !
 ! D15   D(6,5,10,11)           59.4364         -DE/DX =    0.0                 !
 ! D16   D(7,5,10,8)          -179.1451         -DE/DX =    0.0                 !
 ! D17   D(7,5,10,9)            61.557          -DE/DX =    0.0                 !
 ! D18   D(7,5,10,11)          -59.0118         -DE/DX =    0.0                 !
 ! D19   D(5,10,11,12)         176.8911         -DE/DX =    0.0                 !
 ! D20   D(8,10,11,12)         -63.1717         -DE/DX =    0.0                 !
 ! D21   D(9,10,11,12)          56.3126         -DE/DX =    0.0                 !
 ! D22   D(10,11,12,13)         30.7423         -DE/DX =    0.0                 !
 ! D23   D(10,11,12,14)         92.4416         -DE/DX =    0.0                 !
 ! D24   D(10,11,12,17)       -137.0819         -DE/DX =    0.0                 !
 ! D25   D(11,12,13,15)        -81.5257         -DE/DX =    0.0                 !
 ! D26   D(17,12,13,15)         85.04           -DE/DX =    0.0                 !
 ! D27   D(11,12,17,19)        -59.3087         -DE/DX =    0.0                 !
 ! D28   D(11,12,17,20)         60.5429         -DE/DX =    0.0                 !
 ! D29   D(11,12,17,21)       -179.3852         -DE/DX =    0.0                 !
 ! D30   D(13,12,17,19)        132.2431         -DE/DX =    0.0                 !
 ! D31   D(13,12,17,20)       -107.9053         -DE/DX =    0.0                 !
 ! D32   D(13,12,17,21)         12.1667         -DE/DX =    0.0                 !
 ! D33   D(14,12,17,19)         72.8148         -DE/DX =    0.0                 !
 ! D34   D(14,12,17,20)       -167.3336         -DE/DX =    0.0                 !
 ! D35   D(14,12,17,21)        -47.2616         -DE/DX =    0.0                 !
 ! D36   D(12,13,15,16)        -11.7524         -DE/DX =    0.0                 !
 ! D37   D(14,13,15,16)        169.7361         -DE/DX =    0.0                 !
 ! D38   D(13,15,16,18)        -12.253          -DE/DX =    0.0                 !
 --------------------------------------------------------------------------------
 GradGradGradGradGradGradGradGradGradGradGradGradGradGradGradGradGradGrad

                          Input orientation:                          
 ---------------------------------------------------------------------
 Center     Atomic      Atomic             Coordinates (Angstroms)
 Number     Number       Type             X           Y           Z
 ---------------------------------------------------------------------
      1          6           0        3.217151    0.178567    0.153270
      2          9           0        4.243265   -0.650426    0.282696
      3          9           0        3.422349    0.955691   -0.901413
      4          9           0        3.132159    0.932325    1.239385
      5          6           0        1.923679   -0.664182   -0.031789
      6          9           0        2.079560   -1.429507   -1.117494
      7          9           0        1.779344   -1.442766    1.045062
      8          9           0        0.710855    0.949649   -1.287488
      9          9           0        0.414472    0.948160    0.847481
     10          6           0        0.622427    0.164250   -0.206762
     11          8           0       -0.398914   -0.745803   -0.349222
     12          6           0       -1.671635   -0.285093   -0.456297
     13          6           0       -2.083072    0.983613   -1.046087
     14          8           0       -2.172922   -0.057151   -1.843078
     15          8           0       -2.273074    2.149691   -1.053650
     16          1           0       -2.160968    2.844518    0.651406
     17          6           0       -2.623220   -1.127112    0.389209
     18          9           0       -2.114165    2.852163    1.582117
     19          9           0       -2.588591   -2.395632   -0.003367
     20          9           0       -2.257964   -1.059148    1.660215
     21          9           0       -3.864472   -0.673855    0.264534
 ---------------------------------------------------------------------
                    Distance matrix (angstroms):
                    1          2          3          4          5
     1  C    0.000000
     2  F    1.325478   0.000000
     3  F    1.326041   2.157691   0.000000
     4  F    1.324771   2.157525   2.160503   0.000000
     5  C    1.554845   2.340848   2.371971   2.371738   0.000000
     6  F    2.344110   2.692418   2.745713   3.498727   1.337451
     7  F    2.343353   2.698131   3.498690   2.740242   1.336650
     8  F    2.991968   4.183735   2.738849   3.499728   2.377430
     9  F    2.988179   4.187376   3.479370   2.745844   2.377072
    10  C    2.619622   3.743492   2.991402   2.996670   1.552473
    11  O    3.766017   4.685963   4.219248   4.219984   2.345606
    12  C    4.948412   5.972071   5.261782   5.237736   3.640083
    13  C    5.493534   6.667705   5.507393   5.694264   4.449504
    14  O    5.752726   6.785157   5.763649   6.214864   4.520111
    15  O    5.956891   7.217282   5.821225   5.996376   5.155077
    16  H    6.023255   7.305121   6.095273   5.658568   5.427898
    17  C    5.989190   6.883836   6.523242   6.171585   4.589754
    18  F    6.132915   7.373842   6.357478   5.597067   5.592277
    19  F    6.352769   7.057041   6.940408   6.733997   4.833147
    20  F    5.812031   6.658122   6.548853   5.761639   4.528247
    21  F    7.133610   8.107792   7.557290   7.244515   5.795740
                    6          7          8          9         10
     6  F    0.000000
     7  F    2.183336   0.000000
     8  F    2.750025   3.508006   0.000000
     9  F    3.505274   2.760152   2.155444   0.000000
    10  C    2.343657   2.342652   1.338895   1.330109   0.000000
    11  O    2.683380   2.678543   2.233045   2.227825   1.375365
    12  C    3.977227   3.937453   2.809222   2.751834   2.350936
    13  C    4.812042   5.017815   2.804542   3.134419   2.948821
    14  O    4.526968   5.087405   3.104593   3.865795   3.246618
    15  O    5.635615   5.807962   3.224688   3.504408   3.611527
    16  H    6.275219   5.836251   3.949330   3.204295   3.958229
    17  C    4.947499   4.462325   4.270867   3.707336   3.543589
    18  F    6.573274   5.821877   4.453642   3.249450   4.232482
    19  F    4.895540   4.591951   4.870956   4.574196   4.111569
    20  F    5.164005   4.101881   4.640916   3.439729   3.644030
    21  F    6.149190   5.749183   5.096877   4.613038   4.588770
                   11         12         13         14         15
    11  O    0.000000
    12  C    1.357769   0.000000
    13  C    2.512545   1.458337   0.000000
    14  O    2.419287   1.492116   1.313948   0.000000
    15  O    3.520309   2.578126   1.181481   2.345929   0.000000
    16  H    4.122680   3.355729   2.520023   3.826523   1.844605
    17  C    2.374492   1.526234   2.609021   2.516087   3.597483
    18  F    4.429166   3.767405   3.224888   4.494388   2.732395
    19  F    2.763374   2.345278   3.572409   3.004298   4.675747
    20  F    2.755374   2.328639   3.395220   3.644762   4.202610
    21  F    3.520222   2.340783   2.763750   2.771948   3.498939
                   16         17         18         19         20
    16  H    0.000000
    17  C    4.007027   0.000000
    18  F    0.931918   4.185307   0.000000
    19  F    5.298184   1.328329   5.502562   0.000000
    20  F    4.033077   1.324193   3.914732   2.159400   0.000000
    21  F    3.928173   1.327288   4.151193   2.159666   2.162694
                   21
    21  F    0.000000
 Stoichiometry    C6HF11O3
 Framework group  C1[X(C6HF11O3)]
 Deg. of freedom    57
 Full point group                 C1      NOp   1
 Largest Abelian subgroup         C1      NOp   1
 Largest concise Abelian subgroup C1      NOp   1
                         Standard orientation:                         
 ---------------------------------------------------------------------
 Center     Atomic      Atomic             Coordinates (Angstroms)
 Number     Number       Type             X           Y           Z
 ---------------------------------------------------------------------
      1          6           0        3.217124    0.178716    0.153279
      2          9           0        4.243274   -0.650233    0.282705
      3          9           0        3.422289    0.955849   -0.901405
      4          9           0        3.132099    0.932471    1.239393
      5          6           0        1.923689   -0.664090   -0.031781
      6          9           0        2.079604   -1.429407   -1.117485
      7          9           0        1.779387   -1.442679    1.045071
      8          9           0        0.710795    0.949689   -1.287479
      9          9           0        0.414412    0.948187    0.847490
     10          6           0        0.622401    0.164286   -0.206754
     11          8           0       -0.398901   -0.745811   -0.349214
     12          6           0       -1.671642   -0.285157   -0.456288
     13          6           0       -2.083134    0.983531   -1.046078
     14          8           0       -2.172939   -0.057237   -1.843070
     15          8           0       -2.273186    2.149601   -1.053641
     16          1           0       -2.161111    2.844433    0.651415
     17          6           0       -2.623190   -1.127217    0.389218
     18          9           0       -2.114308    2.852080    1.582126
     19          9           0       -2.588506   -2.395736   -0.003358
     20          9           0       -2.257937   -1.059237    1.660223
     21          9           0       -3.864462   -0.674015    0.264542
 ---------------------------------------------------------------------
 Rotational constants (GHZ):           0.5600299           0.2163974           0.1959985

 **********************************************************************

            Population analysis using the SCF density.

 **********************************************************************

 Orbital symmetries:
       Occupied  (A) (A) (A) (A) (A) (A) (A) (A) (A) (A) (A) (A)
                 (A) (A) (A) (A) (A) (A) (A) (A) (A) (A) (A) (A)
                 (A) (A) (A) (A) (A) (A) (A) (A) (A) (A) (A) (A)
                 (A) (A) (A) (A) (A) (A) (A) (A) (A) (A) (A) (A)
                 (A) (A) (A) (A) (A) (A) (A) (A) (A) (A) (A) (A)
                 (A) (A) (A) (A) (A) (A) (A) (A) (A) (A) (A) (A)
                 (A) (A) (A) (A) (A) (A) (A) (A)
       Virtual   (A) (A) (A) (A) (A) (A) (A) (A) (A) (A) (A) (A)
                 (A) (A) (A) (A) (A) (A) (A) (A) (A) (A) (A) (A)
                 (A) (A) (A) (A) (A) (A) (A) (A) (A) (A) (A) (A)
                 (A) (A) (A) (A) (A) (A) (A) (A) (A) (A) (A) (A)
                 (A) (A) (A) (A) (A) (A) (A) (A) (A) (A) (A) (A)
                 (A) (A) (A) (A) (A) (A) (A) (A) (A) (A) (A) (A)
                 (A) (A) (A) (A) (A) (A) (A) (A) (A) (A) (A) (A)
                 (A) (A) (A) (A) (A) (A) (A) (A) (A) (A) (A) (A)
                 (A) (A) (A) (A) (A) (A) (A) (A) (A) (A) (A) (A)
                 (A) (A) (A) (A) (A) (A) (A) (A) (A) (A) (A) (A)
                 (A) (A) (A) (A) (A) (A) (A) (A) (A) (A) (A) (A)
                 (A) (A) (A) (A) (A) (A) (A) (A) (A) (A) (A) (A)
                 (A) (A) (A) (A) (A) (A) (A) (A) (A) (A) (A) (A)
                 (A) (A) (A) (A) (A) (A) (A) (A) (A) (A) (A) (A)
                 (A) (A) (A) (A) (A) (A) (A) (A) (A) (A) (A) (A)
                 (A) (A) (A) (A) (A) (A) (A) (A) (A) (A) (A) (A)
                 (A) (A) (A) (A) (A) (A) (A) (A) (A) (A) (A) (A)
                 (A) (A) (A) (A) (A) (A) (A) (A) (A) (A) (A) (A)
                 (A) (A) (A) (A) (A) (A) (A) (A) (A) (A) (A) (A)
                 (A) (A) (A) (A) (A) (A) (A) (A) (A) (A) (A) (A)
                 (A) (A) (A) (A) (A) (A) (A) (A) (A) (A) (A) (A)
                 (A) (A) (A) (A) (A) (A) (A) (A) (A) (A) (A) (A)
                 (A) (A) (A) (A) (A) (A) (A) (A) (A) (A) (A) (A)
                 (A) (A) (A) (A) (A) (A) (A) (A) (A) (A) (A) (A)
                 (A) (A) (A) (A) (A) (A) (A) (A) (A) (A) (A) (A)
                 (A) (A) (A) (A) (A) (A) (A) (A) (A) (A) (A) (A)
                 (A) (A) (A) (A) (A) (A) (A) (A) (A) (A) (A) (A)
                 (A) (A) (A) (A) (A) (A) (A) (A) (A) (A) (A) (A)
                 (A) (A) (A) (A) (A) (A) (A) (A) (A) (A) (A) (A)
                 (A) (A) (A) (A) (A) (A) (A) (A) (A) (A) (A) (A)
                 (A) (A) (A) (A) (A) (A) (A) (A) (A) (A) (A) (A)
                 (A) (A) (A) (A) (A) (A) (A) (A) (A) (A) (A) (A)
                 (A) (A) (A) (A) (A) (A) (A) (A) (A) (A) (A) (A)
                 (A) (A) (A) (A) (A) (A) (A) (A) (A) (A) (A) (A)
                 (A) (A) (A) (A) (A) (A) (A) (A) (A) (A) (A) (A)
                 (A) (A) (A) (A) (A) (A) (A) (A) (A) (A) (A) (A)
                 (A) (A) (A) (A) (A) (A) (A) (A) (A) (A) (A) (A)
                 (A) (A) (A) (A) (A) (A) (A) (A) (A) (A) (A) (A)
                 (A) (A) (A) (A) (A) (A) (A)
 The electronic state is 1-A.
 Alpha  occ. eigenvalues --  -24.89878 -24.89656 -24.89271 -24.89077 -24.89044
 Alpha  occ. eigenvalues --  -24.89002 -24.88995 -24.88973 -24.88958 -24.88832
 Alpha  occ. eigenvalues --  -24.78195 -19.38850 -19.38823 -19.33365 -10.59929
 Alpha  occ. eigenvalues --  -10.59477 -10.59019 -10.54143 -10.51058 -10.50930
 Alpha  occ. eigenvalues --   -1.48556  -1.48233  -1.46833  -1.44148  -1.39717
 Alpha  occ. eigenvalues --   -1.39014  -1.38800  -1.38726  -1.38650  -1.37950
 Alpha  occ. eigenvalues --   -1.34413  -1.28751  -1.27785  -1.23826  -0.97782
 Alpha  occ. eigenvalues --   -0.93539  -0.87941  -0.83127  -0.82461  -0.79386
 Alpha  occ. eigenvalues --   -0.78093  -0.75863  -0.75647  -0.75024  -0.74744
 Alpha  occ. eigenvalues --   -0.73985  -0.73703  -0.72813  -0.70804  -0.70258
 Alpha  occ. eigenvalues --   -0.66092  -0.64228  -0.63336  -0.62762  -0.62152
 Alpha  occ. eigenvalues --   -0.62001  -0.61455  -0.61217  -0.60981  -0.60700
 Alpha  occ. eigenvalues --   -0.60180  -0.59267  -0.59004  -0.58293  -0.57492
 Alpha  occ. eigenvalues --   -0.57118  -0.56566  -0.56346  -0.55837  -0.55489
 Alpha  occ. eigenvalues --   -0.55044  -0.54800  -0.54657  -0.54181  -0.49628
 Alpha  occ. eigenvalues --   -0.49234  -0.48903  -0.48751  -0.48217  -0.43669
 Alpha virt. eigenvalues --   -0.00177   0.04302   0.06655   0.07177   0.07639
 Alpha virt. eigenvalues --    0.08155   0.09099   0.09605   0.10374   0.11131
 Alpha virt. eigenvalues --    0.11322   0.11936   0.12358   0.12770   0.12944
 Alpha virt. eigenvalues --    0.13982   0.14701   0.15221   0.16254   0.16563
 Alpha virt. eigenvalues --    0.16826   0.17620   0.18526   0.18956   0.19800
 Alpha virt. eigenvalues --    0.19996   0.20697   0.21457   0.22207   0.22839
 Alpha virt. eigenvalues --    0.23368   0.23932   0.24771   0.25256   0.25863
 Alpha virt. eigenvalues --    0.26344   0.26729   0.27131   0.27444   0.28089
 Alpha virt. eigenvalues --    0.28483   0.29711   0.29841   0.30460   0.31003
 Alpha virt. eigenvalues --    0.31408   0.32091   0.32421   0.32668   0.33170
 Alpha virt. eigenvalues --    0.33571   0.34200   0.34523   0.34738   0.35301
 Alpha virt. eigenvalues --    0.35795   0.36305   0.36823   0.37232   0.37671
 Alpha virt. eigenvalues --    0.38635   0.39009   0.39434   0.39716   0.40060
 Alpha virt. eigenvalues --    0.40281   0.41146   0.41725   0.42206   0.42671
 Alpha virt. eigenvalues --    0.42899   0.43425   0.43813   0.44173   0.44708
 Alpha virt. eigenvalues --    0.44759   0.45271   0.45651   0.46001   0.46235
 Alpha virt. eigenvalues --    0.47074   0.47572   0.48179   0.48694   0.49362
 Alpha virt. eigenvalues --    0.50558   0.51400   0.51601   0.51913   0.53386
 Alpha virt. eigenvalues --    0.54519   0.54891   0.55639   0.55798   0.57827
 Alpha virt. eigenvalues --    0.58806   0.60764   0.61851   0.63361   0.63869
 Alpha virt. eigenvalues --    0.64732   0.65754   0.66107   0.67737   0.69436
 Alpha virt. eigenvalues --    0.69924   0.70550   0.72611   0.73197   0.73760
 Alpha virt. eigenvalues --    0.74305   0.75760   0.77332   0.78571   0.79638
 Alpha virt. eigenvalues --    0.80558   0.80875   0.81971   0.83227   0.85596
 Alpha virt. eigenvalues --    0.85857   0.87148   0.88058   0.91235   0.93918
 Alpha virt. eigenvalues --    0.96233   0.97890   1.00852   1.02343   1.03273
 Alpha virt. eigenvalues --    1.04921   1.06754   1.08338   1.09339   1.10527
 Alpha virt. eigenvalues --    1.11416   1.13289   1.13827   1.15220   1.16164
 Alpha virt. eigenvalues --    1.17868   1.18997   1.20046   1.21155   1.21956
 Alpha virt. eigenvalues --    1.23718   1.24348   1.26980   1.27503   1.28302
 Alpha virt. eigenvalues --    1.29169   1.31665   1.34005   1.34388   1.35067
 Alpha virt. eigenvalues --    1.36183   1.37212   1.38127   1.39498   1.39797
 Alpha virt. eigenvalues --    1.41707   1.42366   1.43025   1.43635   1.43834
 Alpha virt. eigenvalues --    1.44755   1.45360   1.46031   1.46405   1.46745
 Alpha virt. eigenvalues --    1.47615   1.48310   1.48664   1.48989   1.49558
 Alpha virt. eigenvalues --    1.50643   1.50881   1.51308   1.52331   1.52758
 Alpha virt. eigenvalues --    1.52862   1.53807   1.54647   1.55523   1.55623
 Alpha virt. eigenvalues --    1.56373   1.57708   1.58007   1.59196   1.59405
 Alpha virt. eigenvalues --    1.61249   1.62898   1.63170   1.63586   1.66227
 Alpha virt. eigenvalues --    1.68003   1.68671   1.70412   1.73514   1.75713
 Alpha virt. eigenvalues --    1.77449   1.79896   1.84034   1.87075   1.88182
 Alpha virt. eigenvalues --    1.91663   1.93800   1.98075   1.98432   2.00819
 Alpha virt. eigenvalues --    2.01996   2.02857   2.03396   2.04595   2.04739
 Alpha virt. eigenvalues --    2.05121   2.05521   2.06768   2.07170   2.08267
 Alpha virt. eigenvalues --    2.09069   2.09737   2.10923   2.11785   2.12129
 Alpha virt. eigenvalues --    2.12779   2.14248   2.14397   2.16166   2.17851
 Alpha virt. eigenvalues --    2.18007   2.19058   2.20006   2.20299   2.20432
 Alpha virt. eigenvalues --    2.20976   2.23155   2.24707   2.26240   2.27959
 Alpha virt. eigenvalues --    2.29232   2.31157   2.33915   2.34632   2.36493
 Alpha virt. eigenvalues --    2.37573   2.38320   2.39909   2.43194   2.44150
 Alpha virt. eigenvalues --    2.46259   2.47288   2.48247   2.50531   2.51996
 Alpha virt. eigenvalues --    2.54593   2.54865   2.56441   2.58044   2.61826
 Alpha virt. eigenvalues --    2.62641   2.65728   2.67540   2.69416   2.70466
 Alpha virt. eigenvalues --    2.71777   2.72230   2.73697   2.74797   2.75522
 Alpha virt. eigenvalues --    2.76953   2.80169   2.86013   2.88084   2.89201
 Alpha virt. eigenvalues --    2.96729   2.98705   3.00747   3.07433   3.09097
 Alpha virt. eigenvalues --    3.11920   3.18251   3.22589   3.23634   3.24813
 Alpha virt. eigenvalues --    3.26116   3.30342   3.31842   3.34721   3.36213
 Alpha virt. eigenvalues --    3.39332   3.40740   3.44219   3.45454   3.45870
 Alpha virt. eigenvalues --    3.48986   3.49770   3.50275   3.51370   3.51814
 Alpha virt. eigenvalues --    3.53467   3.55298   3.58690   3.59242   3.62286
 Alpha virt. eigenvalues --    3.64628   3.66727   3.67581   3.69837   3.70639
 Alpha virt. eigenvalues --    3.70966   3.72922   3.75759   3.79530   3.81140
 Alpha virt. eigenvalues --    3.82490   3.89183   3.92124   4.00353   4.05523
 Alpha virt. eigenvalues --    4.15339   4.28064   4.29941   4.30230   4.31575
 Alpha virt. eigenvalues --    4.32110   4.35376   4.36083   4.37950   4.48119
 Alpha virt. eigenvalues --    4.50738   5.16872   5.18196   5.24201   5.27084
 Alpha virt. eigenvalues --    5.38244   5.57680   5.78447   6.04892   6.20208
 Alpha virt. eigenvalues --    6.38974   6.41257   6.41652   6.42378   6.43271
 Alpha virt. eigenvalues --    6.43701   6.43791   6.45252   6.46333   6.46702
 Alpha virt. eigenvalues --    6.47488   6.47831   6.48480   6.49270   6.49855
 Alpha virt. eigenvalues --    6.50432   6.51248   6.51762   6.52667   6.53691
 Alpha virt. eigenvalues --    6.54122   6.55725   6.57891   6.63247   6.64092
 Alpha virt. eigenvalues --    6.68286   6.71959   6.79910   6.80501   6.86808
 Alpha virt. eigenvalues --    6.87610   6.88228   6.90544   6.91351   6.93826
 Alpha virt. eigenvalues --    6.95390   6.98351   7.03294   7.11299   7.14799
 Alpha virt. eigenvalues --    7.22860   7.23162   7.27058   7.27812   7.34239
 Alpha virt. eigenvalues --    7.41206   7.48679   7.62143   9.07411   9.07705
 Alpha virt. eigenvalues --    9.07754   9.08831   9.09800   9.09932   9.10758
 Alpha virt. eigenvalues --    9.12379   9.13006   9.14403   9.14996   9.16917
 Alpha virt. eigenvalues --    9.17881   9.18015   9.18824   9.19590   9.20130
 Alpha virt. eigenvalues --    9.20397   9.21687   9.22287   9.23081   9.23467
 Alpha virt. eigenvalues --    9.24653   9.25024   9.25662   9.27058   9.27673
 Alpha virt. eigenvalues --    9.28505   9.33293   9.33897   9.34623   9.36927
 Alpha virt. eigenvalues --    9.42453   9.43098   9.45028   9.48847   9.49317
 Alpha virt. eigenvalues --    9.52091   9.63106   9.65162   9.67502   9.68175
 Alpha virt. eigenvalues --    9.68904   9.72224   9.74722   9.75269   9.75878
 Alpha virt. eigenvalues --    9.76133   9.79501   9.79984   9.86503   9.87979
 Alpha virt. eigenvalues --    9.89878   9.90808   9.91107  23.94875  23.96077
 Alpha virt. eigenvalues --   24.03473  24.04344  24.11079  24.24990  50.08626
 Alpha virt. eigenvalues --   50.10134  50.13644  66.91536  66.93105  66.93944
 Alpha virt. eigenvalues --   66.94707  66.94840  66.95157  66.96390  66.97874
 Alpha virt. eigenvalues --   66.99720  67.02742  67.04243
          Condensed to atoms (all electrons):
               1          2          3          4          5          6
     1  C    4.916007   0.230956   0.249466   0.252593  -0.538985  -0.134567
     2  F    0.230956   9.120495  -0.005088  -0.005053  -0.191917   0.021733
     3  F    0.249466  -0.005088   9.055317   0.018296  -0.104547   0.018754
     4  F    0.252593  -0.005053   0.018296   9.047552  -0.100869  -0.001351
     5  C   -0.538985  -0.191917  -0.104547  -0.100869  12.117249   0.333891
     6  F   -0.134567   0.021733   0.018754  -0.001351   0.333891   9.062352
     7  F   -0.139187   0.022648  -0.001305   0.018567   0.324040   0.003812
     8  F   -0.016786   0.000078   0.004052  -0.005565  -0.117350   0.017513
     9  F    0.006391   0.000005  -0.005687   0.005422  -0.109410   0.000712
    10  C    0.238725   0.089194   0.046684   0.036983  -6.104451  -0.089036
    11  O    0.019160  -0.000580   0.001368   0.001954  -0.215763   0.041280
    12  C   -0.039933   0.000902   0.002716   0.007956   0.413780  -0.007711
    13  C   -0.079997   0.000513   0.001257  -0.001417  -0.645895  -0.000342
    14  O    0.001282  -0.000003   0.000000   0.000037  -0.012837  -0.000219
    15  O    0.002627  -0.000006   0.000017   0.000024   0.014692  -0.000019
    16  H   -0.000230   0.000001   0.000005   0.000006  -0.003507   0.000002
    17  C   -0.037869  -0.000202  -0.001111   0.001562   0.343572  -0.006989
    18  F    0.000049  -0.000001   0.000002   0.000024   0.019673   0.000002
    19  F   -0.000055  -0.000001  -0.000000   0.000003  -0.005762   0.000073
    20  F    0.000880   0.000000  -0.000004   0.000012  -0.010279  -0.000082
    21  F    0.000037   0.000000  -0.000000   0.000000   0.002959   0.000019
               7          8          9         10         11         12
     1  C   -0.139187  -0.016786   0.006391   0.238725   0.019160  -0.039933
     2  F    0.022648   0.000078   0.000005   0.089194  -0.000580   0.000902
     3  F   -0.001305   0.004052  -0.005687   0.046684   0.001368   0.002716
     4  F    0.018567  -0.005565   0.005422   0.036983   0.001954   0.007956
     5  C    0.324040  -0.117350  -0.109410  -6.104451  -0.215763   0.413780
     6  F    0.003812   0.017513   0.000712  -0.089036   0.041280  -0.007711
     7  F    9.070375   0.001665   0.018071  -0.075064   0.032102  -0.010812
     8  F    0.001665   9.057714   0.026012   0.341527  -0.017997  -0.130150
     9  F    0.018071   0.026012   9.034370   0.342183  -0.038971   0.012954
    10  C   -0.075064   0.341527   0.342183  12.404839   0.130793  -1.211489
    11  O    0.032102  -0.017997  -0.038971   0.130793   8.472595  -0.142735
    12  C   -0.010812  -0.130150   0.012954  -1.211489  -0.142735  11.845220
    13  C    0.000704   0.092030  -0.032927   0.650678   0.246784  -3.869431
    14  O    0.000127   0.008588   0.003687   0.075192  -0.003997   0.212576
    15  O    0.000014  -0.001927   0.002000  -0.006215  -0.021658   0.330460
    16  H    0.000005   0.000548   0.000801   0.007609   0.001980  -0.070753
    17  C    0.000247   0.007756  -0.001270  -1.235328  -0.127891  -1.795898
    18  F    0.000016  -0.002004   0.001709  -0.023637  -0.004013   0.145905
    19  F   -0.000107  -0.000197  -0.000301   0.017219   0.034043  -0.133190
    20  F   -0.000756   0.000148  -0.001966   0.034980   0.026713   0.088134
    21  F   -0.000015   0.000026  -0.000413   0.001498   0.011218   0.003389
              13         14         15         16         17         18
     1  C   -0.079997   0.001282   0.002627  -0.000230  -0.037869   0.000049
     2  F    0.000513  -0.000003  -0.000006   0.000001  -0.000202  -0.000001
     3  F    0.001257   0.000000   0.000017   0.000005  -0.001111   0.000002
     4  F   -0.001417   0.000037   0.000024   0.000006   0.001562   0.000024
     5  C   -0.645895  -0.012837   0.014692  -0.003507   0.343572   0.019673
     6  F   -0.000342  -0.000219  -0.000019   0.000002  -0.006989   0.000002
     7  F    0.000704   0.000127   0.000014   0.000005   0.000247   0.000016
     8  F    0.092030   0.008588  -0.001927   0.000548   0.007756  -0.002004
     9  F   -0.032927   0.003687   0.002000   0.000801  -0.001270   0.001709
    10  C    0.650678   0.075192  -0.006215   0.007609  -1.235328  -0.023637
    11  O    0.246784  -0.003997  -0.021658   0.001980  -0.127891  -0.004013
    12  C   -3.869431   0.212576   0.330460  -0.070753  -1.795898   0.145905
    13  C    9.377247   0.178000   0.054041   0.083804  -0.159206  -0.111740
    14  O    0.178000   8.031413  -0.062876  -0.002223  -0.158671   0.002278
    15  O    0.054041  -0.062876   8.015866  -0.024599  -0.003398   0.007662
    16  H    0.083804  -0.002223  -0.024599   0.424929  -0.010233   0.193156
    17  C   -0.159206  -0.158671  -0.003398  -0.010233   7.403919   0.003871
    18  F   -0.111740   0.002278   0.007662   0.193156   0.003871   9.173089
    19  F    0.033795   0.009814  -0.000202   0.000091   0.269769  -0.000067
    20  F   -0.041581   0.001689  -0.002271   0.000861   0.167597  -0.002576
    21  F    0.063145   0.010249  -0.007806   0.001177   0.113431  -0.002959
              19         20         21
     1  C   -0.000055   0.000880   0.000037
     2  F   -0.000001   0.000000   0.000000
     3  F   -0.000000  -0.000004  -0.000000
     4  F    0.000003   0.000012   0.000000
     5  C   -0.005762  -0.010279   0.002959
     6  F    0.000073  -0.000082   0.000019
     7  F   -0.000107  -0.000756  -0.000015
     8  F   -0.000197   0.000148   0.000026
     9  F   -0.000301  -0.001966  -0.000413
    10  C    0.017219   0.034980   0.001498
    11  O    0.034043   0.026713   0.011218
    12  C   -0.133190   0.088134   0.003389
    13  C    0.033795  -0.041581   0.063145
    14  O    0.009814   0.001689   0.010249
    15  O   -0.000202  -0.002271  -0.007806
    16  H    0.000091   0.000861   0.001177
    17  C    0.269769   0.167597   0.113431
    18  F   -0.000067  -0.002576  -0.002959
    19  F    9.025195   0.008361   0.012158
    20  F    0.008361   8.955563  -0.008184
    21  F    0.012158  -0.008184   9.100049
 Mulliken charges:
               1
     1  C    1.069435
     2  F   -0.283673
     3  F   -0.280191
     4  F   -0.276734
     5  C    0.591715
     6  F   -0.259826
     7  F   -0.265145
     8  F   -0.265682
     9  F   -0.263372
    10  C    0.327116
    11  O   -0.446385
    12  C    0.348110
    13  C    0.160539
    14  O   -0.294104
    15  O   -0.296424
    16  H    0.396573
    17  C    1.226343
    18  F   -0.400438
    19  F   -0.270640
    20  F   -0.217239
    21  F   -0.299977
 Sum of Mulliken charges =  -0.00000
 Mulliken charges with hydrogens summed into heavy atoms:
               1
     1  C    1.069435
     2  F   -0.283673
     3  F   -0.280191
     4  F   -0.276734
     5  C    0.591715
     6  F   -0.259826
     7  F   -0.265145
     8  F   -0.265682
     9  F   -0.263372
    10  C    0.327116
    11  O   -0.446385
    12  C    0.348110
    13  C    0.160539
    14  O   -0.294104
    15  O   -0.296424
    17  C    1.226343
    18  F   -0.003865
    19  F   -0.270640
    20  F   -0.217239
    21  F   -0.299977
 Electronic spatial extent (au):  <R**2>=           5258.6546
 Charge=              0.0000 electrons
 Dipole moment (field-independent basis, Debye):
    X=              0.7526    Y=             -1.6828    Z=             -1.7192  Tot=              2.5207
 Quadrupole moment (field-independent basis, Debye-Ang):
   XX=           -107.2558   YY=           -113.3913   ZZ=           -111.6134
   XY=              4.4941   XZ=              3.4413   YZ=             -4.8119
 Traceless Quadrupole moment (field-independent basis, Debye-Ang):
   XX=              3.4977   YY=             -2.6378   ZZ=             -0.8599
   XY=              4.4941   XZ=              3.4413   YZ=             -4.8119
 Octapole moment (field-independent basis, Debye-Ang**2):
  XXX=             19.0853  YYY=            -16.0183  ZZZ=             10.3626  XYY=             18.6040
  XXY=             -7.5093  XXZ=             -0.6000  XZZ=             15.2440  YZZ=            -13.2594
  YYZ=             -7.5426  XYZ=             10.0036
 Hexadecapole moment (field-independent basis, Debye-Ang**3):
 XXXX=          -3747.4282 YYYY=          -1124.7100 ZZZZ=           -654.7447 XXXY=             38.9742
 XXXZ=            -13.0904 YYYX=             48.4951 YYYZ=            -29.6436 ZZZX=            -18.8840
 ZZZY=             -9.6791 XXYY=           -833.5325 XXZZ=           -756.5304 YYZZ=           -325.9274
 XXYZ=            -17.8290 YYXZ=             14.9744 ZZXY=             32.1787
 N-N= 1.988612065196D+03 E-N=-7.660364210413D+03  KE= 1.549175532695D+03
 1\1\GINC-ORANGE\FOpt\RwB97XD\6-311+G(2d)\C6H1F11O3\RAPPE\30-Oct-2025\0
 \\# opt freq wb97xd/6-311+g(2d) geom=connectivity\\Title Card Required
 \\0,1\C,3.2171508338,0.1785670671,0.1532704186\F,4.2432650442,-0.65042
 62776,0.2826964265\F,3.4223494602,0.9556908864,-0.9014133711\F,3.13215
 86674,0.9323254198,1.2393846678\C,1.9236793932,-0.6641822214,-0.031789
 1446\F,2.0795604746,-1.4295065226,-1.1174937026\F,1.7793435043,-1.4427
 656366,1.0450622748\F,0.7108548682,0.9496493467,-1.2874879274\F,0.4144
 716441,0.9481600782,0.8474811005\C,0.6224270789,0.1642496648,-0.206762
 1448\O,-0.3989144826,-0.7458028723,-0.3492221404\C,-1.6716353922,-0.28
 50928954,-0.4562965644\C,-2.0830719685,0.9836125431,-1.0460865619\O,-2
 .1729224845,-0.0571513133,-1.8430783503\O,-2.2730740354,2.1496913365,-
 1.0536496785\H,-2.1609682756,2.8445179038,0.6514061003\C,-2.6232202133
 ,-1.1271118894,0.3892091781\F,-2.1141652843,2.8521630613,1.5821170611\
 F,-2.5885911436,-2.3956318157,-0.003366978\F,-2.2579643137,-1.05914754
 63,1.6602145998\F,-3.8644723752,-0.673855317,0.2645337365\\Version=ES6
 4L-G16RevA.03\State=1-A\HF=-1553.1995217\RMSD=2.247e-09\RMSF=9.880e-06
 \Dipole=0.2960842,-0.6620714,-0.6763801\Quadrupole=2.6007698,-1.961444
 4,-0.6393254,3.3410636,2.558348,-3.5776705\PG=C01 [X(C6H1F11O3)]\\@


 EDUCATION WITHOUT COMMON SENSE IS A LOAD OF BOOKS ON THE BACK OF AN ASS.
 Job cpu time:       0 days  3 hours 17 minutes 49.1 seconds.
 Elapsed time:       0 days  0 hours  3 minutes 19.4 seconds.
 File lengths (MBytes):  RWF=    178 Int=      0 D2E=      0 Chk=     22 Scr=      1
 Normal termination of Gaussian 16 at Thu Oct 30 20:35:52 2025.
 Link1:  Proceeding to internal job step number  2.
 ----------------------------------------------------------------------
 #N Geom=AllCheck Guess=TCheck SCRF=Check GenChk RwB97XD/6-311+G(2d) Fr
 eq
 ----------------------------------------------------------------------
 1/10=4,29=7,30=1,38=1,40=1/1,3;
 2/12=2,40=1/2;
 3/5=4,6=6,7=12,11=2,14=-4,25=1,30=1,70=2,71=2,74=-58,116=1,140=1/1,2,3;
 4/5=101/1;
 5/5=2,38=6,98=1/2;
 8/6=4,10=90,11=11/1;
 11/6=1,8=1,9=11,15=111,16=1/1,2,10;
 10/6=1/2;
 6/7=2,8=2,9=2,10=2,28=1/1;
 7/8=1,10=1,25=1/1,2,3,16;
 1/10=4,30=1/3;
 99//99;
 Structure from the checkpoint file:  "frd_903_0HFAts_prod.chk"
 -------------------
 Title Card Required
 -------------------
 Charge =  0 Multiplicity = 1
 Redundant internal coordinates found in file.  (old form).
 C,0,3.2171508338,0.1785670671,0.1532704186
 F,0,4.2432650442,-0.6504262776,0.2826964265
 F,0,3.4223494602,0.9556908864,-0.9014133711
 F,0,3.1321586674,0.9323254198,1.2393846678
 C,0,1.9236793932,-0.6641822214,-0.0317891446
 F,0,2.0795604746,-1.4295065226,-1.1174937026
 F,0,1.7793435043,-1.4427656366,1.0450622748
 F,0,0.7108548682,0.9496493467,-1.2874879274
 F,0,0.4144716441,0.9481600782,0.8474811005
 C,0,0.6224270789,0.1642496648,-0.2067621448
 O,0,-0.3989144826,-0.7458028723,-0.3492221404
 C,0,-1.6716353922,-0.2850928954,-0.4562965644
 C,0,-2.0830719685,0.9836125431,-1.0460865619
 O,0,-2.1729224845,-0.0571513133,-1.8430783503
 O,0,-2.2730740354,2.1496913365,-1.0536496785
 H,0,-2.1609682756,2.8445179038,0.6514061003
 C,0,-2.6232202133,-1.1271118894,0.3892091781
 F,0,-2.1141652843,2.8521630613,1.5821170611
 F,0,-2.5885911436,-2.3956318157,-0.003366978
 F,0,-2.2579643137,-1.0591475463,1.6602145998
 F,0,-3.8644723752,-0.673855317,0.2645337365
 Recover connectivity data from disk.

 GradGradGradGradGradGradGradGradGradGradGradGradGradGradGradGradGradGrad
 Berny optimization.
 Initialization pass.
                           ----------------------------
                           !    Initial Parameters    !
                           ! (Angstroms and Degrees)  !
 --------------------------                            --------------------------
 ! Name  Definition              Value          Derivative Info.                !
 --------------------------------------------------------------------------------
 ! R1    R(1,2)                  1.3255         calculate D2E/DX2 analytically  !
 ! R2    R(1,3)                  1.326          calculate D2E/DX2 analytically  !
 ! R3    R(1,4)                  1.3248         calculate D2E/DX2 analytically  !
 ! R4    R(1,5)                  1.5548         calculate D2E/DX2 analytically  !
 ! R5    R(5,6)                  1.3375         calculate D2E/DX2 analytically  !
 ! R6    R(5,7)                  1.3367         calculate D2E/DX2 analytically  !
 ! R7    R(5,10)                 1.5525         calculate D2E/DX2 analytically  !
 ! R8    R(8,10)                 1.3389         calculate D2E/DX2 analytically  !
 ! R9    R(9,10)                 1.3301         calculate D2E/DX2 analytically  !
 ! R10   R(10,11)                1.3754         calculate D2E/DX2 analytically  !
 ! R11   R(11,12)                1.3578         calculate D2E/DX2 analytically  !
 ! R12   R(12,13)                1.4583         calculate D2E/DX2 analytically  !
 ! R13   R(12,14)                1.4921         calculate D2E/DX2 analytically  !
 ! R14   R(12,17)                1.5262         calculate D2E/DX2 analytically  !
 ! R15   R(13,14)                1.3139         calculate D2E/DX2 analytically  !
 ! R16   R(13,15)                1.1815         calculate D2E/DX2 analytically  !
 ! R17   R(15,16)                1.8446         calculate D2E/DX2 analytically  !
 ! R18   R(16,18)                0.9319         calculate D2E/DX2 analytically  !
 ! R19   R(17,19)                1.3283         calculate D2E/DX2 analytically  !
 ! R20   R(17,20)                1.3242         calculate D2E/DX2 analytically  !
 ! R21   R(17,21)                1.3273         calculate D2E/DX2 analytically  !
 ! A1    A(2,1,3)              108.9292         calculate D2E/DX2 analytically  !
 ! A2    A(2,1,4)              108.9937         calculate D2E/DX2 analytically  !
 ! A3    A(2,1,5)              108.4599         calculate D2E/DX2 analytically  !
 ! A4    A(3,1,4)              109.1815         calculate D2E/DX2 analytically  !
 ! A5    A(3,1,5)              110.5922         calculate D2E/DX2 analytically  !
 ! A6    A(4,1,5)              110.6464         calculate D2E/DX2 analytically  !
 ! A7    A(1,5,6)              108.0481         calculate D2E/DX2 analytically  !
 ! A8    A(1,5,7)              108.0388         calculate D2E/DX2 analytically  !
 ! A9    A(1,5,10)             114.9271         calculate D2E/DX2 analytically  !
 ! A10   A(6,5,7)              109.4669         calculate D2E/DX2 analytically  !
 ! A11   A(6,5,10)             108.1527         calculate D2E/DX2 analytically  !
 ! A12   A(7,5,10)             108.1266         calculate D2E/DX2 analytically  !
 ! A13   A(5,10,8)             110.4041         calculate D2E/DX2 analytically  !
 ! A14   A(5,10,9)             110.8675         calculate D2E/DX2 analytically  !
 ! A15   A(5,10,11)            106.3209         calculate D2E/DX2 analytically  !
 ! A16   A(8,10,9)             107.7206         calculate D2E/DX2 analytically  !
 ! A17   A(8,10,11)            110.7065         calculate D2E/DX2 analytically  !
 ! A18   A(9,10,11)            110.8525         calculate D2E/DX2 analytically  !
 ! A19   A(10,11,12)           118.6679         calculate D2E/DX2 analytically  !
 ! A20   A(11,12,13)           126.2664         calculate D2E/DX2 analytically  !
 ! A21   A(11,12,14)           116.1066         calculate D2E/DX2 analytically  !
 ! A22   A(11,12,17)           110.7043         calculate D2E/DX2 analytically  !
 ! A23   A(13,12,17)           121.8773         calculate D2E/DX2 analytically  !
 ! A24   A(14,12,17)           112.9352         calculate D2E/DX2 analytically  !
 ! A25   A(12,13,15)           155.0377         calculate D2E/DX2 analytically  !
 ! A26   A(14,13,15)           140.0748         calculate D2E/DX2 analytically  !
 ! A27   A(13,15,16)           110.8596         calculate D2E/DX2 analytically  !
 ! A28   A(15,16,18)           158.3248         calculate D2E/DX2 analytically  !
 ! A29   A(12,17,19)           110.2965         calculate D2E/DX2 analytically  !
 ! A30   A(12,17,20)           109.356          calculate D2E/DX2 analytically  !
 ! A31   A(12,17,21)           110.0375         calculate D2E/DX2 analytically  !
 ! A32   A(19,17,20)           108.9955         calculate D2E/DX2 analytically  !
 ! A33   A(19,17,21)           108.8283         calculate D2E/DX2 analytically  !
 ! A34   A(20,17,21)           109.3043         calculate D2E/DX2 analytically  !
 ! D1    D(2,1,5,6)            -58.8183         calculate D2E/DX2 analytically  !
 ! D2    D(2,1,5,7)             59.5245         calculate D2E/DX2 analytically  !
 ! D3    D(2,1,5,10)          -179.667          calculate D2E/DX2 analytically  !
 ! D4    D(3,1,5,6)             60.5723         calculate D2E/DX2 analytically  !
 ! D5    D(3,1,5,7)            178.915          calculate D2E/DX2 analytically  !
 ! D6    D(3,1,5,10)           -60.2765         calculate D2E/DX2 analytically  !
 ! D7    D(4,1,5,6)           -178.3201         calculate D2E/DX2 analytically  !
 ! D8    D(4,1,5,7)            -59.9773         calculate D2E/DX2 analytically  !
 ! D9    D(4,1,5,10)            60.8312         calculate D2E/DX2 analytically  !
 ! D10   D(1,5,10,8)            60.0946         calculate D2E/DX2 analytically  !
 ! D11   D(1,5,10,9)           -59.2033         calculate D2E/DX2 analytically  !
 ! D12   D(1,5,10,11)         -179.7721         calculate D2E/DX2 analytically  !
 ! D13   D(6,5,10,8)           -60.6969         calculate D2E/DX2 analytically  !
 ! D14   D(6,5,10,9)          -179.9948         calculate D2E/DX2 analytically  !
 ! D15   D(6,5,10,11)           59.4364         calculate D2E/DX2 analytically  !
 ! D16   D(7,5,10,8)          -179.1451         calculate D2E/DX2 analytically  !
 ! D17   D(7,5,10,9)            61.557          calculate D2E/DX2 analytically  !
 ! D18   D(7,5,10,11)          -59.0118         calculate D2E/DX2 analytically  !
 ! D19   D(5,10,11,12)         176.8911         calculate D2E/DX2 analytically  !
 ! D20   D(8,10,11,12)         -63.1717         calculate D2E/DX2 analytically  !
 ! D21   D(9,10,11,12)          56.3126         calculate D2E/DX2 analytically  !
 ! D22   D(10,11,12,13)         30.7423         calculate D2E/DX2 analytically  !
 ! D23   D(10,11,12,14)         92.4416         calculate D2E/DX2 analytically  !
 ! D24   D(10,11,12,17)       -137.0819         calculate D2E/DX2 analytically  !
 ! D25   D(11,12,13,15)        -81.5257         calculate D2E/DX2 analytically  !
 ! D26   D(17,12,13,15)         85.04           calculate D2E/DX2 analytically  !
 ! D27   D(11,12,17,19)        -59.3087         calculate D2E/DX2 analytically  !
 ! D28   D(11,12,17,20)         60.5429         calculate D2E/DX2 analytically  !
 ! D29   D(11,12,17,21)       -179.3852         calculate D2E/DX2 analytically  !
 ! D30   D(13,12,17,19)        132.2431         calculate D2E/DX2 analytically  !
 ! D31   D(13,12,17,20)       -107.9053         calculate D2E/DX2 analytically  !
 ! D32   D(13,12,17,21)         12.1667         calculate D2E/DX2 analytically  !
 ! D33   D(14,12,17,19)         72.8148         calculate D2E/DX2 analytically  !
 ! D34   D(14,12,17,20)       -167.3336         calculate D2E/DX2 analytically  !
 ! D35   D(14,12,17,21)        -47.2616         calculate D2E/DX2 analytically  !
 ! D36   D(12,13,15,16)        -11.7524         calculate D2E/DX2 analytically  !
 ! D37   D(14,13,15,16)        169.7361         calculate D2E/DX2 analytically  !
 ! D38   D(13,15,16,18)        -12.253          calculate D2E/DX2 analytically  !
 --------------------------------------------------------------------------------
 Trust Radius=3.00D-01 FncErr=1.00D-07 GrdErr=1.00D-07 EigMax=2.50D+02 EigMin=1.00D-04
 Number of steps in this run=      2 maximum allowed number of steps=      2.
 GradGradGradGradGradGradGradGradGradGradGradGradGradGradGradGradGradGrad

                          Input orientation:                          
 ---------------------------------------------------------------------
 Center     Atomic      Atomic             Coordinates (Angstroms)
 Number     Number       Type             X           Y           Z
 ---------------------------------------------------------------------
      1          6           0        3.217151    0.178567    0.153270
      2          9           0        4.243265   -0.650426    0.282696
      3          9           0        3.422349    0.955691   -0.901413
      4          9           0        3.132159    0.932325    1.239385
      5          6           0        1.923679   -0.664182   -0.031789
      6          9           0        2.079560   -1.429507   -1.117494
      7          9           0        1.779344   -1.442766    1.045062
      8          9           0        0.710855    0.949649   -1.287488
      9          9           0        0.414472    0.948160    0.847481
     10          6           0        0.622427    0.164250   -0.206762
     11          8           0       -0.398914   -0.745803   -0.349222
     12          6           0       -1.671635   -0.285093   -0.456297
     13          6           0       -2.083072    0.983613   -1.046087
     14          8           0       -2.172922   -0.057151   -1.843078
     15          8           0       -2.273074    2.149691   -1.053650
     16          1           0       -2.160968    2.844518    0.651406
     17          6           0       -2.623220   -1.127112    0.389209
     18          9           0       -2.114165    2.852163    1.582117
     19          9           0       -2.588591   -2.395632   -0.003367
     20          9           0       -2.257964   -1.059148    1.660215
     21          9           0       -3.864472   -0.673855    0.264534
 ---------------------------------------------------------------------
                    Distance matrix (angstroms):
                    1          2          3          4          5
     1  C    0.000000
     2  F    1.325478   0.000000
     3  F    1.326041   2.157691   0.000000
     4  F    1.324771   2.157525   2.160503   0.000000
     5  C    1.554845   2.340848   2.371971   2.371738   0.000000
     6  F    2.344110   2.692418   2.745713   3.498727   1.337451
     7  F    2.343353   2.698131   3.498690   2.740242   1.336650
     8  F    2.991968   4.183735   2.738849   3.499728   2.377430
     9  F    2.988179   4.187376   3.479370   2.745844   2.377072
    10  C    2.619622   3.743492   2.991402   2.996670   1.552473
    11  O    3.766017   4.685963   4.219248   4.219984   2.345606
    12  C    4.948412   5.972071   5.261782   5.237736   3.640083
    13  C    5.493534   6.667705   5.507393   5.694264   4.449504
    14  O    5.752726   6.785157   5.763649   6.214864   4.520111
    15  O    5.956891   7.217282   5.821225   5.996376   5.155077
    16  H    6.023255   7.305121   6.095273   5.658568   5.427898
    17  C    5.989190   6.883836   6.523242   6.171585   4.589754
    18  F    6.132915   7.373842   6.357478   5.597067   5.592277
    19  F    6.352769   7.057041   6.940408   6.733997   4.833147
    20  F    5.812031   6.658122   6.548853   5.761639   4.528247
    21  F    7.133610   8.107792   7.557290   7.244515   5.795740
                    6          7          8          9         10
     6  F    0.000000
     7  F    2.183336   0.000000
     8  F    2.750025   3.508006   0.000000
     9  F    3.505274   2.760152   2.155444   0.000000
    10  C    2.343657   2.342652   1.338895   1.330109   0.000000
    11  O    2.683380   2.678543   2.233045   2.227825   1.375365
    12  C    3.977227   3.937453   2.809222   2.751834   2.350936
    13  C    4.812042   5.017815   2.804542   3.134419   2.948821
    14  O    4.526968   5.087405   3.104593   3.865795   3.246618
    15  O    5.635615   5.807962   3.224688   3.504408   3.611527
    16  H    6.275219   5.836251   3.949330   3.204295   3.958229
    17  C    4.947499   4.462325   4.270867   3.707336   3.543589
    18  F    6.573274   5.821877   4.453642   3.249450   4.232482
    19  F    4.895540   4.591951   4.870956   4.574196   4.111569
    20  F    5.164005   4.101881   4.640916   3.439729   3.644030
    21  F    6.149190   5.749183   5.096877   4.613038   4.588770
                   11         12         13         14         15
    11  O    0.000000
    12  C    1.357769   0.000000
    13  C    2.512545   1.458337   0.000000
    14  O    2.419287   1.492116   1.313948   0.000000
    15  O    3.520309   2.578126   1.181481   2.345929   0.000000
    16  H    4.122680   3.355729   2.520023   3.826523   1.844605
    17  C    2.374492   1.526234   2.609021   2.516087   3.597483
    18  F    4.429166   3.767405   3.224888   4.494388   2.732395
    19  F    2.763374   2.345278   3.572409   3.004298   4.675747
    20  F    2.755374   2.328639   3.395220   3.644762   4.202610
    21  F    3.520222   2.340783   2.763750   2.771948   3.498939
                   16         17         18         19         20
    16  H    0.000000
    17  C    4.007027   0.000000
    18  F    0.931918   4.185307   0.000000
    19  F    5.298184   1.328329   5.502562   0.000000
    20  F    4.033077   1.324193   3.914732   2.159400   0.000000
    21  F    3.928173   1.327288   4.151193   2.159666   2.162694
                   21
    21  F    0.000000
 Stoichiometry    C6HF11O3
 Framework group  C1[X(C6HF11O3)]
 Deg. of freedom    57
 Full point group                 C1      NOp   1
 Largest Abelian subgroup         C1      NOp   1
 Largest concise Abelian subgroup C1      NOp   1
                         Standard orientation:                         
 ---------------------------------------------------------------------
 Center     Atomic      Atomic             Coordinates (Angstroms)
 Number     Number       Type             X           Y           Z
 ---------------------------------------------------------------------
      1          6           0        3.217124    0.178716    0.153279
      2          9           0        4.243274   -0.650233    0.282705
      3          9           0        3.422289    0.955849   -0.901405
      4          9           0        3.132099    0.932471    1.239393
      5          6           0        1.923689   -0.664090   -0.031781
      6          9           0        2.079604   -1.429407   -1.117485
      7          9           0        1.779387   -1.442679    1.045071
      8          9           0        0.710795    0.949689   -1.287479
      9          9           0        0.414412    0.948187    0.847490
     10          6           0        0.622401    0.164286   -0.206754
     11          8           0       -0.398901   -0.745811   -0.349214
     12          6           0       -1.671642   -0.285157   -0.456288
     13          6           0       -2.083134    0.983531   -1.046078
     14          8           0       -2.172939   -0.057237   -1.843070
     15          8           0       -2.273186    2.149601   -1.053641
     16          1           0       -2.161111    2.844433    0.651415
     17          6           0       -2.623190   -1.127217    0.389218
     18          9           0       -2.114308    2.852080    1.582126
     19          9           0       -2.588506   -2.395736   -0.003358
     20          9           0       -2.257937   -1.059237    1.660223
     21          9           0       -3.864462   -0.674015    0.264542
 ---------------------------------------------------------------------
 Rotational constants (GHZ):           0.5600299           0.2163974           0.1959985
 Standard basis: 6-311+G(2d) (5D, 7F)
 There are   583 symmetry adapted cartesian basis functions of A   symmetry.
 There are   543 symmetry adapted basis functions of A   symmetry.
   543 basis functions,   845 primitive gaussians,   583 cartesian basis functions
    80 alpha electrons       80 beta electrons
       nuclear repulsion energy      1988.6255850206 Hartrees.
 NAtoms=   21 NActive=   21 NUniq=   21 SFac= 1.00D+00 NAtFMM=   60 NAOKFM=F Big=F
 Integral buffers will be    131072 words long.
 Raffenetti 2 integral format.
 Two-electron integral symmetry is turned on.
 Nuclear repulsion after empirical dispersion term =     1988.6120651955 Hartrees.
 One-electron integrals computed using PRISM.
 NBasis=   543 RedAO= T EigKep=  9.68D-06  NBF=   543
 NBsUse=   543 1.00D-06 EigRej= -1.00D+00 NBFU=   543
 Initial guess from the checkpoint file:  "frd_903_0HFAts_prod.chk"
 B after Tr=     0.000000    0.000000    0.000000
         Rot=    1.000000   -0.000000   -0.000000    0.000000 Ang=   0.00 deg.
 Requested convergence on RMS density matrix=1.00D-08 within 128 cycles.
 Requested convergence on MAX density matrix=1.00D-06.
 Requested convergence on             energy=1.00D-06.
 No special actions if energy rises.
 SCF Done:  E(RwB97XD) =  -1553.19952175     A.U. after    1 cycles
            NFock=  1  Conv=0.13D-08     -V/T= 2.0026
 DoSCS=F DFT=T ScalE2(SS,OS)=  1.000000  1.000000
 Range of M.O.s used for correlation:     1   543
 NBasis=   543 NAE=    80 NBE=    80 NFC=     0 NFV=     0
 NROrb=    543 NOA=    80 NOB=    80 NVA=   463 NVB=   463

 **** Warning!!: The largest alpha MO coefficient is  0.52661546D+02

 Symmetrizing basis deriv contribution to polar:
 IMax=3 JMax=2 DiffMx= 0.00D+00
 G2DrvN: will do    22 centers at a time, making    1 passes.
 Calling FoFCou, ICntrl=  3107 FMM=F I1Cent=   0 AccDes= 0.00D+00.
 End of G2Drv F.D. properties file   721 does not exist.
 End of G2Drv F.D. properties file   722 does not exist.
 End of G2Drv F.D. properties file   788 does not exist.
          IDoAtm=111111111111111111111
          Differentiating once with respect to electric field.
                with respect to dipole field.
          Differentiating once with respect to nuclear coordinates.
 CalDSu exits because no D1Ps are significant.
          There are    66 degrees of freedom in the 1st order CPHF.  IDoFFX=6 NUNeed=     3.
     63 vectors produced by pass  0 Test12= 5.61D-14 1.52D-09 XBig12= 3.18D+01 1.53D+00.
 AX will form    63 AO Fock derivatives at one time.
     63 vectors produced by pass  1 Test12= 5.61D-14 1.52D-09 XBig12= 7.25D+00 4.16D-01.
     63 vectors produced by pass  2 Test12= 5.61D-14 1.52D-09 XBig12= 2.05D-01 6.01D-02.
     63 vectors produced by pass  3 Test12= 5.61D-14 1.52D-09 XBig12= 4.99D-03 8.88D-03.
     63 vectors produced by pass  4 Test12= 5.61D-14 1.52D-09 XBig12= 8.24D-05 1.17D-03.
     63 vectors produced by pass  5 Test12= 5.61D-14 1.52D-09 XBig12= 6.80D-07 9.05D-05.
     63 vectors produced by pass  6 Test12= 5.61D-14 1.52D-09 XBig12= 5.02D-09 7.92D-06.
     47 vectors produced by pass  7 Test12= 5.61D-14 1.52D-09 XBig12= 3.37D-11 5.69D-07.
      5 vectors produced by pass  8 Test12= 5.61D-14 1.52D-09 XBig12= 2.15D-13 3.97D-08.
      3 vectors produced by pass  9 Test12= 5.61D-14 1.52D-09 XBig12= 1.88D-15 3.68D-09.
 InvSVY:  IOpt=1 It=  1 EMax= 8.88D-15
 Solved reduced A of dimension   496 with    66 vectors.
 Isotropic polarizability for W=    0.000000       89.07 Bohr**3.
 End of Minotr F.D. properties file   721 does not exist.
 End of Minotr F.D. properties file   722 does not exist.
 End of Minotr F.D. properties file   788 does not exist.

 **********************************************************************

            Population analysis using the SCF density.

 **********************************************************************

 Orbital symmetries:
       Occupied  (A) (A) (A) (A) (A) (A) (A) (A) (A) (A) (A) (A)
                 (A) (A) (A) (A) (A) (A) (A) (A) (A) (A) (A) (A)
                 (A) (A) (A) (A) (A) (A) (A) (A) (A) (A) (A) (A)
                 (A) (A) (A) (A) (A) (A) (A) (A) (A) (A) (A) (A)
                 (A) (A) (A) (A) (A) (A) (A) (A) (A) (A) (A) (A)
                 (A) (A) (A) (A) (A) (A) (A) (A) (A) (A) (A) (A)
                 (A) (A) (A) (A) (A) (A) (A) (A)
       Virtual   (A) (A) (A) (A) (A) (A) (A) (A) (A) (A) (A) (A)
                 (A) (A) (A) (A) (A) (A) (A) (A) (A) (A) (A) (A)
                 (A) (A) (A) (A) (A) (A) (A) (A) (A) (A) (A) (A)
                 (A) (A) (A) (A) (A) (A) (A) (A) (A) (A) (A) (A)
                 (A) (A) (A) (A) (A) (A) (A) (A) (A) (A) (A) (A)
                 (A) (A) (A) (A) (A) (A) (A) (A) (A) (A) (A) (A)
                 (A) (A) (A) (A) (A) (A) (A) (A) (A) (A) (A) (A)
                 (A) (A) (A) (A) (A) (A) (A) (A) (A) (A) (A) (A)
                 (A) (A) (A) (A) (A) (A) (A) (A) (A) (A) (A) (A)
                 (A) (A) (A) (A) (A) (A) (A) (A) (A) (A) (A) (A)
                 (A) (A) (A) (A) (A) (A) (A) (A) (A) (A) (A) (A)
                 (A) (A) (A) (A) (A) (A) (A) (A) (A) (A) (A) (A)
                 (A) (A) (A) (A) (A) (A) (A) (A) (A) (A) (A) (A)
                 (A) (A) (A) (A) (A) (A) (A) (A) (A) (A) (A) (A)
                 (A) (A) (A) (A) (A) (A) (A) (A) (A) (A) (A) (A)
                 (A) (A) (A) (A) (A) (A) (A) (A) (A) (A) (A) (A)
                 (A) (A) (A) (A) (A) (A) (A) (A) (A) (A) (A) (A)
                 (A) (A) (A) (A) (A) (A) (A) (A) (A) (A) (A) (A)
                 (A) (A) (A) (A) (A) (A) (A) (A) (A) (A) (A) (A)
                 (A) (A) (A) (A) (A) (A) (A) (A) (A) (A) (A) (A)
                 (A) (A) (A) (A) (A) (A) (A) (A) (A) (A) (A) (A)
                 (A) (A) (A) (A) (A) (A) (A) (A) (A) (A) (A) (A)
                 (A) (A) (A) (A) (A) (A) (A) (A) (A) (A) (A) (A)
                 (A) (A) (A) (A) (A) (A) (A) (A) (A) (A) (A) (A)
                 (A) (A) (A) (A) (A) (A) (A) (A) (A) (A) (A) (A)
                 (A) (A) (A) (A) (A) (A) (A) (A) (A) (A) (A) (A)
                 (A) (A) (A) (A) (A) (A) (A) (A) (A) (A) (A) (A)
                 (A) (A) (A) (A) (A) (A) (A) (A) (A) (A) (A) (A)
                 (A) (A) (A) (A) (A) (A) (A) (A) (A) (A) (A) (A)
                 (A) (A) (A) (A) (A) (A) (A) (A) (A) (A) (A) (A)
                 (A) (A) (A) (A) (A) (A) (A) (A) (A) (A) (A) (A)
                 (A) (A) (A) (A) (A) (A) (A) (A) (A) (A) (A) (A)
                 (A) (A) (A) (A) (A) (A) (A) (A) (A) (A) (A) (A)
                 (A) (A) (A) (A) (A) (A) (A) (A) (A) (A) (A) (A)
                 (A) (A) (A) (A) (A) (A) (A) (A) (A) (A) (A) (A)
                 (A) (A) (A) (A) (A) (A) (A) (A) (A) (A) (A) (A)
                 (A) (A) (A) (A) (A) (A) (A) (A) (A) (A) (A) (A)
                 (A) (A) (A) (A) (A) (A) (A) (A) (A) (A) (A) (A)
                 (A) (A) (A) (A) (A) (A) (A)
 The electronic state is 1-A.
 Alpha  occ. eigenvalues --  -24.89878 -24.89656 -24.89271 -24.89077 -24.89044
 Alpha  occ. eigenvalues --  -24.89002 -24.88995 -24.88973 -24.88958 -24.88832
 Alpha  occ. eigenvalues --  -24.78195 -19.38850 -19.38823 -19.33365 -10.59929
 Alpha  occ. eigenvalues --  -10.59477 -10.59019 -10.54143 -10.51058 -10.50930
 Alpha  occ. eigenvalues --   -1.48556  -1.48233  -1.46833  -1.44148  -1.39717
 Alpha  occ. eigenvalues --   -1.39014  -1.38800  -1.38726  -1.38650  -1.37950
 Alpha  occ. eigenvalues --   -1.34413  -1.28751  -1.27785  -1.23826  -0.97782
 Alpha  occ. eigenvalues --   -0.93539  -0.87941  -0.83127  -0.82461  -0.79386
 Alpha  occ. eigenvalues --   -0.78093  -0.75863  -0.75647  -0.75024  -0.74744
 Alpha  occ. eigenvalues --   -0.73985  -0.73703  -0.72813  -0.70804  -0.70259
 Alpha  occ. eigenvalues --   -0.66092  -0.64228  -0.63336  -0.62762  -0.62152
 Alpha  occ. eigenvalues --   -0.62001  -0.61455  -0.61217  -0.60981  -0.60700
 Alpha  occ. eigenvalues --   -0.60180  -0.59267  -0.59004  -0.58293  -0.57492
 Alpha  occ. eigenvalues --   -0.57118  -0.56566  -0.56346  -0.55837  -0.55489
 Alpha  occ. eigenvalues --   -0.55044  -0.54800  -0.54657  -0.54181  -0.49628
 Alpha  occ. eigenvalues --   -0.49234  -0.48903  -0.48751  -0.48217  -0.43669
 Alpha virt. eigenvalues --   -0.00177   0.04302   0.06655   0.07177   0.07639
 Alpha virt. eigenvalues --    0.08155   0.09099   0.09605   0.10374   0.11131
 Alpha virt. eigenvalues --    0.11322   0.11936   0.12358   0.12770   0.12944
 Alpha virt. eigenvalues --    0.13982   0.14701   0.15221   0.16254   0.16563
 Alpha virt. eigenvalues --    0.16826   0.17620   0.18526   0.18956   0.19800
 Alpha virt. eigenvalues --    0.19996   0.20697   0.21457   0.22207   0.22839
 Alpha virt. eigenvalues --    0.23368   0.23932   0.24771   0.25256   0.25863
 Alpha virt. eigenvalues --    0.26344   0.26729   0.27131   0.27444   0.28089
 Alpha virt. eigenvalues --    0.28483   0.29711   0.29841   0.30460   0.31003
 Alpha virt. eigenvalues --    0.31408   0.32091   0.32421   0.32668   0.33170
 Alpha virt. eigenvalues --    0.33571   0.34200   0.34523   0.34738   0.35301
 Alpha virt. eigenvalues --    0.35795   0.36305   0.36823   0.37232   0.37671
 Alpha virt. eigenvalues --    0.38635   0.39009   0.39434   0.39716   0.40060
 Alpha virt. eigenvalues --    0.40281   0.41146   0.41725   0.42206   0.42671
 Alpha virt. eigenvalues --    0.42899   0.43425   0.43813   0.44173   0.44708
 Alpha virt. eigenvalues --    0.44759   0.45271   0.45651   0.46001   0.46235
 Alpha virt. eigenvalues --    0.47074   0.47572   0.48179   0.48694   0.49362
 Alpha virt. eigenvalues --    0.50558   0.51400   0.51601   0.51913   0.53386
 Alpha virt. eigenvalues --    0.54519   0.54891   0.55639   0.55798   0.57827
 Alpha virt. eigenvalues --    0.58806   0.60764   0.61851   0.63361   0.63869
 Alpha virt. eigenvalues --    0.64732   0.65754   0.66107   0.67737   0.69436
 Alpha virt. eigenvalues --    0.69924   0.70550   0.72611   0.73197   0.73760
 Alpha virt. eigenvalues --    0.74305   0.75760   0.77332   0.78571   0.79638
 Alpha virt. eigenvalues --    0.80558   0.80875   0.81971   0.83227   0.85596
 Alpha virt. eigenvalues --    0.85857   0.87148   0.88058   0.91235   0.93918
 Alpha virt. eigenvalues --    0.96233   0.97890   1.00852   1.02343   1.03273
 Alpha virt. eigenvalues --    1.04921   1.06754   1.08338   1.09339   1.10527
 Alpha virt. eigenvalues --    1.11416   1.13289   1.13827   1.15220   1.16164
 Alpha virt. eigenvalues --    1.17868   1.18997   1.20046   1.21155   1.21956
 Alpha virt. eigenvalues --    1.23718   1.24348   1.26980   1.27503   1.28302
 Alpha virt. eigenvalues --    1.29169   1.31665   1.34005   1.34388   1.35067
 Alpha virt. eigenvalues --    1.36183   1.37212   1.38127   1.39498   1.39797
 Alpha virt. eigenvalues --    1.41707   1.42366   1.43025   1.43635   1.43834
 Alpha virt. eigenvalues --    1.44755   1.45360   1.46031   1.46405   1.46745
 Alpha virt. eigenvalues --    1.47615   1.48310   1.48664   1.48989   1.49558
 Alpha virt. eigenvalues --    1.50643   1.50881   1.51308   1.52331   1.52758
 Alpha virt. eigenvalues --    1.52862   1.53807   1.54647   1.55523   1.55623
 Alpha virt. eigenvalues --    1.56373   1.57708   1.58007   1.59196   1.59405
 Alpha virt. eigenvalues --    1.61249   1.62898   1.63170   1.63586   1.66227
 Alpha virt. eigenvalues --    1.68003   1.68671   1.70412   1.73514   1.75713
 Alpha virt. eigenvalues --    1.77449   1.79896   1.84034   1.87075   1.88182
 Alpha virt. eigenvalues --    1.91663   1.93800   1.98075   1.98432   2.00819
 Alpha virt. eigenvalues --    2.01996   2.02857   2.03396   2.04595   2.04739
 Alpha virt. eigenvalues --    2.05121   2.05521   2.06768   2.07170   2.08267
 Alpha virt. eigenvalues --    2.09069   2.09737   2.10923   2.11785   2.12129
 Alpha virt. eigenvalues --    2.12779   2.14248   2.14397   2.16166   2.17851
 Alpha virt. eigenvalues --    2.18007   2.19058   2.20006   2.20299   2.20432
 Alpha virt. eigenvalues --    2.20976   2.23155   2.24707   2.26240   2.27959
 Alpha virt. eigenvalues --    2.29232   2.31157   2.33915   2.34632   2.36493
 Alpha virt. eigenvalues --    2.37573   2.38320   2.39909   2.43194   2.44150
 Alpha virt. eigenvalues --    2.46259   2.47288   2.48247   2.50531   2.51996
 Alpha virt. eigenvalues --    2.54593   2.54865   2.56441   2.58044   2.61826
 Alpha virt. eigenvalues --    2.62641   2.65728   2.67540   2.69416   2.70466
 Alpha virt. eigenvalues --    2.71777   2.72230   2.73697   2.74797   2.75522
 Alpha virt. eigenvalues --    2.76953   2.80169   2.86013   2.88084   2.89201
 Alpha virt. eigenvalues --    2.96729   2.98705   3.00747   3.07433   3.09097
 Alpha virt. eigenvalues --    3.11920   3.18251   3.22589   3.23634   3.24813
 Alpha virt. eigenvalues --    3.26116   3.30342   3.31842   3.34721   3.36213
 Alpha virt. eigenvalues --    3.39332   3.40740   3.44219   3.45454   3.45870
 Alpha virt. eigenvalues --    3.48986   3.49770   3.50275   3.51370   3.51814
 Alpha virt. eigenvalues --    3.53467   3.55298   3.58690   3.59242   3.62286
 Alpha virt. eigenvalues --    3.64628   3.66727   3.67581   3.69837   3.70639
 Alpha virt. eigenvalues --    3.70966   3.72922   3.75759   3.79530   3.81140
 Alpha virt. eigenvalues --    3.82490   3.89183   3.92124   4.00353   4.05523
 Alpha virt. eigenvalues --    4.15339   4.28064   4.29941   4.30230   4.31575
 Alpha virt. eigenvalues --    4.32111   4.35376   4.36083   4.37950   4.48119
 Alpha virt. eigenvalues --    4.50738   5.16872   5.18196   5.24201   5.27084
 Alpha virt. eigenvalues --    5.38244   5.57680   5.78447   6.04892   6.20208
 Alpha virt. eigenvalues --    6.38974   6.41257   6.41652   6.42378   6.43271
 Alpha virt. eigenvalues --    6.43701   6.43791   6.45252   6.46333   6.46702
 Alpha virt. eigenvalues --    6.47488   6.47831   6.48480   6.49270   6.49855
 Alpha virt. eigenvalues --    6.50432   6.51248   6.51762   6.52667   6.53691
 Alpha virt. eigenvalues --    6.54122   6.55725   6.57891   6.63247   6.64092
 Alpha virt. eigenvalues --    6.68286   6.71959   6.79910   6.80501   6.86808
 Alpha virt. eigenvalues --    6.87610   6.88228   6.90544   6.91351   6.93826
 Alpha virt. eigenvalues --    6.95390   6.98351   7.03294   7.11299   7.14799
 Alpha virt. eigenvalues --    7.22860   7.23162   7.27058   7.27812   7.34239
 Alpha virt. eigenvalues --    7.41206   7.48679   7.62143   9.07411   9.07705
 Alpha virt. eigenvalues --    9.07754   9.08831   9.09800   9.09932   9.10758
 Alpha virt. eigenvalues --    9.12379   9.13006   9.14403   9.14996   9.16917
 Alpha virt. eigenvalues --    9.17881   9.18015   9.18824   9.19590   9.20130
 Alpha virt. eigenvalues --    9.20397   9.21687   9.22287   9.23081   9.23467
 Alpha virt. eigenvalues --    9.24653   9.25024   9.25662   9.27058   9.27673
 Alpha virt. eigenvalues --    9.28505   9.33293   9.33897   9.34623   9.36927
 Alpha virt. eigenvalues --    9.42453   9.43098   9.45028   9.48847   9.49317
 Alpha virt. eigenvalues --    9.52091   9.63106   9.65162   9.67502   9.68175
 Alpha virt. eigenvalues --    9.68904   9.72224   9.74722   9.75269   9.75878
 Alpha virt. eigenvalues --    9.76133   9.79501   9.79984   9.86503   9.87979
 Alpha virt. eigenvalues --    9.89878   9.90808   9.91107  23.94875  23.96077
 Alpha virt. eigenvalues --   24.03473  24.04344  24.11079  24.24990  50.08626
 Alpha virt. eigenvalues --   50.10134  50.13644  66.91536  66.93105  66.93944
 Alpha virt. eigenvalues --   66.94707  66.94840  66.95157  66.96390  66.97874
 Alpha virt. eigenvalues --   66.99720  67.02742  67.04243
          Condensed to atoms (all electrons):
               1          2          3          4          5          6
     1  C    4.916007   0.230956   0.249466   0.252593  -0.538985  -0.134567
     2  F    0.230956   9.120495  -0.005088  -0.005053  -0.191917   0.021733
     3  F    0.249466  -0.005088   9.055317   0.018296  -0.104547   0.018754
     4  F    0.252593  -0.005053   0.018296   9.047552  -0.100869  -0.001351
     5  C   -0.538985  -0.191917  -0.104547  -0.100869  12.117249   0.333891
     6  F   -0.134567   0.021733   0.018754  -0.001351   0.333891   9.062352
     7  F   -0.139187   0.022648  -0.001305   0.018567   0.324040   0.003812
     8  F   -0.016786   0.000078   0.004052  -0.005565  -0.117350   0.017513
     9  F    0.006391   0.000005  -0.005687   0.005422  -0.109411   0.000712
    10  C    0.238725   0.089194   0.046684   0.036983  -6.104451  -0.089036
    11  O    0.019160  -0.000580   0.001368   0.001954  -0.215763   0.041280
    12  C   -0.039933   0.000902   0.002716   0.007956   0.413780  -0.007711
    13  C   -0.079997   0.000513   0.001257  -0.001417  -0.645895  -0.000342
    14  O    0.001282  -0.000003   0.000000   0.000037  -0.012837  -0.000219
    15  O    0.002627  -0.000006   0.000017   0.000024   0.014692  -0.000019
    16  H   -0.000230   0.000001   0.000005   0.000006  -0.003507   0.000002
    17  C   -0.037869  -0.000202  -0.001111   0.001562   0.343572  -0.006989
    18  F    0.000049  -0.000001   0.000002   0.000024   0.019673   0.000002
    19  F   -0.000055  -0.000001  -0.000000   0.000003  -0.005762   0.000073
    20  F    0.000880   0.000000  -0.000004   0.000012  -0.010279  -0.000082
    21  F    0.000037   0.000000  -0.000000   0.000000   0.002959   0.000019
               7          8          9         10         11         12
     1  C   -0.139187  -0.016786   0.006391   0.238725   0.019160  -0.039933
     2  F    0.022648   0.000078   0.000005   0.089194  -0.000580   0.000902
     3  F   -0.001305   0.004052  -0.005687   0.046684   0.001368   0.002716
     4  F    0.018567  -0.005565   0.005422   0.036983   0.001954   0.007956
     5  C    0.324040  -0.117350  -0.109411  -6.104451  -0.215763   0.413780
     6  F    0.003812   0.017513   0.000712  -0.089036   0.041280  -0.007711
     7  F    9.070375   0.001665   0.018071  -0.075064   0.032102  -0.010812
     8  F    0.001665   9.057714   0.026012   0.341527  -0.017997  -0.130150
     9  F    0.018071   0.026012   9.034370   0.342183  -0.038971   0.012954
    10  C   -0.075064   0.341527   0.342183  12.404839   0.130793  -1.211488
    11  O    0.032102  -0.017997  -0.038971   0.130793   8.472595  -0.142735
    12  C   -0.010812  -0.130150   0.012954  -1.211488  -0.142735  11.845219
    13  C    0.000704   0.092030  -0.032927   0.650678   0.246784  -3.869431
    14  O    0.000127   0.008588   0.003687   0.075192  -0.003997   0.212576
    15  O    0.000014  -0.001927   0.002000  -0.006215  -0.021658   0.330460
    16  H    0.000005   0.000548   0.000801   0.007609   0.001980  -0.070753
    17  C    0.000247   0.007756  -0.001270  -1.235328  -0.127892  -1.795898
    18  F    0.000016  -0.002004   0.001709  -0.023637  -0.004013   0.145905
    19  F   -0.000107  -0.000197  -0.000301   0.017219   0.034043  -0.133190
    20  F   -0.000756   0.000148  -0.001966   0.034980   0.026713   0.088134
    21  F   -0.000015   0.000026  -0.000413   0.001498   0.011218   0.003389
              13         14         15         16         17         18
     1  C   -0.079997   0.001282   0.002627  -0.000230  -0.037869   0.000049
     2  F    0.000513  -0.000003  -0.000006   0.000001  -0.000202  -0.000001
     3  F    0.001257   0.000000   0.000017   0.000005  -0.001111   0.000002
     4  F   -0.001417   0.000037   0.000024   0.000006   0.001562   0.000024
     5  C   -0.645895  -0.012837   0.014692  -0.003507   0.343572   0.019673
     6  F   -0.000342  -0.000219  -0.000019   0.000002  -0.006989   0.000002
     7  F    0.000704   0.000127   0.000014   0.000005   0.000247   0.000016
     8  F    0.092030   0.008588  -0.001927   0.000548   0.007756  -0.002004
     9  F   -0.032927   0.003687   0.002000   0.000801  -0.001270   0.001709
    10  C    0.650678   0.075192  -0.006215   0.007609  -1.235328  -0.023637
    11  O    0.246784  -0.003997  -0.021658   0.001980  -0.127892  -0.004013
    12  C   -3.869431   0.212576   0.330460  -0.070753  -1.795898   0.145905
    13  C    9.377246   0.178000   0.054041   0.083804  -0.159206  -0.111740
    14  O    0.178000   8.031413  -0.062876  -0.002223  -0.158671   0.002278
    15  O    0.054041  -0.062876   8.015866  -0.024599  -0.003398   0.007662
    16  H    0.083804  -0.002223  -0.024599   0.424929  -0.010233   0.193156
    17  C   -0.159206  -0.158671  -0.003398  -0.010233   7.403919   0.003871
    18  F   -0.111740   0.002278   0.007662   0.193156   0.003871   9.173089
    19  F    0.033795   0.009814  -0.000202   0.000091   0.269769  -0.000067
    20  F   -0.041581   0.001689  -0.002271   0.000861   0.167597  -0.002576
    21  F    0.063145   0.010249  -0.007806   0.001177   0.113431  -0.002959
              19         20         21
     1  C   -0.000055   0.000880   0.000037
     2  F   -0.000001   0.000000   0.000000
     3  F   -0.000000  -0.000004  -0.000000
     4  F    0.000003   0.000012   0.000000
     5  C   -0.005762  -0.010279   0.002959
     6  F    0.000073  -0.000082   0.000019
     7  F   -0.000107  -0.000756  -0.000015
     8  F   -0.000197   0.000148   0.000026
     9  F   -0.000301  -0.001966  -0.000413
    10  C    0.017219   0.034980   0.001498
    11  O    0.034043   0.026713   0.011218
    12  C   -0.133190   0.088134   0.003389
    13  C    0.033795  -0.041581   0.063145
    14  O    0.009814   0.001689   0.010249
    15  O   -0.000202  -0.002271  -0.007806
    16  H    0.000091   0.000861   0.001177
    17  C    0.269769   0.167597   0.113431
    18  F   -0.000067  -0.002576  -0.002959
    19  F    9.025196   0.008361   0.012158
    20  F    0.008361   8.955563  -0.008184
    21  F    0.012158  -0.008184   9.100049
 Mulliken charges:
               1
     1  C    1.069435
     2  F   -0.283673
     3  F   -0.280191
     4  F   -0.276734
     5  C    0.591715
     6  F   -0.259826
     7  F   -0.265145
     8  F   -0.265682
     9  F   -0.263372
    10  C    0.327116
    11  O   -0.446385
    12  C    0.348110
    13  C    0.160540
    14  O   -0.294104
    15  O   -0.296424
    16  H    0.396573
    17  C    1.226343
    18  F   -0.400438
    19  F   -0.270640
    20  F   -0.217239
    21  F   -0.299977
 Sum of Mulliken charges =  -0.00000
 Mulliken charges with hydrogens summed into heavy atoms:
               1
     1  C    1.069435
     2  F   -0.283673
     3  F   -0.280191
     4  F   -0.276734
     5  C    0.591715
     6  F   -0.259826
     7  F   -0.265145
     8  F   -0.265682
     9  F   -0.263372
    10  C    0.327116
    11  O   -0.446385
    12  C    0.348110
    13  C    0.160540
    14  O   -0.294104
    15  O   -0.296424
    17  C    1.226343
    18  F   -0.003865
    19  F   -0.270640
    20  F   -0.217239
    21  F   -0.299977
 APT charges:
               1
     1  C    1.556696
     2  F   -0.539983
     3  F   -0.500781
     4  F   -0.495466
     5  C    0.943252
     6  F   -0.472732
     7  F   -0.468671
     8  F   -0.489549
     9  F   -0.468024
    10  C    1.413223
    11  O   -0.895747
    12  C    0.655838
    13  C    1.134926
    14  O   -0.695043
    15  O   -0.753942
    16  H    0.501047
    17  C    1.610046
    18  F   -0.490166
    19  F   -0.525984
    20  F   -0.503746
    21  F   -0.515198
 Sum of APT charges =  -0.00000
 APT charges with hydrogens summed into heavy atoms:
               1
     1  C    1.556696
     2  F   -0.539983
     3  F   -0.500781
     4  F   -0.495466
     5  C    0.943252
     6  F   -0.472732
     7  F   -0.468671
     8  F   -0.489549
     9  F   -0.468024
    10  C    1.413223
    11  O   -0.895747
    12  C    0.655838
    13  C    1.134926
    14  O   -0.695043
    15  O   -0.753942
    17  C    1.610046
    18  F    0.010882
    19  F   -0.525984
    20  F   -0.503746
    21  F   -0.515198
 Electronic spatial extent (au):  <R**2>=           5258.6546
 Charge=              0.0000 electrons
 Dipole moment (field-independent basis, Debye):
    X=              0.7526    Y=             -1.6828    Z=             -1.7192  Tot=              2.5207
 Quadrupole moment (field-independent basis, Debye-Ang):
   XX=           -107.2558   YY=           -113.3913   ZZ=           -111.6134
   XY=              4.4941   XZ=              3.4413   YZ=             -4.8119
 Traceless Quadrupole moment (field-independent basis, Debye-Ang):
   XX=              3.4977   YY=             -2.6378   ZZ=             -0.8599
   XY=              4.4941   XZ=              3.4413   YZ=             -4.8119
 Octapole moment (field-independent basis, Debye-Ang**2):
  XXX=             19.0853  YYY=            -16.0183  ZZZ=             10.3626  XYY=             18.6040
  XXY=             -7.5093  XXZ=             -0.6000  XZZ=             15.2440  YZZ=            -13.2594
  YYZ=             -7.5426  XYZ=             10.0036
 Hexadecapole moment (field-independent basis, Debye-Ang**3):
 XXXX=          -3747.4282 YYYY=          -1124.7100 ZZZZ=           -654.7447 XXXY=             38.9742
 XXXZ=            -13.0904 YYYX=             48.4951 YYYZ=            -29.6436 ZZZX=            -18.8841
 ZZZY=             -9.6791 XXYY=           -833.5325 XXZZ=           -756.5304 YYZZ=           -325.9274
 XXYZ=            -17.8289 YYXZ=             14.9744 ZZXY=             32.1787
 N-N= 1.988612065196D+03 E-N=-7.660364214060D+03  KE= 1.549175535814D+03
  Exact polarizability:  93.886  -3.443  90.852   3.348  -1.847  82.466
 Approx polarizability:  89.359  -4.617 104.943   3.429   0.328  99.937
 Calling FoFJK, ICntrl=    100127 FMM=F ISym2X=0 I1Cent= 0 IOpClX= 0 NMat=1 NMatS=1 NMatT=0.
 Full mass-weighted force constant matrix:
 Low frequencies ---   -2.2599   -0.0007   -0.0005    0.0006    3.0156    6.4590
 Low frequencies ---   12.6599   19.3016   28.7069
 Diagonal vibrational polarizability:
      138.1853557     350.6132209      44.6781083
 Harmonic frequencies (cm**-1), IR intensities (KM/Mole), Raman scattering
 activities (A**4/AMU), depolarization ratios for plane and unpolarized
 incident light, reduced masses (AMU), force constants (mDyne/A),
 and normal coordinates:
                      1                      2                      3
                      A                      A                      A
 Frequencies --     12.4553                19.2786                28.6919
 Red. masses --     16.6463                16.4931                17.5054
 Frc consts  --      0.0015                 0.0036                 0.0085
 IR Inten    --      0.9778                 2.3851                 0.0909
  Atom  AN      X      Y      Z        X      Y      Z        X      Y      Z
     1   6    -0.04   0.01   0.08    -0.03   0.03  -0.02     0.06  -0.01  -0.14
     2   9     0.01   0.03  -0.12    -0.04   0.04   0.15     0.05  -0.02  -0.16
     3   9    -0.09   0.26   0.25     0.02  -0.13  -0.12    -0.02  -0.10  -0.22
     4   9    -0.06  -0.24   0.25    -0.07   0.19  -0.13     0.16   0.09  -0.20
     5   6     0.00  -0.01  -0.08    -0.03   0.01   0.05     0.03   0.00   0.04
     6   9     0.05   0.18  -0.21    -0.02  -0.08   0.11    -0.13   0.04  -0.01
     7   9     0.01  -0.19  -0.21    -0.03   0.09   0.11     0.19  -0.04   0.03
     8   9    -0.07   0.07   0.10    -0.00  -0.01  -0.00    -0.09   0.20   0.40
     9   9    -0.03  -0.13   0.10    -0.09  -0.02  -0.01     0.03  -0.20   0.42
    10   6    -0.03  -0.03   0.03    -0.03  -0.01  -0.01    -0.01   0.00   0.27
    11   8    -0.01  -0.05  -0.04    -0.01  -0.03  -0.06     0.01  -0.00   0.16
    12   6    -0.01  -0.06  -0.01    -0.02  -0.05  -0.02     0.02  -0.01   0.03
    13   6    -0.04  -0.09  -0.06    -0.05   0.01   0.12     0.06  -0.02  -0.04
    14   8    -0.05  -0.13  -0.01    -0.04   0.08   0.01     0.16  -0.04  -0.02
    15   8    -0.05  -0.09  -0.11    -0.06   0.00   0.23     0.03  -0.03  -0.09
    16   1     0.13   0.17  -0.25     0.23   0.20   0.10    -0.11   0.05  -0.12
    17   6     0.02  -0.02   0.06    -0.00  -0.15  -0.10    -0.07  -0.00  -0.06
    18   9     0.25   0.41  -0.26     0.41   0.52   0.09    -0.14   0.10  -0.12
    19   9     0.02  -0.04   0.13     0.05  -0.12  -0.19     0.01  -0.01  -0.01
    20   9     0.05   0.05   0.04    -0.02  -0.23  -0.08    -0.22   0.05  -0.01
    21   9     0.01  -0.04   0.06    -0.02  -0.19  -0.07    -0.06  -0.03  -0.22
                      4                      5                      6
                      A                      A                      A
 Frequencies --     39.2003                40.7381                49.0822
 Red. masses --     18.0471                15.1930                18.2699
 Frc consts  --      0.0163                 0.0149                 0.0259
 IR Inten    --      0.0478                 2.8244                 0.2936
  Atom  AN      X      Y      Z        X      Y      Z        X      Y      Z
     1   6    -0.02  -0.02   0.02    -0.05   0.08   0.01    -0.02  -0.07   0.02
     2   9    -0.06  -0.03   0.31    -0.02   0.12   0.04    -0.08  -0.12   0.17
     3   9     0.16  -0.21  -0.08    -0.07   0.05  -0.02     0.13  -0.14  -0.01
     4   9    -0.15   0.17  -0.12    -0.08   0.12  -0.02    -0.07   0.01  -0.04
     5   6    -0.01  -0.01  -0.04    -0.02   0.04   0.03    -0.04  -0.00  -0.06
     6   9     0.01   0.05  -0.07    -0.01   0.04   0.03    -0.04   0.04  -0.09
     7   9    -0.04  -0.07  -0.08     0.02   0.03   0.03    -0.11  -0.05  -0.10
     8   9     0.07   0.24   0.18    -0.07   0.04   0.08     0.05   0.14   0.02
     9   9    -0.14  -0.24   0.15    -0.06  -0.05   0.08    -0.05  -0.04   0.00
    10   6    -0.02  -0.00   0.00    -0.05  -0.00   0.05    -0.01   0.05  -0.05
    11   8     0.02  -0.00  -0.29    -0.03  -0.02   0.02    -0.01   0.07  -0.17
    12   6     0.01   0.00  -0.11    -0.03  -0.01  -0.02    -0.02   0.05  -0.07
    13   6    -0.05  -0.00  -0.09     0.00  -0.03  -0.08    -0.08   0.06   0.00
    14   8    -0.16  -0.03  -0.04    -0.00  -0.06  -0.04    -0.11   0.08  -0.03
    15   8    -0.04  -0.00  -0.10     0.02  -0.03  -0.12    -0.11   0.05   0.06
    16   1    -0.07   0.00  -0.10     0.38  -0.23  -0.05     0.01  -0.04   0.11
    17   6     0.11   0.04   0.04    -0.06   0.04  -0.01     0.08   0.02   0.01
    18   9    -0.13  -0.02  -0.10     0.64  -0.48  -0.06     0.08  -0.11   0.10
    19   9    -0.09   0.06  -0.04    -0.12   0.03   0.00     0.45  -0.07   0.34
    20   9     0.40  -0.07  -0.03    -0.07   0.03  -0.01    -0.08   0.44   0.04
    21   9     0.12   0.15   0.34    -0.04   0.10  -0.02    -0.02  -0.33  -0.24
                      7                      8                      9
                      A                      A                      A
 Frequencies --     67.6375                85.4759               122.1269
 Red. masses --     16.4144                17.5275                13.7368
 Frc consts  --      0.0442                 0.0754                 0.1207
 IR Inten    --      1.2468                 0.4544                 0.5119
  Atom  AN      X      Y      Z        X      Y      Z        X      Y      Z
     1   6    -0.05   0.10  -0.01     0.06  -0.02   0.05    -0.10  -0.01  -0.01
     2   9     0.05   0.25   0.16    -0.03  -0.09   0.33    -0.09   0.01   0.01
     3   9    -0.06   0.04  -0.05     0.30  -0.16  -0.01    -0.11  -0.02  -0.02
     4   9    -0.26   0.17  -0.08    -0.06   0.12  -0.06    -0.11   0.01  -0.02
     5   6     0.07  -0.09  -0.08     0.04   0.05  -0.11    -0.09   0.00  -0.01
     6   9     0.19  -0.00  -0.12     0.02   0.27  -0.27    -0.13   0.04  -0.04
     7   9     0.15  -0.17  -0.13     0.04  -0.16  -0.27    -0.09  -0.03  -0.03
     8   9    -0.04  -0.19  -0.05    -0.09  -0.06  -0.09    -0.08  -0.01   0.00
     9   9    -0.04  -0.22  -0.04     0.21   0.24  -0.05    -0.02   0.07   0.01
    10   6    -0.00  -0.21  -0.05     0.04   0.09   0.03    -0.06   0.03   0.03
    11   8     0.00  -0.22  -0.05    -0.01   0.09   0.32    -0.06   0.03   0.09
    12   6     0.03  -0.09  -0.02    -0.01   0.02   0.17    -0.04   0.08   0.11
    13   6     0.19  -0.01   0.06    -0.06  -0.04   0.06     0.19   0.12   0.02
    14   8     0.04   0.04   0.01     0.10  -0.08   0.10    -0.02   0.08   0.10
    15   8     0.35   0.01   0.14    -0.16  -0.06  -0.02     0.60   0.18  -0.14
    16   1     0.15   0.01   0.19    -0.12  -0.00  -0.09     0.36   0.10  -0.20
    17   6    -0.07   0.05   0.01    -0.08  -0.03   0.05     0.03  -0.05   0.06
    18   9    -0.11   0.09   0.21     0.02  -0.01  -0.09    -0.03  -0.06  -0.18
    19   9    -0.15   0.00   0.16    -0.09   0.01  -0.07     0.23  -0.00  -0.08
    20   9    -0.14   0.17   0.02    -0.19  -0.17   0.09     0.04  -0.15   0.07
    21   9    -0.03   0.14  -0.12    -0.06   0.01  -0.01    -0.03  -0.23   0.13
                     10                     11                     12
                      A                      A                      A
 Frequencies --    148.2984               170.5858               205.3935
 Red. masses --     15.1504                15.3054                12.8680
 Frc consts  --      0.1963                 0.2624                 0.3198
 IR Inten    --      0.2224                 0.1436                 9.4784
  Atom  AN      X      Y      Z        X      Y      Z        X      Y      Z
     1   6     0.06   0.02   0.00    -0.13  -0.05   0.00    -0.03  -0.01   0.00
     2   9    -0.12  -0.22  -0.03    -0.06   0.06   0.02    -0.06  -0.04  -0.01
     3   9     0.22   0.01   0.03    -0.26  -0.08  -0.04    -0.04  -0.02  -0.01
     4   9     0.22  -0.00   0.03    -0.20  -0.02  -0.02    -0.01  -0.00  -0.00
     5   6    -0.05   0.20  -0.01    -0.09  -0.06   0.03    -0.03   0.03   0.01
     6   9    -0.09   0.22  -0.03    -0.22   0.01  -0.03    -0.07   0.06  -0.02
     7   9    -0.10   0.21  -0.01    -0.11  -0.14  -0.03    -0.07   0.03  -0.00
     8   9    -0.15   0.12  -0.03    -0.07  -0.05   0.02    -0.11  -0.02  -0.02
     9   9    -0.24   0.09  -0.05     0.10   0.17   0.03    -0.10   0.02  -0.02
    10   6    -0.08   0.11  -0.03     0.00   0.05   0.10    -0.02   0.01   0.01
    11   8     0.05  -0.07  -0.05     0.04   0.03   0.24     0.06  -0.09   0.03
    12   6     0.02  -0.19  -0.08     0.08  -0.01  -0.09     0.09  -0.09  -0.02
    13   6     0.13  -0.18  -0.07     0.10  -0.06  -0.16     0.11   0.03   0.25
    14   8     0.05  -0.17  -0.09     0.40  -0.08  -0.20     0.26   0.22  -0.02
    15   8     0.34  -0.15  -0.02    -0.11  -0.10  -0.11    -0.06   0.00   0.47
    16   1     0.23  -0.08   0.24    -0.12   0.01   0.31    -0.09  -0.25  -0.42
    17   6    -0.03  -0.08  -0.01     0.11   0.03  -0.07     0.06  -0.05  -0.04
    18   9     0.01   0.06   0.25     0.03   0.08   0.30    -0.02  -0.10  -0.41
    19   9    -0.19  -0.13   0.14     0.07   0.01   0.00    -0.08  -0.09   0.11
    20   9     0.01   0.01  -0.03     0.29   0.12  -0.12     0.14   0.06  -0.07
    21   9     0.02   0.04  -0.04     0.11   0.04   0.04     0.11   0.07  -0.07
                     13                     14                     15
                      A                      A                      A
 Frequencies --    216.2333               225.0833               231.8678
 Red. masses --     17.4339                17.9681                18.7654
 Frc consts  --      0.4803                 0.5363                 0.5944
 IR Inten    --      2.4920                 2.8283                 0.1172
  Atom  AN      X      Y      Z        X      Y      Z        X      Y      Z
     1   6     0.04   0.05   0.10     0.04   0.04  -0.11    -0.01   0.01   0.08
     2   9    -0.04  -0.08  -0.01    -0.06  -0.07   0.04    -0.03  -0.03   0.03
     3   9    -0.06  -0.08  -0.01     0.43   0.20   0.10    -0.17  -0.08  -0.04
     4   9     0.40   0.18   0.04    -0.22  -0.13  -0.00     0.21   0.10   0.01
     5   6     0.01   0.02   0.17     0.03   0.02  -0.16     0.00   0.01  -0.06
     6   9     0.16   0.27   0.01    -0.07  -0.23   0.01     0.50  -0.06   0.07
     7   9     0.19  -0.22   0.01     0.27   0.28   0.07    -0.47   0.09  -0.06
     8   9    -0.06  -0.33  -0.03    -0.39  -0.08  -0.03    -0.45   0.13  -0.03
     9   9    -0.23  -0.00  -0.01     0.13  -0.16   0.07     0.35  -0.18   0.08
    10   6    -0.12  -0.14   0.11    -0.08  -0.10  -0.02    -0.00  -0.02  -0.12
    11   8    -0.17  -0.08   0.10    -0.12  -0.07   0.15    -0.01  -0.03   0.04
    12   6    -0.14   0.06  -0.10    -0.08   0.05  -0.05    -0.00   0.01  -0.00
    13   6    -0.05   0.12  -0.08     0.01   0.09  -0.05     0.02   0.01  -0.01
    14   8    -0.00   0.15  -0.13     0.11   0.10  -0.10     0.04   0.01  -0.01
    15   8    -0.07   0.12  -0.05    -0.06   0.08  -0.05     0.00   0.01  -0.02
    16   1    -0.04   0.07   0.01    -0.07   0.06   0.02    -0.03   0.03   0.02
    17   6    -0.07   0.04  -0.07    -0.05   0.03  -0.04     0.00   0.01  -0.00
    18   9     0.01  -0.00   0.01     0.00   0.00   0.02    -0.00   0.01   0.02
    19   9     0.03   0.03  -0.06     0.03   0.03  -0.04     0.02   0.01  -0.02
    20   9     0.18   0.14  -0.14     0.13   0.10  -0.09     0.02   0.01  -0.01
    21   9    -0.16  -0.17   0.17    -0.11  -0.12   0.13    -0.00  -0.01   0.01
                     16                     17                     18
                      A                      A                      A
 Frequencies --    249.3676               292.4065               304.5821
 Red. masses --     17.2500                18.1252                15.5729
 Frc consts  --      0.6320                 0.9131                 0.8512
 IR Inten    --      2.9392                 4.5975                 2.5447
  Atom  AN      X      Y      Z        X      Y      Z        X      Y      Z
     1   6    -0.04   0.01  -0.00     0.26  -0.13   0.04     0.04  -0.02  -0.06
     2   9    -0.14  -0.11  -0.02     0.64   0.34   0.11     0.08   0.04  -0.08
     3   9     0.00   0.00   0.00     0.07  -0.18  -0.03     0.09   0.01  -0.03
     4   9     0.01   0.00  -0.00     0.08  -0.18   0.07    -0.06  -0.06  -0.04
     5   6    -0.02   0.05   0.01     0.07  -0.04   0.02     0.01  -0.00  -0.05
     6   9    -0.01   0.07  -0.01    -0.19  -0.06  -0.01     0.17  -0.04  -0.00
     7   9     0.02   0.05   0.01    -0.12  -0.07  -0.03    -0.19   0.04  -0.05
     8   9    -0.23  -0.14  -0.05    -0.34   0.06  -0.02     0.18   0.08   0.01
     9   9    -0.32  -0.13  -0.04    -0.24   0.09  -0.05    -0.32  -0.08  -0.06
    10   6    -0.07  -0.11  -0.01    -0.06   0.07   0.01    -0.02  -0.01  -0.06
    11   8     0.07  -0.20  -0.01    -0.01  -0.03   0.02     0.01  -0.01  -0.06
    12   6     0.18   0.06   0.13    -0.01  -0.00  -0.02     0.00   0.07   0.07
    13   6     0.10  -0.00   0.02    -0.02  -0.00  -0.00     0.14   0.13  -0.04
    14   8     0.03  -0.12   0.19    -0.11  -0.00   0.00     0.56   0.12  -0.06
    15   8    -0.16  -0.05  -0.07     0.02   0.00   0.02    -0.15   0.09  -0.16
    16   1    -0.11   0.04   0.05     0.07  -0.04  -0.01    -0.27   0.14   0.05
    17   6     0.18   0.17   0.07    -0.00   0.03  -0.02    -0.09  -0.02   0.12
    18   9     0.01   0.01   0.04    -0.00  -0.00  -0.00     0.02   0.00   0.04
    19   9     0.39   0.26  -0.22     0.03   0.04  -0.05    -0.04  -0.01   0.09
    20   9    -0.11  -0.07   0.17     0.02   0.05  -0.03    -0.18  -0.12   0.16
    21   9     0.24   0.26  -0.12    -0.02  -0.00   0.01    -0.14  -0.13   0.22
                     19                     20                     21
                      A                      A                      A
 Frequencies --    336.4362               345.1167               367.5093
 Red. masses --     18.3072                14.0231                17.2574
 Frc consts  --      1.2209                 0.9841                 1.3733
 IR Inten    --      0.4688                 5.6949                 0.9843
  Atom  AN      X      Y      Z        X      Y      Z        X      Y      Z
     1   6    -0.06  -0.13  -0.00     0.01   0.03   0.05     0.02   0.02  -0.12
     2   9    -0.05  -0.13   0.00     0.01   0.03   0.08     0.03   0.00  -0.26
     3   9    -0.23  -0.25  -0.11    -0.03   0.04   0.05     0.32   0.09  -0.03
     4   9    -0.22  -0.25   0.05     0.14   0.08   0.03    -0.23  -0.01  -0.13
     5   6     0.11   0.01   0.02    -0.02  -0.01   0.00    -0.01  -0.02   0.05
     6   9     0.42   0.02   0.06    -0.20  -0.03  -0.01     0.29  -0.01   0.10
     7   9     0.46   0.02   0.07     0.04  -0.04  -0.00    -0.30  -0.11  -0.04
     8   9    -0.23   0.25   0.04    -0.12  -0.08  -0.07     0.09  -0.16   0.13
     9   9    -0.17   0.25  -0.10     0.06  -0.10   0.01    -0.20   0.12   0.10
    10   6    -0.03   0.13  -0.01    -0.02  -0.05  -0.04    -0.05  -0.01   0.19
    11   8     0.03   0.09  -0.01    -0.02   0.00  -0.08    -0.07   0.03   0.30
    12   6    -0.01   0.03   0.00    -0.00   0.08   0.01    -0.03   0.03   0.08
    13   6    -0.04   0.06   0.01    -0.05   0.24  -0.00    -0.12   0.04   0.08
    14   8    -0.02   0.05   0.03     0.03   0.21   0.07    -0.18  -0.01   0.16
    15   8     0.00   0.07  -0.09    -0.10   0.24  -0.33     0.02   0.07  -0.10
    16   1     0.04   0.10   0.01    -0.19   0.40   0.06     0.09   0.16   0.01
    17   6     0.02  -0.04  -0.00     0.10  -0.13   0.02     0.06  -0.04  -0.07
    18   9     0.00  -0.00   0.01     0.01  -0.00   0.05    -0.00  -0.00   0.01
    19   9    -0.06  -0.08   0.09    -0.11  -0.23   0.31    -0.06  -0.08   0.05
    20   9     0.02  -0.06  -0.00     0.06  -0.27   0.04     0.23   0.01  -0.12
    21   9     0.05   0.01  -0.07     0.21   0.09  -0.22     0.11   0.05  -0.23
                     22                     23                     24
                      A                      A                      A
 Frequencies --    378.0856               415.3761               471.4071
 Red. masses --     18.2826                13.4007                13.1482
 Frc consts  --      1.5398                 1.3623                 1.7215
 IR Inten    --      0.6225                10.7100                 4.7045
  Atom  AN      X      Y      Z        X      Y      Z        X      Y      Z
     1   6     0.00  -0.09  -0.01    -0.01   0.00   0.02     0.00   0.01  -0.06
     2   9     0.13   0.05  -0.01    -0.04  -0.02   0.09    -0.03   0.03   0.28
     3   9    -0.10  -0.24  -0.13    -0.10   0.03   0.02    -0.18   0.07  -0.06
     4   9    -0.18  -0.25   0.07     0.09   0.03   0.01     0.21  -0.11   0.03
     5   6     0.02   0.14   0.01     0.02  -0.00  -0.06     0.01   0.00  -0.25
     6   9     0.01   0.47  -0.21    -0.07  -0.08  -0.04     0.07  -0.23  -0.16
     7   9    -0.09   0.45   0.22     0.03   0.03  -0.05     0.02   0.24  -0.16
     8   9     0.16  -0.26  -0.06     0.03   0.11  -0.02     0.19  -0.00   0.01
     9   9     0.12  -0.22   0.13    -0.06  -0.05  -0.07    -0.20  -0.09   0.04
    10   6     0.05  -0.08   0.03     0.05  -0.01  -0.07    -0.05   0.01  -0.02
    11   8     0.01  -0.06   0.02     0.12  -0.07  -0.02    -0.16   0.11   0.33
    12   6     0.02   0.01   0.02     0.09  -0.00   0.20    -0.12   0.05   0.06
    13   6    -0.01   0.04   0.02     0.06   0.05   0.26    -0.14  -0.05  -0.02
    14   8    -0.05   0.03   0.06     0.10  -0.14   0.48     0.01  -0.03  -0.08
    15   8    -0.03   0.04  -0.07    -0.05   0.03  -0.19     0.05  -0.02   0.07
    16   1    -0.08   0.12   0.01    -0.12   0.43   0.03     0.45  -0.22  -0.03
    17   6    -0.00  -0.01  -0.02    -0.01   0.00  -0.04    -0.02   0.01  -0.00
    18   9     0.00  -0.00   0.01     0.01  -0.01   0.02    -0.01   0.00  -0.00
    19   9    -0.05  -0.02   0.00    -0.24   0.04  -0.17     0.09   0.00   0.06
    20   9     0.04   0.02  -0.03     0.19   0.25  -0.11     0.10  -0.07  -0.04
    21   9    -0.02  -0.04  -0.02    -0.09  -0.22  -0.11     0.01   0.10  -0.09
                     25                     26                     27
                      A                      A                      A
 Frequencies --    499.9544               528.8758               535.0542
 Red. masses --      1.0887                14.1839                 7.9514
 Frc consts  --      0.1603                 2.3375                 1.3412
 IR Inten    --    123.7584                24.7939                39.5820
  Atom  AN      X      Y      Z        X      Y      Z        X      Y      Z
     1   6     0.00  -0.00   0.01    -0.09   0.12   0.07     0.06  -0.09   0.01
     2   9     0.00  -0.00  -0.01    -0.09   0.18  -0.15     0.08  -0.13   0.01
     3   9     0.01  -0.01   0.01     0.17  -0.21  -0.12    -0.09   0.08   0.12
     4   9    -0.01   0.01  -0.00     0.00  -0.02   0.24    -0.05   0.07  -0.14
     5   6    -0.00  -0.00   0.01    -0.11   0.07   0.06     0.06  -0.04   0.01
     6   9    -0.01   0.01   0.00    -0.03   0.04   0.15     0.00   0.01  -0.05
     7   9    -0.00  -0.01   0.01     0.08  -0.11  -0.03    -0.01   0.02   0.05
     8   9    -0.01   0.00  -0.00     0.01   0.06  -0.20    -0.04  -0.02  -0.02
     9   9     0.01  -0.00  -0.00     0.03  -0.18   0.04    -0.04  -0.01   0.01
    10   6     0.00  -0.01  -0.01    -0.10   0.04  -0.13     0.06   0.02   0.01
    11   8     0.00   0.00  -0.01    -0.17   0.21  -0.08     0.05   0.02   0.01
    12   6    -0.00   0.01   0.00    -0.16   0.10   0.14     0.09   0.12   0.06
    13   6    -0.02   0.01   0.00    -0.10  -0.08  -0.00     0.13   0.01  -0.19
    14   8     0.03  -0.00   0.01     0.20  -0.17   0.04    -0.08   0.01  -0.10
    15   8    -0.04   0.00  -0.00     0.09  -0.06   0.11    -0.03  -0.01   0.08
    16   1     1.00  -0.01  -0.05    -0.27  -0.32   0.01    -0.06  -0.75   0.00
    17   6    -0.00   0.00   0.00    -0.06   0.09   0.08     0.01   0.13   0.10
    18   9    -0.03  -0.00   0.00     0.01   0.01  -0.01     0.00   0.02   0.00
    19   9    -0.01   0.00   0.00     0.01   0.16   0.07    -0.14   0.20   0.07
    20   9     0.00  -0.00   0.00     0.22  -0.12   0.04     0.14  -0.13   0.13
    21   9    -0.00  -0.00  -0.00    -0.12  -0.01  -0.22    -0.08  -0.19  -0.18
                     28                     29                     30
                      A                      A                      A
 Frequencies --    549.0210               552.3132               576.1342
 Red. masses --     13.4390                14.0856                 1.6178
 Frc consts  --      2.3867                 2.5316                 0.3164
 IR Inten    --     17.4157                 5.6596               227.7299
  Atom  AN      X      Y      Z        X      Y      Z        X      Y      Z
     1   6     0.06  -0.17   0.09    -0.07   0.07  -0.04     0.01  -0.01  -0.03
     2   9     0.20  -0.17  -0.10    -0.08   0.13   0.03     0.01  -0.02   0.04
     3   9    -0.08   0.01   0.29     0.08  -0.01  -0.10    -0.02   0.04  -0.02
     4   9    -0.09   0.21  -0.20     0.08  -0.08   0.08     0.00  -0.04  -0.04
     5   6     0.01  -0.12   0.03    -0.06  -0.07  -0.02     0.00   0.02   0.01
     6   9     0.00   0.08  -0.14    -0.00   0.01  -0.11     0.01   0.00   0.03
     7   9     0.03   0.01   0.20    -0.05   0.03   0.08    -0.00  -0.01  -0.02
     8   9     0.01   0.14  -0.02     0.04   0.10   0.36    -0.01  -0.05  -0.03
     9   9     0.01  -0.09  -0.13     0.13   0.18  -0.28    -0.01   0.02   0.07
    10   6    -0.04  -0.04  -0.11    -0.05  -0.23   0.03    -0.01   0.03   0.03
    11   8    -0.16   0.06   0.03    -0.06  -0.34  -0.03     0.02   0.04  -0.06
    12   6    -0.19  -0.02   0.04    -0.02  -0.05  -0.05     0.00   0.00  -0.03
    13   6    -0.18  -0.05   0.15     0.22   0.04  -0.03     0.01  -0.01   0.01
    14   8     0.15  -0.11   0.09    -0.05  -0.01   0.04     0.01  -0.04  -0.02
    15   8     0.08  -0.02   0.01    -0.08  -0.01   0.02     0.01  -0.02   0.04
    16   1    -0.23   0.42   0.01     0.02   0.43  -0.00     0.02   0.98  -0.01
    17   6    -0.12  -0.00  -0.06    -0.12   0.13   0.00    -0.01   0.03   0.00
    18   9     0.01  -0.01  -0.00    -0.00  -0.01  -0.00    -0.00  -0.03  -0.01
    19   9     0.20  -0.04   0.07     0.10   0.14   0.16     0.00   0.04   0.03
    20   9     0.06  -0.06  -0.16     0.13  -0.19  -0.06     0.01  -0.03   0.00
    21   9    -0.13   0.20  -0.00    -0.21   0.04  -0.11    -0.03  -0.01  -0.02
                     31                     32                     33
                      A                      A                      A
 Frequencies --    584.1530               592.0198               624.4388
 Red. masses --      3.8148                14.7301                17.0498
 Frc consts  --      0.7670                 3.0418                 3.9170
 IR Inten    --     64.6955                26.4671                 5.5781
  Atom  AN      X      Y      Z        X      Y      Z        X      Y      Z
     1   6    -0.02   0.01   0.09    -0.05  -0.03  -0.09     0.04   0.02  -0.18
     2   9    -0.00   0.01  -0.12     0.00   0.06   0.10    -0.04  -0.01   0.19
     3   9     0.02  -0.12   0.06     0.05   0.10  -0.01     0.01   0.25  -0.19
     4   9    -0.02   0.11   0.09     0.08  -0.10  -0.10     0.02  -0.24  -0.16
     5   6     0.01  -0.00  -0.03    -0.10  -0.15   0.03    -0.00   0.02   0.21
     6   9    -0.03  -0.04  -0.04     0.06   0.06  -0.14    -0.05   0.25   0.23
     7   9     0.02   0.04  -0.02    -0.02  -0.03   0.22    -0.03  -0.26   0.18
     8   9     0.04   0.08  -0.00    -0.03  -0.01   0.17     0.04   0.29  -0.17
     9   9    -0.03  -0.07  -0.07     0.07   0.07  -0.13     0.01  -0.29  -0.20
    10   6     0.02  -0.02  -0.06    -0.14  -0.14   0.01     0.07  -0.00  -0.21
    11   8    -0.00  -0.05   0.19    -0.23   0.06  -0.15     0.01  -0.06   0.36
    12   6     0.03  -0.00  -0.02    -0.20   0.01   0.04     0.06   0.01   0.04
    13   6     0.02  -0.00  -0.05    -0.28  -0.05   0.02     0.05   0.00  -0.04
    14   8    -0.08   0.04  -0.10     0.18  -0.02  -0.11    -0.11   0.06  -0.06
    15   8    -0.01  -0.01   0.03     0.10   0.00   0.04    -0.02  -0.01  -0.01
    16   1     0.03   0.91  -0.00    -0.15   0.30   0.00     0.04   0.17  -0.00
    17   6     0.05  -0.00   0.03     0.14  -0.09   0.17     0.00  -0.00  -0.02
    18   9    -0.00  -0.02  -0.00     0.01  -0.01  -0.01    -0.00  -0.00   0.00
    19   9    -0.06   0.01  -0.04    -0.15   0.02  -0.22    -0.00  -0.03   0.01
    20   9    -0.01   0.02   0.07     0.04   0.16   0.32    -0.01   0.01  -0.03
    21   9     0.07  -0.06  -0.01     0.27  -0.10  -0.11     0.01  -0.00   0.02
                     34                     35                     36
                      A                      A                      A
 Frequencies --    669.0738               699.6892               716.4854
 Red. masses --     15.9829                13.9604                14.8022
 Frc consts  --      4.2155                 4.0268                 4.4770
 IR Inten    --      2.7827                15.8175                40.7413
  Atom  AN      X      Y      Z        X      Y      Z        X      Y      Z
     1   6    -0.16  -0.00  -0.02     0.00  -0.06   0.00    -0.12  -0.08  -0.02
     2   9    -0.15   0.20  -0.02     0.12  -0.04   0.02    -0.03   0.12  -0.00
     3   9     0.12  -0.01   0.02    -0.04  -0.02   0.09     0.04  -0.04   0.12
     4   9     0.12  -0.02   0.01    -0.01  -0.02  -0.09     0.07  -0.04  -0.10
     5   6    -0.06  -0.31  -0.01    -0.13   0.13  -0.02    -0.12  -0.07  -0.02
     6   9     0.08  -0.08  -0.38     0.01   0.06   0.18     0.06  -0.03  -0.08
     7   9    -0.03  -0.09   0.38     0.06   0.06  -0.17     0.04  -0.03   0.10
     8   9    -0.07   0.01  -0.13     0.07   0.01   0.01     0.06   0.08  -0.22
     9   9    -0.11   0.00   0.09     0.08   0.01  -0.01     0.00   0.07   0.23
    10   6     0.03   0.06   0.01    -0.23  -0.05  -0.02    -0.11   0.16  -0.02
    11   8     0.06   0.27   0.01    -0.29   0.03  -0.04    -0.03  -0.07   0.02
    12   6     0.11   0.18   0.04    -0.20   0.09   0.05    -0.08  -0.32  -0.06
    13   6     0.31   0.08  -0.20     0.59   0.16  -0.29     0.32  -0.10   0.28
    14   8    -0.07  -0.17   0.10    -0.04  -0.19   0.13    -0.10   0.34  -0.07
    15   8    -0.06   0.02   0.13    -0.14   0.05   0.15    -0.09  -0.20  -0.22
    16   1     0.02   0.12  -0.01     0.07   0.09  -0.01     0.13  -0.09   0.00
    17   6     0.04   0.01  -0.11    -0.03  -0.10   0.04    -0.14  -0.08   0.15
    18   9    -0.00  -0.00  -0.01    -0.00  -0.00  -0.01    -0.00   0.01   0.02
    19   9    -0.04  -0.09   0.07    -0.00  -0.21  -0.09     0.08  -0.02  -0.12
    20   9    -0.10  -0.00  -0.16     0.02   0.09   0.04     0.14   0.04   0.20
    21   9     0.05  -0.03   0.09     0.11   0.06  -0.02    -0.13   0.10  -0.11
                     37                     38                     39
                      A                      A                      A
 Frequencies --    747.6527               772.0763               798.8184
 Red. masses --     13.1490                14.9387                15.7208
 Frc consts  --      4.3305                 5.2467                 5.9105
 IR Inten    --     68.9545                 5.9805                30.1206
  Atom  AN      X      Y      Z        X      Y      Z        X      Y      Z
     1   6     0.16   0.12   0.02    -0.24  -0.17  -0.04    -0.06  -0.03  -0.01
     2   9     0.02  -0.15   0.00    -0.12   0.27  -0.01    -0.07   0.08  -0.01
     3   9    -0.03   0.08  -0.20     0.04  -0.15   0.33     0.02  -0.03   0.06
     4   9    -0.08   0.08   0.19     0.13  -0.14  -0.30     0.03  -0.03  -0.06
     5   6     0.16  -0.04   0.02    -0.11   0.07  -0.02     0.05  -0.00   0.01
     6   9    -0.03  -0.03  -0.07     0.01   0.07   0.15    -0.00  -0.01  -0.02
     7   9    -0.05  -0.03   0.06     0.05   0.07  -0.14    -0.01  -0.01   0.02
     8   9    -0.07  -0.06   0.08    -0.03  -0.06   0.10     0.01   0.06  -0.11
     9   9    -0.03  -0.02  -0.07     0.01  -0.03  -0.09    -0.02   0.05   0.10
    10   6     0.14  -0.01   0.02     0.05  -0.01   0.00     0.10   0.04   0.02
    11   8     0.02   0.12  -0.12     0.09  -0.02  -0.07     0.26  -0.27   0.06
    12   6     0.06   0.15   0.50     0.20   0.20   0.46     0.03  -0.02  -0.15
    13   6     0.08  -0.11  -0.16    -0.16  -0.12  -0.13    -0.28   0.21  -0.29
    14   8    -0.04   0.18  -0.11    -0.01   0.15  -0.08     0.04  -0.25  -0.01
    15   8    -0.01  -0.15  -0.01     0.05  -0.11  -0.00     0.02   0.37   0.16
    16   1     0.05   0.36  -0.00     0.02   0.19  -0.00    -0.09  -0.01  -0.00
    17   6    -0.16  -0.14   0.07    -0.02  -0.01  -0.05    -0.10  -0.10   0.13
    18   9    -0.00  -0.01   0.01    -0.00  -0.00   0.00     0.00  -0.00  -0.01
    19   9     0.07  -0.24  -0.11     0.00  -0.05   0.02     0.07  -0.24  -0.15
    20   9     0.12   0.10   0.06    -0.01   0.02  -0.11     0.14   0.06   0.26
    21   9    -0.17   0.16  -0.05    -0.03   0.01   0.03    -0.27   0.16  -0.08
                     40                     41                     42
                      A                      A                      A
 Frequencies --    842.8881              1004.8644              1098.5692
 Red. masses --     15.5336                13.4775                13.5866
 Frc consts  --      6.5022                 8.0182                 9.6608
 IR Inten    --     13.2437               177.2028               164.2425
  Atom  AN      X      Y      Z        X      Y      Z        X      Y      Z
     1   6    -0.03  -0.02  -0.00     0.23   0.08   0.03     0.08   0.08   0.01
     2   9    -0.09   0.08  -0.01    -0.25   0.13  -0.03    -0.04   0.01  -0.00
     3   9     0.01  -0.05   0.08    -0.03  -0.09   0.10    -0.01  -0.03   0.03
     4   9     0.03  -0.05  -0.07    -0.00  -0.09  -0.11    -0.01  -0.03  -0.03
     5   6     0.12   0.01   0.02     0.68  -0.00   0.09     0.13  -0.02   0.03
     6   9    -0.04   0.04   0.07    -0.08   0.00  -0.01    -0.02   0.01   0.01
     7   9    -0.01   0.04  -0.07    -0.08   0.00  -0.02    -0.01   0.01  -0.01
     8   9    -0.12  -0.17   0.25    -0.02   0.06  -0.08     0.02   0.08  -0.08
     9   9    -0.05  -0.18  -0.28    -0.04   0.06   0.06    -0.00   0.08   0.08
    10   6     0.23  -0.06   0.02     0.32  -0.06   0.06    -0.07  -0.20  -0.01
    11   8     0.12   0.54   0.07    -0.21  -0.10  -0.05    -0.26  -0.07  -0.00
    12   6    -0.00  -0.10  -0.41    -0.32  -0.04   0.06     0.32   0.46  -0.25
    13   6     0.18   0.03   0.22     0.08   0.01   0.01    -0.04  -0.07   0.18
    14   8    -0.04  -0.06   0.02     0.02  -0.02  -0.01     0.01   0.02   0.05
    15   8    -0.03  -0.00  -0.04    -0.02   0.00   0.00     0.05  -0.22  -0.03
    16   1     0.02  -0.08  -0.00    -0.01   0.05  -0.00    -0.01  -0.07   0.01
    17   6    -0.02  -0.03   0.06    -0.07  -0.04   0.04     0.24   0.33  -0.20
    18   9    -0.00   0.00   0.00     0.00  -0.00   0.00     0.00   0.00   0.00
    19   9     0.02  -0.08  -0.06     0.00   0.07   0.01    -0.04  -0.27  -0.03
    20   9     0.06   0.00   0.17    -0.01   0.00  -0.06     0.01  -0.02   0.17
    21   9    -0.15   0.06  -0.04     0.13  -0.02  -0.01    -0.16   0.01   0.01
                     43                     44                     45
                      A                      A                      A
 Frequencies --   1164.5157              1172.3593              1191.5990
 Red. masses --     13.5135                13.1852                13.2112
 Frc consts  --     10.7971                10.6772                11.0523
 IR Inten    --    239.3174               146.0785                23.7773
  Atom  AN      X      Y      Z        X      Y      Z        X      Y      Z
     1   6     0.35   0.09   0.10    -0.12  -0.38   0.10     0.06  -0.17  -0.26
     2   9    -0.11   0.06  -0.02    -0.02   0.04  -0.01    -0.04   0.03   0.01
     3   9    -0.05  -0.06   0.05     0.05   0.12  -0.12    -0.01  -0.01   0.03
     4   9    -0.03  -0.07  -0.09     0.02   0.08   0.07     0.00   0.08   0.11
     5   6    -0.01   0.56   0.04    -0.05  -0.27   0.02    -0.01  -0.04  -0.00
     6   9     0.03  -0.17  -0.17     0.00   0.07   0.07     0.03  -0.01  -0.00
     7   9    -0.01  -0.17   0.16     0.04   0.06  -0.06    -0.01   0.02  -0.02
     8   9     0.03  -0.14   0.16    -0.03  -0.12   0.14     0.00   0.06  -0.13
     9   9     0.05  -0.08  -0.05    -0.03  -0.01   0.04     0.04  -0.16  -0.22
    10   6    -0.19   0.43  -0.22     0.40   0.50  -0.29     0.02   0.26   0.67
    11   8    -0.11  -0.04   0.01    -0.29  -0.16  -0.02    -0.14  -0.03  -0.04
    12   6     0.14  -0.10   0.00     0.06  -0.01   0.01     0.02  -0.15  -0.06
    13   6    -0.02  -0.01  -0.07     0.03   0.00   0.07    -0.07  -0.04  -0.25
    14   8     0.01   0.01   0.05     0.01  -0.08  -0.03     0.04   0.14   0.22
    15   8    -0.00   0.04   0.01    -0.01   0.06  -0.00     0.02  -0.06   0.03
    16   1     0.04   0.03  -0.00     0.03   0.01  -0.00     0.05   0.06  -0.01
    17   6     0.08   0.03  -0.06    -0.01   0.14  -0.07     0.05   0.02  -0.24
    18   9    -0.00  -0.00   0.00    -0.00  -0.00   0.00    -0.00  -0.00   0.00
    19   9    -0.00  -0.01   0.00    -0.00  -0.06  -0.01     0.00   0.02   0.01
    20   9     0.00  -0.00   0.03     0.01  -0.01   0.03     0.02  -0.00   0.11
    21   9    -0.04   0.00   0.01     0.02  -0.01   0.00    -0.02   0.00   0.01
                     46                     47                     48
                      A                      A                      A
 Frequencies --   1218.8572              1223.7060              1226.5856
 Red. masses --     13.3954                13.0663                13.1583
 Frc consts  --     11.7250                11.5281                11.6639
 IR Inten    --    104.8257                46.0318               239.8069
  Atom  AN      X      Y      Z        X      Y      Z        X      Y      Z
     1   6     0.09  -0.02  -0.26    -0.01   0.07  -0.12     0.03  -0.07  -0.14
     2   9    -0.01   0.01   0.01     0.02  -0.02   0.01    -0.01   0.01   0.01
     3   9    -0.03  -0.05   0.07     0.01  -0.00   0.02     0.00   0.01   0.01
     4   9    -0.00   0.04   0.07    -0.01  -0.02  -0.00    -0.01   0.02   0.03
     5   6    -0.08   0.13  -0.08    -0.10  -0.03   0.79    -0.08   0.05   0.42
     6   9     0.02  -0.03  -0.01     0.03  -0.12  -0.19     0.02  -0.08  -0.12
     7   9    -0.01  -0.05   0.05     0.02   0.13  -0.20     0.01   0.05  -0.09
     8   9     0.00   0.02  -0.06    -0.01   0.03  -0.02    -0.01  -0.00   0.00
     9   9     0.03  -0.06  -0.09     0.01  -0.00   0.01     0.01  -0.03  -0.03
    10   6    -0.01   0.11   0.31     0.02  -0.04  -0.08     0.01   0.03  -0.01
    11   8    -0.01  -0.07  -0.06    -0.04   0.01  -0.00     0.13  -0.01   0.02
    12   6     0.09   0.19   0.15     0.08   0.02   0.06    -0.17  -0.01  -0.09
    13   6     0.11   0.07   0.50     0.04   0.02   0.08    -0.06  -0.03  -0.11
    14   8    -0.07  -0.30  -0.39    -0.02  -0.07  -0.07     0.03   0.11   0.10
    15   8    -0.04   0.18  -0.06    -0.01   0.05  -0.01     0.02  -0.09   0.01
    16   1     0.03  -0.12  -0.01     0.01  -0.01   0.00    -0.03   0.00   0.00
    17   6    -0.26   0.12   0.06    -0.01  -0.27  -0.30    -0.14   0.54   0.48
    18   9    -0.00   0.00   0.00    -0.00  -0.00  -0.00     0.00   0.00   0.00
    19   9     0.01  -0.07  -0.01     0.00   0.12   0.04     0.00  -0.22  -0.08
    20   9     0.01  -0.00  -0.03     0.02   0.02   0.11    -0.03  -0.03  -0.17
    21   9     0.11  -0.03  -0.00    -0.02   0.02   0.02     0.11  -0.06  -0.03
                     49                     50                     51
                      A                      A                      A
 Frequencies --   1247.5762              1252.5825              1264.4544
 Red. masses --     13.0793                13.0403                13.1988
 Frc consts  --     11.9942                12.0545                12.4335
 IR Inten    --    354.2180               242.2968               699.4862
  Atom  AN      X      Y      Z        X      Y      Z        X      Y      Z
     1   6     0.25  -0.36  -0.26    -0.29   0.58  -0.45    -0.20   0.18   0.62
     2   9    -0.11   0.09   0.00     0.17  -0.14   0.05     0.06  -0.05  -0.03
     3   9    -0.01   0.02   0.02    -0.03  -0.16   0.18     0.04   0.07  -0.14
     4   9    -0.01   0.10   0.12     0.02  -0.03   0.03     0.01  -0.13  -0.19
     5   6     0.01  -0.03   0.05     0.02  -0.07  -0.04    -0.03  -0.00   0.11
     6   9     0.01   0.03   0.02    -0.00   0.02   0.02     0.01  -0.07  -0.07
     7   9     0.00   0.02  -0.02    -0.02  -0.04   0.03     0.01   0.05  -0.05
     8   9     0.01   0.01  -0.00    -0.02  -0.04   0.04    -0.00   0.05  -0.09
     9   9     0.01   0.01   0.01    -0.02  -0.00   0.02     0.02  -0.08  -0.11
    10   6    -0.11  -0.05  -0.03     0.23   0.18  -0.09     0.05   0.12   0.39
    11   8    -0.03  -0.00   0.01    -0.18  -0.03  -0.01    -0.12  -0.03  -0.04
    12   6     0.02   0.04   0.02     0.07  -0.14   0.02     0.06  -0.04   0.05
    13   6     0.04   0.02   0.06     0.00  -0.01  -0.04     0.03   0.01   0.09
    14   8    -0.02  -0.03  -0.08     0.01   0.00   0.02    -0.01  -0.06  -0.09
    15   8    -0.01   0.02  -0.01    -0.01   0.05   0.01    -0.02   0.07  -0.01
    16   1     0.02  -0.01  -0.00     0.03   0.04  -0.01     0.05  -0.01  -0.01
    17   6     0.58  -0.27   0.38     0.23   0.02   0.16     0.30  -0.01   0.26
    18   9    -0.00   0.00  -0.00    -0.00  -0.00   0.00    -0.00   0.00   0.00
    19   9    -0.03   0.06  -0.01    -0.01  -0.01  -0.01    -0.02  -0.02  -0.02
    20   9    -0.07   0.02  -0.18    -0.03  -0.00  -0.07    -0.04   0.00  -0.12
    21   9    -0.23   0.07  -0.03    -0.08   0.02  -0.01    -0.10   0.03  -0.02
                     52                     53                     54
                      A                      A                      A
 Frequencies --   1285.1445              1354.9628              1370.8370
 Red. masses --     12.6918                12.3093                12.4972
 Frc consts  --     12.3503                13.3150                13.8368
 IR Inten    --    128.8453               147.0986                79.4218
  Atom  AN      X      Y      Z        X      Y      Z        X      Y      Z
     1   6    -0.19  -0.01  -0.03    -0.53  -0.20  -0.08    -0.11  -0.05  -0.01
     2   9     0.07  -0.03   0.01     0.09  -0.04   0.01     0.02  -0.01   0.00
     3   9     0.01   0.01  -0.01     0.05   0.05  -0.05     0.01   0.01  -0.01
     4   9     0.01   0.01   0.01     0.04   0.05   0.06     0.01   0.01   0.01
     5   6    -0.12   0.27  -0.02     0.60   0.11   0.08     0.10   0.05   0.02
     6   9     0.02  -0.06  -0.05    -0.04  -0.02  -0.02    -0.00  -0.01  -0.01
     7   9     0.00  -0.07   0.06    -0.04  -0.02   0.01    -0.01  -0.01   0.01
     8   9    -0.02  -0.03   0.02     0.03  -0.04   0.04     0.00   0.01  -0.01
     9   9    -0.01  -0.03  -0.03     0.05  -0.04  -0.04     0.01  -0.00  -0.00
    10   6     0.28   0.15   0.05    -0.45   0.15  -0.05    -0.02   0.04   0.03
    11   8     0.18  -0.19   0.02     0.08   0.00   0.01    -0.20  -0.02   0.00
    12   6    -0.49   0.52  -0.17    -0.04   0.00   0.06     0.46   0.24  -0.31
    13   6     0.05   0.02   0.06     0.02   0.01   0.04    -0.08  -0.03  -0.06
    14   8     0.01   0.03   0.04    -0.01  -0.02  -0.04     0.02   0.04   0.12
    15   8     0.03  -0.23  -0.00    -0.01   0.01  -0.01     0.03  -0.07   0.01
    16   1     0.01  -0.04   0.01     0.01  -0.04   0.00    -0.01   0.05  -0.01
    17   6     0.10  -0.23  -0.04     0.07   0.06  -0.07    -0.42  -0.41   0.38
    18   9    -0.00   0.00  -0.00    -0.00   0.00  -0.00     0.00  -0.00   0.00
    19   9    -0.02   0.04   0.02    -0.01  -0.02   0.00     0.03   0.11  -0.00
    20   9    -0.01   0.01   0.02    -0.00  -0.00   0.02     0.01   0.02  -0.11
    21   9    -0.01   0.03  -0.01    -0.02   0.00   0.00     0.10   0.00  -0.02
                     55                     56                     57
                      A                      A                      A
 Frequencies --   1391.0150              2033.1274              3880.9848
 Red. masses --     12.6713                12.7815                 1.0593
 Frc consts  --     14.4456                31.1287                 9.4005
 IR Inten    --     32.9058               506.4317               460.3556
  Atom  AN      X      Y      Z        X      Y      Z        X      Y      Z
     1   6    -0.27  -0.29  -0.05     0.00   0.00   0.00     0.00   0.00   0.00
     2   9     0.07  -0.01   0.01    -0.00  -0.00  -0.00    -0.00  -0.00  -0.00
     3   9     0.03   0.05  -0.04    -0.00  -0.00   0.00    -0.00  -0.00  -0.00
     4   9     0.01   0.06   0.05    -0.00  -0.00  -0.00    -0.00  -0.00  -0.00
     5   6    -0.06   0.56  -0.01     0.00  -0.00   0.00     0.00  -0.00   0.00
     6   9     0.01  -0.09  -0.07    -0.00  -0.00  -0.00    -0.00  -0.00  -0.00
     7   9    -0.01  -0.09   0.08    -0.00  -0.00   0.00    -0.00   0.00  -0.00
     8   9    -0.02   0.07  -0.06    -0.00  -0.00   0.00    -0.00   0.00  -0.00
     9   9    -0.04   0.08   0.07    -0.00  -0.00  -0.00    -0.00  -0.00  -0.00
    10   6     0.40  -0.41   0.02     0.01   0.01   0.00     0.00   0.00   0.00
    11   8    -0.19   0.09  -0.02    -0.03   0.01  -0.00    -0.00   0.00  -0.00
    12   6     0.11  -0.23   0.07     0.08  -0.17   0.09     0.00   0.00   0.00
    13   6    -0.00  -0.02  -0.03    -0.13   0.84   0.01     0.00  -0.00   0.00
    14   8    -0.00   0.00  -0.00    -0.01  -0.08  -0.07    -0.00   0.00   0.00
    15   8    -0.01   0.07   0.00     0.07  -0.45   0.01    -0.00   0.00  -0.00
    16   1    -0.01   0.02  -0.00     0.00  -0.07   0.06     0.05  -0.00   1.00
    17   6     0.04   0.08  -0.04    -0.01   0.00   0.01    -0.00  -0.00   0.00
    18   9     0.00  -0.00   0.00    -0.00   0.00  -0.01    -0.00  -0.00  -0.05
    19   9     0.00  -0.01  -0.00     0.00   0.01  -0.00     0.00   0.00  -0.00
    20   9    -0.00  -0.00   0.01     0.00   0.00  -0.01     0.00   0.00  -0.00
    21   9    -0.02  -0.00   0.00     0.00  -0.00  -0.00     0.00   0.00  -0.00

 -------------------
 - Thermochemistry -
 -------------------
 Temperature   298.150 Kelvin.  Pressure   1.00000 Atm.
 Atom     1 has atomic number  6 and mass  12.00000
 Atom     2 has atomic number  9 and mass  18.99840
 Atom     3 has atomic number  9 and mass  18.99840
 Atom     4 has atomic number  9 and mass  18.99840
 Atom     5 has atomic number  6 and mass  12.00000
 Atom     6 has atomic number  9 and mass  18.99840
 Atom     7 has atomic number  9 and mass  18.99840
 Atom     8 has atomic number  9 and mass  18.99840
 Atom     9 has atomic number  9 and mass  18.99840
 Atom    10 has atomic number  6 and mass  12.00000
 Atom    11 has atomic number  8 and mass  15.99491
 Atom    12 has atomic number  6 and mass  12.00000
 Atom    13 has atomic number  6 and mass  12.00000
 Atom    14 has atomic number  8 and mass  15.99491
 Atom    15 has atomic number  8 and mass  15.99491
 Atom    16 has atomic number  1 and mass   1.00783
 Atom    17 has atomic number  6 and mass  12.00000
 Atom    18 has atomic number  9 and mass  18.99840
 Atom    19 has atomic number  9 and mass  18.99840
 Atom    20 has atomic number  9 and mass  18.99840
 Atom    21 has atomic number  9 and mass  18.99840
 Molecular mass:   329.97500 amu.
 Principal axes and moments of inertia in atomic units:
                           1         2         3
     Eigenvalues --  3222.580308339.939879207.93477
           X            0.99997  -0.00720   0.00349
           Y            0.00720   0.99997  -0.00250
           Z           -0.00347   0.00252   0.99999
 This molecule is an asymmetric top.
 Rotational symmetry number  1.
 Warning -- assumption of classical behavior for rotation
           may cause significant error
 Rotational temperatures (Kelvin)      0.02688     0.01039     0.00941
 Rotational constants (GHZ):           0.56003     0.21640     0.19600
 Zero-point vibrational energy     236219.6 (Joules/Mol)
                                   56.45783 (Kcal/Mol)
 Warning -- explicit consideration of  32 degrees of freedom as
           vibrations may cause significant error
 Vibrational temperatures:     17.92    27.74    41.28    56.40    58.61
          (Kelvin)             70.62    97.32   122.98   175.71   213.37
                              245.43   295.52   311.11   323.84   333.61
                              358.78   420.71   438.23   484.06   496.55
                              528.76   543.98   597.63   678.25   719.32
                              760.93   769.82   789.92   794.66   828.93
                              840.47   851.78   898.43   962.65  1006.70
                             1030.86  1075.71  1110.85  1149.32  1212.73
                             1445.78  1580.60  1675.48  1686.76  1714.45
                             1753.66  1760.64  1764.78  1794.98  1802.19
                             1819.27  1849.04  1949.49  1972.33  2001.36
                             2925.22  5583.87
 
 Zero-point correction=                           0.089971 (Hartree/Particle)
 Thermal correction to Energy=                    0.109543
 Thermal correction to Enthalpy=                  0.110487
 Thermal correction to Gibbs Free Energy=         0.036990
 Sum of electronic and zero-point Energies=          -1553.109550
 Sum of electronic and thermal Energies=             -1553.089979
 Sum of electronic and thermal Enthalpies=           -1553.089034
 Sum of electronic and thermal Free Energies=        -1553.162531
 
                     E (Thermal)             CV                S
                      KCal/Mol        Cal/Mol-Kelvin    Cal/Mol-Kelvin
 Total                   68.739             67.027            154.687
 Electronic               0.000              0.000              0.000
 Translational            0.889              2.981             43.277
 Rotational               0.889              2.981             33.870
 Vibrational             66.962             61.066             77.541
 Vibration     1          0.593              1.987              7.575
 Vibration     2          0.593              1.986              6.707
 Vibration     3          0.593              1.984              5.918
 Vibration     4          0.594              1.981              5.299
 Vibration     5          0.594              1.981              5.223
 Vibration     6          0.595              1.978              4.854
 Vibration     7          0.598              1.970              4.221
 Vibration     8          0.601              1.959              3.761
 Vibration     9          0.610              1.931              3.066
 Vibration    10          0.618              1.905              2.694
 Vibration    11          0.626              1.879              2.429
 Vibration    12          0.640              1.832              2.084
 Vibration    13          0.645              1.816              1.990
 Vibration    14          0.650              1.803              1.918
 Vibration    15          0.653              1.792              1.864
 Vibration    16          0.662              1.764              1.735
 Vibration    17          0.688              1.688              1.460
 Vibration    18          0.695              1.665              1.392
 Vibration    19          0.717              1.603              1.229
 Vibration    20          0.723              1.585              1.188
 Vibration    21          0.740              1.539              1.090
 Vibration    22          0.748              1.517              1.047
 Vibration    23          0.779              1.437              0.908
 Vibration    24          0.828              1.313              0.734
 Vibration    25          0.855              1.250              0.658
 Vibration    26          0.884              1.186              0.590
 Vibration    27          0.890              1.172              0.576
 Vibration    28          0.904              1.142              0.546
 Vibration    29          0.908              1.135              0.539
 Vibration    30          0.933              1.083              0.493
 Vibration    31          0.941              1.066              0.478
 Vibration    32          0.949              1.049              0.464
                       Q            Log10(Q)             Ln(Q)
 Total Bot       0.967392D-17        -17.014398        -39.177098
 Total V=0       0.234142D+25         24.369480         56.112801
 Vib (Bot)       0.729150D-32        -32.137183        -73.998599
 Vib (Bot)    1  0.166349D+02          1.221021          2.811504
 Vib (Bot)    2  0.107451D+02          1.031209          2.374446
 Vib (Bot)    3  0.721665D+01          0.858336          1.976391
 Vib (Bot)    4  0.527843D+01          0.722505          1.663629
 Vib (Bot)    5  0.507857D+01          0.705741          1.625030
 Vib (Bot)    6  0.421214D+01          0.624503          1.437970
 Vib (Bot)    7  0.305020D+01          0.484328          1.115206
 Vib (Bot)    8  0.240726D+01          0.381523          0.878490
 Vib (Bot)    9  0.167249D+01          0.223363          0.514313
 Vib (Bot)   10  0.136797D+01          0.136077          0.313328
 Vib (Bot)   11  0.118115D+01          0.072305          0.166488
 Vib (Bot)   12  0.968770D+00         -0.013779         -0.031728
 Vib (Bot)   13  0.916202D+00         -0.038009         -0.087518
 Vib (Bot)   14  0.876910D+00         -0.057045         -0.131351
 Vib (Bot)   15  0.848745D+00         -0.071223         -0.163997
 Vib (Bot)   16  0.782900D+00         -0.106294         -0.244750
 Vib (Bot)   17  0.653136D+00         -0.184996         -0.425969
 Vib (Bot)   18  0.622766D+00         -0.205675         -0.473585
 Vib (Bot)   19  0.553155D+00         -0.257153         -0.592117
 Vib (Bot)   20  0.536286D+00         -0.270604         -0.623088
 Vib (Bot)   21  0.496226D+00         -0.304321         -0.700724
 Vib (Bot)   22  0.478852D+00         -0.319799         -0.736364
 Vib (Bot)   23  0.424212D+00         -0.372417         -0.857521
 Vib (Bot)   24  0.357385D+00         -0.446864         -1.028941
 Vib (Bot)   25  0.328749D+00         -0.483136         -1.112461
 Vib (Bot)   26  0.302710D+00         -0.518973         -1.194979
 Vib (Bot)   27  0.297493D+00         -0.526524         -1.212366
 Vib (Bot)   28  0.286109D+00         -0.543469         -1.251383
 Vib (Bot)   29  0.283505D+00         -0.547439         -1.260525
 Vib (Bot)   30  0.265514D+00         -0.575913         -1.326089
 Vib (Bot)   31  0.259774D+00         -0.585405         -1.347944
 Vib (Bot)   32  0.254288D+00         -0.594674         -1.369287
 Vib (V=0)       0.176480D+10          9.246694         21.291301
 Vib (V=0)    1  0.171424D+02          1.234072          2.841557
 Vib (V=0)    2  0.112567D+02          1.051411          2.420962
 Vib (V=0)    3  0.773395D+01          0.888402          2.045620
 Vib (V=0)    4  0.580206D+01          0.763582          1.758213
 Vib (V=0)    5  0.560312D+01          0.748430          1.723324
 Vib (V=0)    6  0.474171D+01          0.675935          1.556398
 Vib (V=0)    7  0.359091D+01          0.555204          1.278405
 Vib (V=0)    8  0.295864D+01          0.471092          1.084730
 Vib (V=0)    9  0.224563D+01          0.351338          0.808985
 Vib (V=0)   10  0.195648D+01          0.291476          0.671148
 Vib (V=0)   11  0.178262D+01          0.251059          0.578084
 Vib (V=0)   12  0.159019D+01          0.201449          0.463854
 Vib (V=0)   13  0.154376D+01          0.188579          0.434218
 Vib (V=0)   14  0.150944D+01          0.178816          0.411739
 Vib (V=0)   15  0.148507D+01          0.171748          0.395464
 Vib (V=0)   16  0.142894D+01          0.155014          0.356934
 Vib (V=0)   17  0.132255D+01          0.121412          0.279561
 Vib (V=0)   18  0.129865D+01          0.113491          0.261323
 Vib (V=0)   19  0.124564D+01          0.095393          0.219650
 Vib (V=0)   20  0.123321D+01          0.091038          0.209624
 Vib (V=0)   21  0.120444D+01          0.080786          0.186017
 Vib (V=0)   22  0.119231D+01          0.076391          0.175896
 Vib (V=0)   23  0.115571D+01          0.062849          0.144715
 Vib (V=0)   24  0.111459D+01          0.047116          0.108489
 Vib (V=0)   25  0.109839D+01          0.040758          0.093850
 Vib (V=0)   26  0.108449D+01          0.035227          0.081114
 Vib (V=0)   27  0.108181D+01          0.034151          0.078635
 Vib (V=0)   28  0.107607D+01          0.031841          0.073317
 Vib (V=0)   29  0.107478D+01          0.031321          0.072118
 Vib (V=0)   30  0.106612D+01          0.027808          0.064031
 Vib (V=0)   31  0.106346D+01          0.026719          0.061524
 Vib (V=0)   32  0.106095D+01          0.025694          0.059163
 Electronic      0.100000D+01          0.000000          0.000000
 Translational   0.235600D+09          8.372175         19.277646
 Rotational      0.563132D+07          6.750610         15.543854
 ***** Axes restored to original set *****
 -------------------------------------------------------------------
 Center     Atomic                   Forces (Hartrees/Bohr)
 Number     Number              X              Y              Z
 -------------------------------------------------------------------
      1        6          -0.000009445   -0.000002139    0.000011140
      2        9           0.000000640    0.000006802    0.000001552
      3        9           0.000018769    0.000006930    0.000003777
      4        9          -0.000003460   -0.000007422   -0.000012157
      5        6          -0.000000837    0.000005120    0.000004152
      6        9          -0.000007031    0.000003409   -0.000003797
      7        9          -0.000004890   -0.000004362   -0.000001943
      8        9          -0.000002011    0.000000761    0.000002028
      9        9           0.000014491    0.000015723    0.000024037
     10        6          -0.000015615   -0.000026711   -0.000033671
     11        8           0.000005500    0.000005131    0.000011613
     12        6           0.000010672   -0.000009428    0.000008053
     13        6           0.000004198    0.000013840   -0.000011639
     14        8          -0.000010707    0.000002685   -0.000011813
     15        8           0.000002096   -0.000012014   -0.000001617
     16        1          -0.000003259    0.000002884    0.000020233
     17        6           0.000007290   -0.000006742    0.000007185
     18        9           0.000001717    0.000000190   -0.000002476
     19        9          -0.000000166    0.000002819   -0.000005024
     20        9          -0.000002343   -0.000001645   -0.000006449
     21        9          -0.000005608    0.000004170   -0.000003186
 -------------------------------------------------------------------
 Cartesian Forces:  Max     0.000033671 RMS     0.000009875
 FormGI is forming the generalized inverse of G from B-inverse, IUseBI=4.

 GradGradGradGradGradGradGradGradGradGradGradGradGradGradGradGradGradGrad
 Berny optimization.
 Internal  Forces:  Max     0.000032850 RMS     0.000007599
 Search for a local minimum.
 Step number   1 out of a maximum of    2
 All quantities printed in internal units (Hartrees-Bohrs-Radians)
 Second derivative matrix not updated -- analytic derivatives used.
 ITU=  0
     Eigenvalues ---    0.00100   0.00149   0.00219   0.00299   0.00362
     Eigenvalues ---    0.00496   0.00562   0.00821   0.01113   0.01881
     Eigenvalues ---    0.02735   0.03195   0.05300   0.08259   0.08634
     Eigenvalues ---    0.08851   0.09663   0.09915   0.10572   0.10738
     Eigenvalues ---    0.11446   0.12469   0.14793   0.15454   0.16515
     Eigenvalues ---    0.18006   0.20205   0.21110   0.21352   0.22550
     Eigenvalues ---    0.22912   0.23156   0.24066   0.24321   0.24460
     Eigenvalues ---    0.24777   0.26209   0.27869   0.29762   0.33312
     Eigenvalues ---    0.34300   0.35661   0.36889   0.37445   0.38688
     Eigenvalues ---    0.38824   0.39581   0.39741   0.40775   0.41384
     Eigenvalues ---    0.48354   0.49657   0.53025   0.55768   0.56330
     Eigenvalues ---    0.56535   0.96552
 Angle between quadratic step and forces=  75.11 degrees.
 Linear search not attempted -- first point.
 Iteration  1 RMS(Cart)=  0.00056312 RMS(Int)=  0.00000014
 Iteration  2 RMS(Cart)=  0.00000018 RMS(Int)=  0.00000000
 Variable       Old X    -DE/DX   Delta X   Delta X   Delta X     New X
                                 (Linear)    (Quad)   (Total)
    R1        2.50479  -0.00000   0.00000  -0.00000  -0.00000   2.50479
    R2        2.50586   0.00000   0.00000   0.00002   0.00002   2.50588
    R3        2.50346  -0.00001   0.00000  -0.00004  -0.00004   2.50341
    R4        2.93823   0.00001   0.00000   0.00002   0.00002   2.93825
    R5        2.52742  -0.00000   0.00000   0.00000   0.00000   2.52742
    R6        2.52590   0.00000   0.00000   0.00001   0.00001   2.52591
    R7        2.93375  -0.00001   0.00000  -0.00004  -0.00004   2.93371
    R8        2.53015  -0.00000   0.00000  -0.00003  -0.00003   2.53012
    R9        2.51354   0.00003   0.00000   0.00010   0.00010   2.51364
   R10        2.59906  -0.00001   0.00000  -0.00005  -0.00005   2.59901
   R11        2.56581  -0.00000   0.00000  -0.00002  -0.00002   2.56579
   R12        2.75586   0.00000   0.00000   0.00001   0.00001   2.75587
   R13        2.81969   0.00001   0.00000   0.00010   0.00010   2.81979
   R14        2.88416   0.00000   0.00000   0.00000   0.00000   2.88417
   R15        2.48300   0.00000   0.00000   0.00001   0.00001   2.48301
   R16        2.23268  -0.00001   0.00000  -0.00002  -0.00002   2.23266
   R17        3.48580   0.00001   0.00000   0.00095   0.00095   3.48675
   R18        1.76107  -0.00001   0.00000  -0.00004  -0.00004   1.76103
   R19        2.51018  -0.00000   0.00000  -0.00000  -0.00000   2.51017
   R20        2.50236  -0.00001   0.00000  -0.00002  -0.00002   2.50234
   R21        2.50821   0.00001   0.00000   0.00002   0.00002   2.50823
    A1        1.90117  -0.00002   0.00000  -0.00003  -0.00003   1.90114
    A2        1.90230  -0.00000   0.00000  -0.00001  -0.00001   1.90229
    A3        1.89298   0.00001   0.00000   0.00001   0.00001   1.89299
    A4        1.90558  -0.00001   0.00000  -0.00002  -0.00002   1.90556
    A5        1.93020   0.00003   0.00000   0.00007   0.00007   1.93027
    A6        1.93114  -0.00001   0.00000  -0.00002  -0.00002   1.93112
    A7        1.88579   0.00001   0.00000   0.00008   0.00008   1.88587
    A8        1.88563  -0.00000   0.00000  -0.00004  -0.00004   1.88559
    A9        2.00586   0.00000   0.00000   0.00000   0.00000   2.00586
   A10        1.91056   0.00000   0.00000  -0.00000  -0.00000   1.91055
   A11        1.88762  -0.00001   0.00000  -0.00005  -0.00005   1.88757
   A12        1.88717  -0.00001   0.00000   0.00002   0.00002   1.88718
   A13        1.92692   0.00001   0.00000  -0.00002  -0.00002   1.92690
   A14        1.93500  -0.00002   0.00000  -0.00006  -0.00006   1.93494
   A15        1.85565  -0.00001   0.00000   0.00001   0.00001   1.85566
   A16        1.88008   0.00000   0.00000  -0.00001  -0.00001   1.88006
   A17        1.93219   0.00000   0.00000   0.00006   0.00006   1.93225
   A18        1.93474   0.00001   0.00000   0.00003   0.00003   1.93477
   A19        2.07115   0.00000   0.00000   0.00003   0.00003   2.07118
   A20        2.20376  -0.00000   0.00000   0.00002   0.00002   2.20379
   A21        2.02644   0.00000   0.00000   0.00008   0.00008   2.02652
   A22        1.93216   0.00000   0.00000  -0.00002  -0.00002   1.93214
   A23        2.12716   0.00000   0.00000  -0.00001  -0.00001   2.12715
   A24        1.97109  -0.00000   0.00000  -0.00005  -0.00005   1.97104
   A25        2.70592  -0.00001   0.00000  -0.00008  -0.00008   2.70584
   A26        2.44477   0.00000   0.00000   0.00004   0.00004   2.44481
   A27        1.93486   0.00001   0.00000   0.00007   0.00007   1.93493
   A28        2.76329   0.00000   0.00000  -0.00016  -0.00016   2.76313
   A29        1.92504  -0.00000   0.00000  -0.00001  -0.00001   1.92503
   A30        1.90862   0.00000   0.00000   0.00002   0.00002   1.90865
   A31        1.92052  -0.00000   0.00000  -0.00003  -0.00003   1.92049
   A32        1.90233   0.00000   0.00000   0.00001   0.00001   1.90234
   A33        1.89941   0.00000   0.00000  -0.00000  -0.00000   1.89941
   A34        1.90772   0.00000   0.00000  -0.00000  -0.00000   1.90772
    D1       -1.02657  -0.00001   0.00000   0.00009   0.00009  -1.02648
    D2        1.03890  -0.00000   0.00000   0.00011   0.00011   1.03900
    D3       -3.13578  -0.00001   0.00000   0.00010   0.00010  -3.13569
    D4        1.05719  -0.00000   0.00000   0.00010   0.00010   1.05729
    D5        3.12266   0.00000   0.00000   0.00012   0.00012   3.12277
    D6       -1.05202  -0.00000   0.00000   0.00011   0.00011  -1.05191
    D7       -3.11227  -0.00000   0.00000   0.00011   0.00011  -3.11217
    D8       -1.04680   0.00000   0.00000   0.00012   0.00012  -1.04668
    D9        1.06170  -0.00000   0.00000   0.00012   0.00012   1.06182
   D10        1.04885   0.00001   0.00000   0.00109   0.00109   1.04994
   D11       -1.03329   0.00001   0.00000   0.00116   0.00116  -1.03213
   D12       -3.13762   0.00001   0.00000   0.00116   0.00116  -3.13646
   D13       -1.05936  -0.00000   0.00000   0.00103   0.00103  -1.05833
   D14       -3.14150   0.00000   0.00000   0.00109   0.00109  -3.14041
   D15        1.03736   0.00000   0.00000   0.00109   0.00109   1.03845
   D16       -3.12667   0.00000   0.00000   0.00105   0.00105  -3.12562
   D17        1.07437   0.00001   0.00000   0.00112   0.00112   1.07549
   D18       -1.02995   0.00001   0.00000   0.00112   0.00112  -1.02883
   D19        3.08733  -0.00001   0.00000   0.00015   0.00015   3.08748
   D20       -1.10255  -0.00000   0.00000   0.00017   0.00017  -1.10239
   D21        0.98284   0.00001   0.00000   0.00020   0.00020   0.98304
   D22        0.53655  -0.00000   0.00000  -0.00052  -0.00052   0.53604
   D23        1.61341  -0.00000   0.00000  -0.00049  -0.00049   1.61292
   D24       -2.39253  -0.00000   0.00000  -0.00050  -0.00050  -2.39303
   D25       -1.42289   0.00000   0.00000  -0.00004  -0.00004  -1.42293
   D26        1.48423  -0.00000   0.00000  -0.00006  -0.00006   1.48417
   D27       -1.03513  -0.00000   0.00000  -0.00019  -0.00019  -1.03532
   D28        1.05667  -0.00000   0.00000  -0.00016  -0.00016   1.05651
   D29       -3.13086  -0.00000   0.00000  -0.00017  -0.00017  -3.13103
   D30        2.30808  -0.00000   0.00000  -0.00017  -0.00017   2.30790
   D31       -1.88330  -0.00000   0.00000  -0.00015  -0.00015  -1.88345
   D32        0.21235  -0.00000   0.00000  -0.00015  -0.00015   0.21220
   D33        1.27086   0.00000   0.00000  -0.00013  -0.00013   1.27073
   D34       -2.92052   0.00000   0.00000  -0.00010  -0.00010  -2.92063
   D35       -0.82487   0.00000   0.00000  -0.00011  -0.00011  -0.82498
   D36       -0.20512   0.00000   0.00000  -0.00013  -0.00013  -0.20525
   D37        2.96245  -0.00001   0.00000  -0.00031  -0.00031   2.96215
   D38       -0.21386   0.00000   0.00000   0.00101   0.00101  -0.21284
         Item               Value     Threshold  Converged?
 Maximum Force            0.000033     0.000450     YES
 RMS     Force            0.000008     0.000300     YES
 Maximum Displacement     0.001755     0.001800     YES
 RMS     Displacement     0.000563     0.001200     YES
 Predicted change in Energy=-3.551784D-08
 Optimization completed.
    -- Stationary point found.
                           ----------------------------
                           !   Optimized Parameters   !
                           ! (Angstroms and Degrees)  !
 --------------------------                            --------------------------
 ! Name  Definition              Value          Derivative Info.                !
 --------------------------------------------------------------------------------
 ! R1    R(1,2)                  1.3255         -DE/DX =    0.0                 !
 ! R2    R(1,3)                  1.326          -DE/DX =    0.0                 !
 ! R3    R(1,4)                  1.3248         -DE/DX =    0.0                 !
 ! R4    R(1,5)                  1.5548         -DE/DX =    0.0                 !
 ! R5    R(5,6)                  1.3375         -DE/DX =    0.0                 !
 ! R6    R(5,7)                  1.3367         -DE/DX =    0.0                 !
 ! R7    R(5,10)                 1.5525         -DE/DX =    0.0                 !
 ! R8    R(8,10)                 1.3389         -DE/DX =    0.0                 !
 ! R9    R(9,10)                 1.3301         -DE/DX =    0.0                 !
 ! R10   R(10,11)                1.3754         -DE/DX =    0.0                 !
 ! R11   R(11,12)                1.3578         -DE/DX =    0.0                 !
 ! R12   R(12,13)                1.4583         -DE/DX =    0.0                 !
 ! R13   R(12,14)                1.4921         -DE/DX =    0.0                 !
 ! R14   R(12,17)                1.5262         -DE/DX =    0.0                 !
 ! R15   R(13,14)                1.3139         -DE/DX =    0.0                 !
 ! R16   R(13,15)                1.1815         -DE/DX =    0.0                 !
 ! R17   R(15,16)                1.8446         -DE/DX =    0.0                 !
 ! R18   R(16,18)                0.9319         -DE/DX =    0.0                 !
 ! R19   R(17,19)                1.3283         -DE/DX =    0.0                 !
 ! R20   R(17,20)                1.3242         -DE/DX =    0.0                 !
 ! R21   R(17,21)                1.3273         -DE/DX =    0.0                 !
 ! A1    A(2,1,3)              108.9292         -DE/DX =    0.0                 !
 ! A2    A(2,1,4)              108.9937         -DE/DX =    0.0                 !
 ! A3    A(2,1,5)              108.4599         -DE/DX =    0.0                 !
 ! A4    A(3,1,4)              109.1815         -DE/DX =    0.0                 !
 ! A5    A(3,1,5)              110.5922         -DE/DX =    0.0                 !
 ! A6    A(4,1,5)              110.6464         -DE/DX =    0.0                 !
 ! A7    A(1,5,6)              108.0481         -DE/DX =    0.0                 !
 ! A8    A(1,5,7)              108.0388         -DE/DX =    0.0                 !
 ! A9    A(1,5,10)             114.9271         -DE/DX =    0.0                 !
 ! A10   A(6,5,7)              109.4669         -DE/DX =    0.0                 !
 ! A11   A(6,5,10)             108.1527         -DE/DX =    0.0                 !
 ! A12   A(7,5,10)             108.1266         -DE/DX =    0.0                 !
 ! A13   A(5,10,8)             110.4041         -DE/DX =    0.0                 !
 ! A14   A(5,10,9)             110.8675         -DE/DX =    0.0                 !
 ! A15   A(5,10,11)            106.3209         -DE/DX =    0.0                 !
 ! A16   A(8,10,9)             107.7206         -DE/DX =    0.0                 !
 ! A17   A(8,10,11)            110.7065         -DE/DX =    0.0                 !
 ! A18   A(9,10,11)            110.8525         -DE/DX =    0.0                 !
 ! A19   A(10,11,12)           118.6679         -DE/DX =    0.0                 !
 ! A20   A(11,12,13)           126.2664         -DE/DX =    0.0                 !
 ! A21   A(11,12,14)           116.1066         -DE/DX =    0.0                 !
 ! A22   A(11,12,17)           110.7043         -DE/DX =    0.0                 !
 ! A23   A(13,12,17)           121.8773         -DE/DX =    0.0                 !
 ! A24   A(14,12,17)           112.9352         -DE/DX =    0.0                 !
 ! A25   A(12,13,15)           155.0377         -DE/DX =    0.0                 !
 ! A26   A(14,13,15)           140.0748         -DE/DX =    0.0                 !
 ! A27   A(13,15,16)           110.8596         -DE/DX =    0.0                 !
 ! A28   A(15,16,18)           158.3248         -DE/DX =    0.0                 !
 ! A29   A(12,17,19)           110.2965         -DE/DX =    0.0                 !
 ! A30   A(12,17,20)           109.356          -DE/DX =    0.0                 !
 ! A31   A(12,17,21)           110.0375         -DE/DX =    0.0                 !
 ! A32   A(19,17,20)           108.9955         -DE/DX =    0.0                 !
 ! A33   A(19,17,21)           108.8283         -DE/DX =    0.0                 !
 ! A34   A(20,17,21)           109.3043         -DE/DX =    0.0                 !
 ! D1    D(2,1,5,6)            -58.8183         -DE/DX =    0.0                 !
 ! D2    D(2,1,5,7)             59.5245         -DE/DX =    0.0                 !
 ! D3    D(2,1,5,10)          -179.667          -DE/DX =    0.0                 !
 ! D4    D(3,1,5,6)             60.5723         -DE/DX =    0.0                 !
 ! D5    D(3,1,5,7)            178.915          -DE/DX =    0.0                 !
 ! D6    D(3,1,5,10)           -60.2765         -DE/DX =    0.0                 !
 ! D7    D(4,1,5,6)           -178.3201         -DE/DX =    0.0                 !
 ! D8    D(4,1,5,7)            -59.9773         -DE/DX =    0.0                 !
 ! D9    D(4,1,5,10)            60.8312         -DE/DX =    0.0                 !
 ! D10   D(1,5,10,8)            60.0946         -DE/DX =    0.0                 !
 ! D11   D(1,5,10,9)           -59.2033         -DE/DX =    0.0                 !
 ! D12   D(1,5,10,11)         -179.7721         -DE/DX =    0.0                 !
 ! D13   D(6,5,10,8)           -60.6969         -DE/DX =    0.0                 !
 ! D14   D(6,5,10,9)          -179.9948         -DE/DX =    0.0                 !
 ! D15   D(6,5,10,11)           59.4364         -DE/DX =    0.0                 !
 ! D16   D(7,5,10,8)          -179.1451         -DE/DX =    0.0                 !
 ! D17   D(7,5,10,9)            61.557          -DE/DX =    0.0                 !
 ! D18   D(7,5,10,11)          -59.0118         -DE/DX =    0.0                 !
 ! D19   D(5,10,11,12)         176.8911         -DE/DX =    0.0                 !
 ! D20   D(8,10,11,12)         -63.1717         -DE/DX =    0.0                 !
 ! D21   D(9,10,11,12)          56.3126         -DE/DX =    0.0                 !
 ! D22   D(10,11,12,13)         30.7423         -DE/DX =    0.0                 !
 ! D23   D(10,11,12,14)         92.4416         -DE/DX =    0.0                 !
 ! D24   D(10,11,12,17)       -137.0819         -DE/DX =    0.0                 !
 ! D25   D(11,12,13,15)        -81.5257         -DE/DX =    0.0                 !
 ! D26   D(17,12,13,15)         85.04           -DE/DX =    0.0                 !
 ! D27   D(11,12,17,19)        -59.3087         -DE/DX =    0.0                 !
 ! D28   D(11,12,17,20)         60.5429         -DE/DX =    0.0                 !
 ! D29   D(11,12,17,21)       -179.3852         -DE/DX =    0.0                 !
 ! D30   D(13,12,17,19)        132.2431         -DE/DX =    0.0                 !
 ! D31   D(13,12,17,20)       -107.9053         -DE/DX =    0.0                 !
 ! D32   D(13,12,17,21)         12.1667         -DE/DX =    0.0                 !
 ! D33   D(14,12,17,19)         72.8148         -DE/DX =    0.0                 !
 ! D34   D(14,12,17,20)       -167.3336         -DE/DX =    0.0                 !
 ! D35   D(14,12,17,21)        -47.2616         -DE/DX =    0.0                 !
 ! D36   D(12,13,15,16)        -11.7524         -DE/DX =    0.0                 !
 ! D37   D(14,13,15,16)        169.7361         -DE/DX =    0.0                 !
 ! D38   D(13,15,16,18)        -12.253          -DE/DX =    0.0                 !
 --------------------------------------------------------------------------------
 GradGradGradGradGradGradGradGradGradGradGradGradGradGradGradGradGradGrad


 ----------------------------------------------------------------------

 Electric dipole moment (input orientation):
 (Debye = 10**-18 statcoulomb cm , SI units = C m)
                  (au)            (Debye)         (10**-30 SI)
   Tot        0.991713D+00      0.252068D+01      0.840809D+01
   x          0.296084D+00      0.752571D+00      0.251031D+01
   y         -0.662072D+00     -0.168282D+01     -0.561328D+01
   z         -0.676379D+00     -0.171918D+01     -0.573458D+01

 Dipole polarizability, Alpha (input orientation).
 (esu units = cm**3 , SI units = C**2 m**2 J**-1)
 Alpha(0;0):
               (au)            (10**-24 esu)      (10**-40 SI)
   iso        0.890679D+02      0.131985D+02      0.146853D+02
   aniso      0.135803D+02      0.201239D+01      0.223909D+01
   xx         0.938856D+02      0.139124D+02      0.154796D+02
   yx        -0.344357D+01     -0.510284D+00     -0.567768D+00
   yy         0.908525D+02      0.134629D+02      0.149796D+02
   zx         0.334839D+01      0.496179D+00      0.552074D+00
   zy        -0.184714D+01     -0.273718D+00     -0.304552D+00
   zz         0.824655D+02      0.122201D+02      0.135967D+02

 ----------------------------------------------------------------------

 Dipole orientation:
     6          5.88381750         -0.77508309          1.39227499
     9          7.60751787          0.30988995          2.85024060
     9          5.83001315         -3.23103383          1.88696757
     9          6.51328542         -0.43278792         -1.00645228
     6          3.27591693          0.45167130          1.96422487
     9          2.77095175          0.11008386          4.41701067
     9          3.45082016          2.92398684          1.47714126
     9          0.75839628         -3.10252330          0.86237451
     9          1.43219675         -0.34063049         -2.05462511
     6          1.03401119         -0.62837166          0.41043976
     8         -1.07792737          0.68467169          1.16592812
     6         -3.31281004          0.19466427          0.00464315
     6         -4.09776361         -2.21950293         -1.06791999
     8         -4.94127515         -1.75924191          1.22160901
     8         -4.18093434         -3.80617660         -2.63648323
     1         -2.86273711         -2.64531137         -5.64738590
     6         -4.72727428          2.64399600         -0.55968504
     9         -2.25216601         -1.49223572         -6.83017446
     9         -5.17085212          3.90294122          1.56617704
     9         -3.34130613          4.07128916         -2.07749202
     9         -6.91744046          2.13508926         -1.67112727

 Electric dipole moment (dipole orientation):
 (Debye = 10**-18 statcoulomb cm , SI units = C m)
                  (au)            (Debye)         (10**-30 SI)
   Tot        0.991713D+00      0.252068D+01      0.840809D+01
   x          0.000000D+00      0.000000D+00      0.000000D+00
   y          0.000000D+00      0.000000D+00      0.000000D+00
   z          0.991713D+00      0.252068D+01      0.840809D+01

 Dipole polarizability, Alpha (dipole orientation).
 (esu units = cm**3 , SI units = C**2 m**2 J**-1)
 Alpha(0;0):
               (au)            (10**-24 esu)      (10**-40 SI)
   iso        0.890679D+02      0.131985D+02      0.146853D+02
   aniso      0.135803D+02      0.201239D+01      0.223909D+01
   xx         0.938149D+02      0.139019D+02      0.154680D+02
   yx         0.269097D+01      0.398761D+00      0.443682D+00
   yy         0.878402D+02      0.130166D+02      0.144829D+02
   zx         0.327390D+01      0.485142D+00      0.539793D+00
   zy         0.503004D+01      0.745376D+00      0.829342D+00
   zz         0.855485D+02      0.126770D+02      0.141050D+02

 ----------------------------------------------------------------------
 1\1\GINC-ORANGE\Freq\RwB97XD\6-311+G(2d)\C6H1F11O3\RAPPE\30-Oct-2025\0
 \\#N Geom=AllCheck Guess=TCheck SCRF=Check GenChk RwB97XD/6-311+G(2d) 
 Freq\\Title Card Required\\0,1\C,3.2171508338,0.1785670671,0.153270418
 6\F,4.2432650442,-0.6504262776,0.2826964265\F,3.4223494602,0.955690886
 4,-0.9014133711\F,3.1321586674,0.9323254198,1.2393846678\C,1.923679393
 2,-0.6641822214,-0.0317891446\F,2.0795604746,-1.4295065226,-1.11749370
 26\F,1.7793435043,-1.4427656366,1.0450622748\F,0.7108548682,0.94964934
 67,-1.2874879274\F,0.4144716441,0.9481600782,0.8474811005\C,0.62242707
 89,0.1642496648,-0.2067621448\O,-0.3989144826,-0.7458028723,-0.3492221
 404\C,-1.6716353922,-0.2850928954,-0.4562965644\C,-2.0830719685,0.9836
 125431,-1.0460865619\O,-2.1729224845,-0.0571513133,-1.8430783503\O,-2.
 2730740354,2.1496913365,-1.0536496785\H,-2.1609682756,2.8445179038,0.6
 514061003\C,-2.6232202133,-1.1271118894,0.3892091781\F,-2.1141652843,2
 .8521630613,1.5821170611\F,-2.5885911436,-2.3956318157,-0.003366978\F,
 -2.2579643137,-1.0591475463,1.6602145998\F,-3.8644723752,-0.673855317,
 0.2645337365\\Version=ES64L-G16RevA.03\State=1-A\HF=-1553.1995217\RMSD
 =1.277e-09\RMSF=9.875e-06\ZeroPoint=0.0899713\Thermal=0.1095432\Dipole
 =0.2960842,-0.6620719,-0.6763794\DipoleDeriv=1.6182871,-0.2131777,0.00
 01411,0.0029606,1.4730568,0.0004957,0.0009679,-0.0296631,1.5787432,-0.
 8596992,0.3347472,-0.0765754,0.2517227,-0.4973071,0.0304351,-0.0780807
 ,0.0420544,-0.2629427,-0.3877936,-0.1140201,0.1181638,-0.1044582,-0.48
 7683,0.3022135,0.0576674,0.2618202,-0.6268657,-0.3491275,-0.039925,-0.
 0422885,-0.0184738,-0.4737244,-0.3145919,0.0210925,-0.2783908,-0.66354
 67,0.6914747,-0.0224161,-0.0751992,-0.1301698,0.9402719,-0.012991,-0.0
 838153,-0.0030634,1.1980092,-0.3445437,0.0452884,0.0424267,0.0764054,-
 0.464116,-0.327025,0.0652257,-0.2401322,-0.6095352,-0.3361633,-0.02335
 22,0.0347834,-0.0212055,-0.4670969,0.3312741,0.0219837,0.2409146,-0.60
 27519,-0.4519511,0.0295414,-0.0261794,-0.1348806,-0.4403401,0.2747542,
 0.1079862,0.2456505,-0.5763548,-0.4110797,0.0925186,0.0722965,-0.05787
 84,-0.4238732,-0.3029599,-0.050745,-0.2197026,-0.5691184,1.7274523,0.1
 081378,0.0620044,0.4670067,1.1773504,0.0838509,0.0200758,0.0388856,1.3
 348676,-1.8489716,-0.0552229,-0.2839074,-0.0990408,-0.5007082,0.081174
 3,-0.0447186,-0.0098168,-0.3375617,1.305484,-0.2236062,0.2692783,-0.23
 74512,0.130732,-0.0112236,0.2819149,-0.1592773,0.5312989,0.4251622,-0.
 3031743,0.1744475,-0.4263666,2.18359,0.052877,0.168086,0.1616562,0.796
 026,-0.3784729,0.064953,-0.1600671,0.1380515,-0.8773205,-0.1533628,-0.
 3491105,-0.1072597,-0.8293343,-0.3651488,0.2142608,-0.0399046,0.264581
 7,-1.3808731,-0.1169952,-0.0616183,-0.0111694,-0.515803,0.378709,-0.00
 6591,0.0027263,-0.0420147,0.5188907,0.1383853,-0.0526334,0.3178819,0.6
 05542,1.5785279,0.1214936,-0.0441603,0.0048132,1.7048275,0.036235,0.01
 36135,-0.0715658,1.5467837,-0.4369256,0.0136457,0.0154238,0.0287576,-0
 .5015134,-0.0801244,0.0396364,-0.1878204,-0.5320578,-0.3042681,-0.0915
 408,0.0431345,-0.0348269,-0.9422814,-0.1103493,0.0356695,-0.092338,-0.
 3314012,-0.3417786,-0.0588357,-0.0689836,-0.033913,-0.3094282,0.052950
 2,-0.1453926,0.0481056,-0.8600302,-0.9091736,0.1272753,-0.0175606,0.10
 63801,-0.3624538,0.0449779,0.0321949,0.0532306,-0.2739668\Polar=93.885
 6104,-3.4435682,90.8524822,3.348385,-1.8471404,82.465537\Quadrupole=2.
 6007706,-1.9614449,-0.6393257,3.3410647,2.558347,-3.5776688\PG=C01 [X(
 C6H1F11O3)]\NImag=0\\0.58607242,0.01965037,0.56729063,0.00383691,0.003
 92293,0.56144949,-0.23614945,0.08677245,-0.02095134,0.28184489,0.09551
 657,-0.13605301,0.01217026,-0.16955699,0.21202876,-0.02084202,0.011062
 09,-0.07713767,0.02526176,-0.02144470,0.08465889,-0.09918656,-0.040589
 95,0.03798104,0.00798859,0.03480947,-0.03052739,0.08600400,-0.04288539
 ,-0.16216174,0.09585690,0.02296950,-0.04112794,0.04216364,0.02686620,0
 .19656946,0.04519556,0.10205197,-0.19210704,-0.01996897,0.03756733,-0.
 01383324,-0.04347436,-0.16148090,0.29816761,-0.08434299,-0.01120828,-0
 .00759883,-0.00668721,0.04288571,0.03356845,0.01239283,0.00379116,0.01
 582491,0.07806059,-0.01519526,-0.15862171,-0.10405394,0.03303527,-0.03
 960414,-0.03533734,0.00173137,0.02380176,0.00934822,-0.01715777,0.1906
 2013,-0.01527590,-0.10951630,-0.21315573,0.02281023,-0.02770546,-0.000
 58620,0.01037272,-0.00619508,-0.08264136,-0.01797910,0.16161751,0.3141
 6695,-0.15547577,-0.03577692,-0.01684810,-0.04904378,0.00076205,-0.006
 90942,0.00552859,-0.00314580,-0.00025140,0.01055935,0.00440343,0.00781
 134,0.54740018,-0.06928254,-0.09279341,-0.00984919,0.04164097,-0.00215
 481,0.00554236,-0.01400305,-0.00997650,0.00769665,-0.01095337,-0.00919
 420,-0.01092867,0.00255065,0.57920441,-0.01710016,-0.00517889,-0.03865
 351,-0.00662342,0.00002545,0.00130229,0.02672292,0.02892848,-0.0165798
 4,-0.01931716,-0.02852905,-0.02267434,0.00147465,-0.00017096,0.5370222
 0,0.00723688,-0.01446775,-0.01843753,0.00306194,-0.00220186,-0.0007488
 5,-0.00029482,-0.00016385,0.00008831,-0.00470170,-0.00602390,-0.005256
 86,-0.08280441,0.01727027,0.01663154,0.07317066,0.01334996,-0.01904258
 ,-0.03137129,-0.00346233,0.00372610,0.00236064,-0.00150447,0.00063557,
 0.00149292,-0.00701843,-0.00567840,-0.00422878,0.01480401,-0.17447617,
 -0.10693520,-0.02353067,0.18791899,0.00840957,-0.01617029,-0.02610735,
 -0.00150587,0.00150047,0.00272630,-0.00270145,-0.00149113,0.00650682,-
 0.00489814,-0.00438550,-0.00157299,0.01586810,-0.12129516,-0.19308595,
 -0.03356506,0.16189181,0.29772937,0.00221320,-0.01870584,0.02617566,0.
 00248746,-0.00164583,0.00056389,-0.00706228,-0.00712258,0.00360523,-0.
 00050151,-0.00048561,-0.00199172,-0.08248530,-0.01675442,0.01469755,0.
 00921550,-0.00103455,0.01226008,0.07243638,0.00425177,-0.01970309,0.03
 386128,-0.00280653,0.00379860,-0.00317456,-0.00791933,-0.00582451,0.00
 208656,-0.00106511,0.00065012,-0.00188060,-0.01498436,-0.17797015,0.10
 789896,0.00081850,0.02734358,-0.00606262,0.02194777,0.19252929,-0.0003
 2595,0.01168060,-0.02042432,0.00144078,-0.00200957,0.00324415,0.003196
 24,0.00250373,0.00091095,0.00068504,0.00121022,0.00669030,0.01539393,0
 .12241995,-0.19176772,0.01186049,0.00734557,-0.07605364,-0.02989693,-0
 .16434143,0.29590418,0.00278844,-0.00156733,0.00369402,-0.00069212,0.0
 0053247,-0.00039126,-0.00728490,0.00075970,-0.00250564,-0.00031231,-0.
 00051397,-0.00115172,0.01150026,0.01079377,-0.01846698,-0.00056014,0.0
 0110929,0.00064318,-0.00485139,0.00709597,-0.00493190,0.07774559,-0.00
 146142,-0.00682062,0.00295478,0.00098694,0.00113280,-0.00028588,0.0000
 1793,0.00347883,-0.00275561,0.00040163,0.00094204,-0.00022494,-0.00523
 096,-0.01122758,0.02781705,0.00034991,0.00081844,-0.00124213,0.0058814
 2,-0.00513291,0.00383179,0.01842459,0.18709021,0.00256238,0.00382674,-
 0.00590477,-0.00090933,-0.00060372,0.00061285,-0.00098939,-0.00265850,
 0.00377875,-0.00095644,0.00017083,0.00151230,0.00750610,0.01142736,-0.
 02139362,-0.00178125,0.00160542,0.00630758,-0.00489719,0.00387596,-0.0
 0128588,-0.01904174,-0.14958290,0.28991098,0.00343176,-0.00054064,-0.0
 0118125,-0.00087329,0.00036413,-0.00000279,-0.00070806,-0.00047720,0.0
 0056942,-0.00668311,-0.00007380,-0.00097992,0.00617885,0.01372183,0.02
 633299,-0.00714895,0.00776089,0.00332834,-0.00032355,0.00143573,-0.002
 55622,0.01262188,-0.00100328,0.01180239,0.08418069,-0.00046789,-0.0066
 9053,-0.00321349,0.00080968,0.00111705,0.00052710,0.00031098,0.0009579
 0,0.00030416,-0.00074618,0.00336863,0.00265050,0.00258671,-0.01126357,
 -0.02798466,0.00667998,-0.00503104,-0.00213991,-0.00004486,0.00091762,
 0.00135704,-0.00345881,0.02198766,0.00909616,-0.02513812,0.19623437,0.
 00020333,-0.00398699,-0.00687734,0.00042673,0.00072419,0.00084661,0.00
 041702,-0.00031662,0.00190286,-0.00239844,0.00265621,0.00372485,0.0006
 2534,-0.00815654,-0.01536472,0.00308273,-0.00168977,0.00101017,0.00007
 383,-0.00139204,0.00595413,0.01479751,-0.00931000,-0.08354597,-0.04231
 116,0.15877457,0.29648648,-0.03159788,0.00469717,-0.00732924,0.0046496
 0,-0.00144828,0.00090975,0.00340824,0.00107525,-0.00012217,0.00277010,
 0.00190745,0.00280628,-0.16435152,0.06494540,-0.01768305,0.00235257,-0
 .00250872,0.00112572,0.00761168,-0.01108431,0.00628693,-0.08606370,0.0
 1288741,-0.01363603,-0.09887221,0.03941268,0.04061585,0.59090857,-0.00
 482154,0.03825157,-0.00049066,-0.01049319,-0.00364479,-0.00142901,0.00
 064152,-0.00726200,0.00431097,0.00149967,-0.00715847,-0.00405613,0.030
 93035,-0.09280767,0.00339794,0.01989780,-0.01852843,-0.01147638,0.0160
 9758,-0.01890297,0.01644944,0.00625805,-0.14924343,0.09702837,0.036295
 40,-0.15743814,-0.10081199,-0.05406592,0.54149690,-0.00735527,0.000861
 56,0.02045885,0.00079395,-0.00020089,-0.00202494,-0.00096984,0.0032026
 8,-0.00680903,0.00326123,-0.00282639,-0.00588415,-0.01801034,0.0082743
 0,-0.03964051,0.02689038,-0.03270781,-0.02003399,-0.01885444,0.0309390
 1,-0.02510093,-0.00164147,0.09461374,-0.18815510,0.03195616,-0.0971742
 9,-0.18887984,0.00913765,0.00309997,0.52188520,0.00778625,0.01214974,0
 .00127105,-0.00786627,0.00022529,-0.00107686,-0.00169041,-0.00198141,0
 .00101944,-0.00131984,-0.00203486,-0.00158864,-0.04199288,-0.03673293,
 -0.00571116,-0.00201517,0.00261503,0.00123982,-0.00107567,0.00274290,-
 0.00198598,-0.00806261,-0.03899671,0.02502844,0.00333964,-0.03024189,-
 0.02321449,-0.16149405,-0.03818372,-0.01975517,0.55107373,0.00062556,-
 0.00546522,0.00015833,0.00100629,0.00081623,0.00012929,-0.00017069,0.0
 0128377,-0.00085341,-0.00030359,0.00121554,0.00068928,0.00510693,0.007
 00923,0.00117250,0.00140960,0.00184703,0.00045324,0.00181233,0.0017813
 3,-0.00003988,-0.03837180,-0.03839664,0.02362153,-0.03109277,-0.039562
 73,-0.03323282,-0.03751890,-0.14821261,-0.00829094,0.02714101,0.332659
 96,0.00089551,0.00120261,-0.00206101,-0.00076179,0.00000812,0.00022316
 ,-0.00004149,-0.00062315,0.00093292,-0.00031070,0.00030135,0.00068291,
 -0.00601343,-0.00435626,-0.00045690,0.00104217,0.00185806,0.00261029,-
 0.00179744,-0.00130962,0.00187714,0.02771763,0.03315215,-0.00026017,-0
 .02614106,-0.04047808,-0.01283120,-0.01725611,-0.00979971,-0.06257352,
 0.04964481,-0.00048888,0.12352424,-0.00380428,-0.00195403,-0.00042966,
 0.00212501,-0.00020183,0.00026295,0.00110568,0.00073207,-0.00031115,0.
 00094994,0.00069737,0.00054952,-0.00503010,-0.00101549,-0.00098293,0.0
 0282798,-0.00077089,-0.00041117,0.00257731,-0.00035156,0.00084092,0.00
 614732,0.01302144,-0.00845981,0.00564438,0.01369694,0.00911262,-0.0734
 2237,-0.02716048,-0.00169326,-0.25182073,0.06665941,-0.00877982,0.5370
 7862,0.00084707,0.00211874,0.00027558,-0.00112166,-0.00002379,-0.00016
 466,-0.00020665,-0.00037497,0.00017853,-0.00012356,-0.00041189,-0.0003
 2480,-0.00249441,-0.00542849,-0.00049787,0.00004187,0.00061379,0.00047
 324,0.00003756,0.00071187,-0.00054838,-0.00121800,-0.00563273,0.003185
 17,-0.00008880,-0.00568869,-0.00447458,-0.02025052,0.02982649,0.002066
 69,0.06998038,-0.13155262,0.00224415,-0.05066468,0.54242492,-0.0013278
 1,-0.00121401,0.00049593,0.00083636,-0.00001050,0.00005831,0.00033614,
 0.00049946,-0.00047249,0.00033605,0.00015555,-0.00007122,-0.00112522,0
 .00134261,0.00151779,0.00069873,0.00016496,-0.00022978,0.00050902,-0.0
 0061476,0.00018052,0.00179303,0.00526587,-0.00395832,-0.00047249,0.002
 53820,0.00059209,-0.01223136,-0.01374356,-0.00380935,0.02274014,0.0074
 5616,-0.05052982,-0.03802836,-0.14085885,0.34031194,-0.00096637,-0.000
 09448,-0.00035143,0.00051178,-0.00014843,0.00009147,0.00029642,-0.0000
 0503,0.00009783,0.00021435,0.00006945,0.00012201,-0.00059268,0.0014165
 5,0.00016153,0.00023338,-0.00054389,-0.00031675,0.00021416,-0.00063829
 ,0.00043053,-0.00019489,-0.00207661,0.00214869,-0.00010191,-0.00109380
 ,0.00005414,0.00081133,0.00705176,-0.00422395,-0.01262734,0.02852598,-
 0.00524873,-0.07898559,0.04333136,0.00441506,0.21729300,0.00207761,0.0
 0379896,0.00026056,-0.00124961,-0.00043077,-0.00016841,-0.00066575,-0.
 00114458,0.00056528,-0.00053151,-0.00112186,-0.00073553,0.00111723,-0.
 00140896,0.00074026,-0.00094455,-0.00048581,-0.00044156,-0.00079966,-0
 .00043444,-0.00006365,-0.00051405,-0.00779319,0.00332495,-0.00180597,-
 0.00669167,-0.00314997,0.01658449,0.02484489,-0.00017040,-0.02302043,0
 .00555927,0.00006701,0.08426465,-0.24400851,0.12269737,-0.16813439,1.2
 9323977,-0.00099241,-0.00033870,0.00087528,0.00056215,-0.00011211,-0.0
 0005235,0.00022670,0.00027680,-0.00042962,0.00026583,-0.00013475,-0.00
 031616,-0.00088305,0.00122598,0.00079537,0.00051503,-0.00068362,-0.000
 87948,0.00021742,-0.00001537,-0.00025242,0.00009809,0.00081786,-0.0033
 9219,0.00193338,-0.00131098,-0.00207656,-0.00662738,0.00254435,0.00804
 540,-0.00528038,-0.01018843,-0.01703715,0.00509329,0.09236883,0.007092
 21,0.05150758,0.02494453,0.33370687,0.00107839,0.00098158,0.00014134,-
 0.00074327,0.00004153,-0.00008350,-0.00027578,-0.00024813,0.00012065,-
 0.00022229,-0.00024543,-0.00017629,0.00042448,-0.00180557,0.00008785,-
 0.00041144,0.00049309,0.00033773,-0.00036309,0.00011658,-0.00009876,-0
 .00117631,-0.00257173,0.00095995,-0.00067732,-0.00236669,-0.00121160,0
 .00441825,0.01053114,-0.00390485,-0.02819159,-0.00558254,-0.03016959,-
 0.01970025,0.00436083,-0.02590462,-0.05010429,-0.03173051,-0.03379103,
 0.07964948,-0.00061310,-0.00149961,-0.00027842,0.00041594,0.00019971,0
 .00007568,0.00021163,0.00040469,-0.00014833,0.00014492,0.00047924,0.00
 036210,-0.00006610,0.00040449,-0.00040317,0.00023927,0.00026404,0.0002
 9996,0.00033540,0.00028131,-0.00002022,0.00009088,0.00349963,-0.001429
 01,-0.00003679,0.00368436,0.00222750,-0.00621924,-0.01403834,-0.001282
 91,0.02658203,0.00549742,0.02027689,-0.02737558,-0.01916602,-0.0467267
 9,-0.01600838,-0.21980632,-0.13483664,0.01457393,0.30051961,0.00151126
 ,0.00112579,-0.00068830,-0.00096952,0.00007947,-0.00000828,-0.00038004
 ,-0.00046392,0.00049795,-0.00035372,-0.00008232,0.00013828,0.00110208,
 -0.00203167,-0.00099432,-0.00077953,0.00079063,0.00095552,-0.00049652,
 -0.00006262,0.00033800,-0.00016450,-0.00345838,0.00443847,-0.00214022,
 -0.00181232,0.00018573,0.01086866,0.01100193,-0.00889952,-0.03509837,0
 .01414867,0.01019311,-0.01306998,0.00634965,-0.16519020,-0.02425021,-0
 .16557472,-0.21847323,0.06629659,0.16570657,0.36841896,0.00064182,0.00
 011685,0.00022901,-0.00034874,0.00008097,-0.00006308,-0.00016693,-0.00
 000855,-0.00004056,-0.00013838,-0.00006256,-0.00010214,0.00047107,-0.0
 0058847,0.00004720,-0.00019501,0.00018355,0.00009845,-0.00017723,0.000
 26255,-0.00023647,-0.00155884,0.00115721,-0.00042449,-0.00026585,0.000
 21535,-0.00053931,0.00056165,-0.00114862,0.00128511,-0.00025487,-0.000
 41071,0.00132760,0.01765762,0.00881817,-0.01003761,-0.08450184,0.13046
 803,-0.01281294,0.01386055,0.00166625,0.00879692,0.05907109,-0.0013533
 6,-0.00238975,-0.00031051,0.00081661,0.00026229,0.00012794,0.00044011,
 0.00069447,-0.00030182,0.00034003,0.00073249,0.00052121,-0.00087708,0.
 00087993,-0.00046265,0.00061472,0.00031039,0.00026596,0.00054879,0.000
 19817,0.00014867,0.00058698,0.00451117,-0.00200958,0.00059092,0.004568
 70,0.00256018,-0.01051360,-0.01472802,-0.00081905,0.01926688,-0.005663
 93,0.00162770,-0.00619285,-0.01500415,0.00180521,0.12897911,-0.8247357
 7,0.01823029,0.00493400,-0.07107781,-0.02472662,-0.14204630,0.92112615
 ,0.00034746,0.00018425,-0.00052208,-0.00019282,0.00002308,0.00004774,-
 0.00009498,-0.00015833,0.00024613,-0.00009412,0.00007301,0.00018271,0.
 00023662,-0.00032365,-0.00029874,-0.00019775,0.00022299,0.00030987,-0.
 00007977,-0.00009965,0.00017626,0.00020772,-0.00105993,0.00176579,-0.0
 0065231,0.00036920,0.00066105,0.00241349,0.00087883,-0.00331705,-0.002
 12937,0.00355737,0.00375991,-0.00549926,0.00178271,-0.00761562,-0.0148
 9741,0.02559698,-0.09196619,0.01126466,-0.03754908,0.02905674,0.011536
 26,0.00568252,0.07968569,-0.00044492,0.00041181,0.00013503,0.00023245,
 -0.00015821,0.00000676,0.00007404,-0.00008949,-0.00000034,0.00011071,-
 0.00015973,-0.00011825,-0.00027558,0.00035694,-0.00010733,0.00014695,-
 0.00031718,-0.00020172,0.00004483,-0.00020664,0.00010485,-0.00009109,-
 0.00051290,-0.00023539,0.00057705,-0.00156072,-0.00111931,0.00058038,0
 .00288687,0.00199931,-0.00170913,-0.00029140,-0.00027333,0.00065188,-0
 .00006126,0.00074795,0.00095746,-0.00125675,0.00094087,0.00100130,0.00
 094299,-0.00073838,-0.00579933,0.00031975,-0.00093793,0.01058149,0.000
 58835,0.00051792,0.00016240,-0.00029681,-0.00002339,-0.00005278,-0.000
 17597,-0.00015445,0.00003483,-0.00016144,-0.00019097,-0.00015494,0.000
 44967,-0.00030605,0.00011534,-0.00023958,0.00010634,0.00004259,-0.0001
 9576,0.00009307,-0.00010558,-0.00049786,-0.00023184,0.00028496,-0.0008
 1544,0.00008248,-0.00003700,0.00191141,0.00045391,-0.00039060,-0.00188
 681,0.00043913,-0.00002739,0.00131129,-0.00147471,0.00021631,0.0005754
 7,-0.01119649,-0.00594952,0.00049286,0.00308849,0.00142746,-0.00073413
 ,0.00253773,0.00504019,0.00005326,0.01241504,0.00036812,0.00055822,0.0
 0075756,-0.00024204,-0.00004550,-0.00012499,-0.00011183,-0.00002330,-0
 .00019332,-0.00008202,-0.00030962,-0.00040095,0.00027631,-0.00034436,0
 .00035451,-0.00012385,-0.00015206,-0.00024965,-0.00016328,0.00018703,-
 0.00033233,-0.00079038,0.00018213,-0.00083801,-0.00004892,-0.00138521,
 -0.00185417,0.00245359,0.00212338,0.00339638,-0.00387415,0.00094604,-0
 .00082976,0.00268883,0.00088982,0.00144220,0.00427773,-0.02412421,0.00
 229694,-0.00074359,0.00907650,0.00053234,-0.00317304,0.01581926,-0.002
 38595,0.02720203,-0.00112818,0.54368401,-0.00192149,-0.00071116,-0.000
 08674,0.00095137,-0.00013631,0.00009331,0.00053647,0.00035275,-0.00019
 272,0.00044938,0.00024475,0.00014431,-0.00173747,0.00003799,0.00070483
 ,0.00072596,-0.00038161,-0.00046111,0.00082861,0.00027751,-0.00036148,
 0.00134366,0.00109140,-0.00108160,0.00167809,0.00107287,0.00031511,-0.
 00865437,-0.00161073,0.00329463,-0.03469152,-0.00963031,0.00938694,-0.
 11051063,-0.03936736,0.05709518,0.02137638,-0.01556591,0.00500476,-0.0
 0416516,0.00794584,-0.02237401,-0.00631533,0.01258848,-0.00298008,0.00
 152612,-0.00081202,-0.00215380,0.58139564,-0.00129994,0.00009206,-0.00
 011674,0.00110602,-0.00044679,0.00014783,0.00019749,-0.00018682,0.0001
 2015,0.00024027,-0.00019409,-0.00008883,-0.00019371,0.00455935,-0.0003
 0555,0.00038843,-0.00123052,-0.00053447,0.00009670,-0.00156123,0.00095
 555,0.00107707,0.00033736,-0.00044200,0.00079667,-0.00030248,0.0000118
 1,-0.00138650,-0.00393842,-0.00091907,0.02154771,0.00819877,-0.0055524
 8,-0.06226321,-0.10630862,0.05104572,-0.01409086,-0.01742777,0.0207981
 7,0.00891938,0.00542848,-0.01294574,0.00088093,0.00211496,-0.00156424,
 -0.00067870,-0.00203842,-0.00070356,0.01478481,0.55666422,0.00068343,0
 .00092515,0.00153350,-0.00074185,0.00007669,-0.00031504,-0.00008876,0.
 00017803,-0.00053199,-0.00012977,-0.00046651,-0.00078129,-0.00008598,-
 0.00276671,0.00313101,-0.00024036,-0.00038697,-0.00114302,0.00009026,0
 .00146894,-0.00216036,-0.00154007,-0.00080156,-0.00123175,0.00031252,-
 0.00261711,-0.00443463,0.00330647,0.00721997,0.01019595,-0.01566200,-0
 .00163108,-0.00087911,0.06166981,0.02445341,-0.08575801,-0.01638180,0.
 01318619,-0.01099715,0.01049631,0.02208675,-0.02228058,0.00510049,-0.0
 1127758,0.00293896,-0.00003034,0.00089492,0.00446992,-0.01342842,-0.02
 586218,0.56501747,0.00049377,-0.00045371,-0.00032540,-0.00025278,0.000
 17526,0.00001367,-0.00007698,0.00005330,0.00006497,-0.00012348,0.00020
 788,0.00020456,0.00029589,-0.00037264,0.00008165,-0.00017149,0.0003642
 6,0.00025229,-0.00004263,0.00018611,-0.00006360,0.00011107,0.00026331,
 0.00048587,-0.00088471,0.00202444,0.00177267,-0.00071969,-0.00266385,-
 0.00268818,0.00170115,0.00042221,0.00034962,-0.00112101,-0.00002035,-0
 .00048291,-0.00066761,0.00135457,-0.00046266,-0.00012737,-0.00052943,0
 .00044778,0.00309913,-0.00095493,-0.00064617,-0.00675836,-0.00010659,-
 0.02700851,-0.00157674,0.00068989,0.00016462,0.00537288,-0.00054609,-0
 .00039570,-0.00001518,0.00025084,0.00001413,0.00002883,0.00015418,0.00
 015160,-0.00007376,0.00015398,0.00012914,0.00007654,-0.00043613,0.0002
 1141,-0.00000304,0.00023120,-0.00016427,-0.00012531,0.00016425,-0.0000
 3658,0.00000263,0.00027132,0.00027123,-0.00052925,0.00109612,-0.000821
 85,-0.00084745,-0.00110910,0.00019248,0.00148510,0.00070354,-0.0000606
 4,-0.00018946,-0.00060843,0.00120630,0.00030240,0.00026220,0.00167885,
 0.00218294,-0.00025351,-0.00068081,-0.00095509,-0.00012207,-0.00012761
 ,-0.00546416,-0.00030197,-0.00604429,-0.00268457,0.00037448,0.00192241
 ,0.00122082,0.00003777,0.00431615,-0.00038967,-0.00032174,-0.00056141,
 0.00023460,-0.00000014,0.00009937,0.00009866,-0.00000691,0.00015500,0.
 00009896,0.00019878,0.00029476,-0.00029007,0.00034503,-0.00034275,0.00
 014868,0.00000897,0.00012763,0.00013046,-0.00019714,0.00028804,0.00050
 418,-0.00017128,0.00040207,0.00045927,0.00026001,0.00074736,-0.0015961
 7,-0.00064292,-0.00145655,0.00217850,-0.00065396,0.00044997,-0.0015939
 6,0.00009623,-0.00079816,-0.00251414,0.01469027,-0.00186220,0.00030385
 ,-0.00526817,-0.00021647,0.00108545,-0.01520765,-0.01381418,-0.0272913
 9,0.00036846,-0.54604057,0.00112701,0.00098635,-0.00296668,0.02791467,
 0.00655885,0.56297483,0.00041960,0.00018279,0.00007795,-0.00022196,0.0
 0003021,-0.00003238,-0.00011190,-0.00006200,0.00001865,-0.00009633,-0.
 00006648,-0.00005984,0.00036554,-0.00006658,-0.00000585,-0.00014179,0.
 00004247,0.00002904,-0.00014482,0.00000075,-0.00002434,-0.00041634,-0.
 00025434,0.00017849,-0.00031998,-0.00033716,-0.00037054,0.00214558,0.0
 0071466,0.00018229,0.00090226,-0.00067754,-0.00001684,0.00454205,-0.02
 592049,-0.00314423,-0.00603653,0.00252803,-0.00238531,0.00270879,0.001
 59405,0.00297585,0.00149804,-0.00270111,0.00111772,-0.00024339,0.00023
 017,0.00055614,-0.07909144,-0.01336417,0.00097954,0.00023849,-0.000076
 97,-0.00032187,0.07691614,0.00065726,-0.00024686,-0.00002343,-0.000498
 56,0.00024291,-0.00005112,-0.00011029,0.00010973,-0.00004810,-0.000124
 23,0.00014756,0.00010585,0.00039010,-0.00180635,-0.00005569,-0.0002355
 1,0.00066655,0.00036316,-0.00014824,0.00065302,-0.00031019,-0.00050720
 ,0.00022331,-0.00011221,-0.00058418,0.00044192,0.00033424,0.00183997,0
 .00034979,0.00009454,-0.00428612,0.00252456,0.00090047,0.00153541,-0.0
 5691721,-0.00909721,-0.01017709,0.00441054,-0.00756959,0.00395174,0.00
 561771,0.00611235,0.00210832,-0.00387602,0.00263956,0.00015766,0.00093
 973,0.00085567,-0.01714481,-0.27714656,-0.03779531,-0.00020134,-0.0007
 3439,-0.00061803,-0.01054180,0.38766539,-0.00005299,-0.00013844,-0.000
 27448,0.00005561,0.00001052,0.00004809,0.00000337,-0.00002679,0.000095
 69,0.00001646,0.00009582,0.00015028,-0.00000628,0.00009191,-0.00064574
 ,0.00002993,0.00017618,0.00027866,-0.00002296,-0.00016873,0.00033986,0
 .00021898,0.00006062,0.00025051,0.00001054,0.00049854,0.00076857,-0.00
 084921,-0.00076335,-0.00147841,0.00141248,-0.00002492,0.00080126,0.000
 55580,0.01375133,0.00543790,0.00355474,-0.00020211,0.00069841,-0.00101
 336,-0.00246851,0.00332604,-0.00103200,0.00178152,-0.00031210,0.000064
 57,-0.00009015,-0.00071664,0.00038384,-0.03979743,-0.08540418,-0.00008
 323,-0.00024303,0.00046983,0.00142969,0.09698323,0.10483308,0.00049744
 ,0.00015688,-0.00009811,-0.00022945,0.00003698,-0.00000527,-0.00014176
 ,-0.00011137,0.00009798,-0.00011079,-0.00002888,0.00002305,0.00049325,
 0.00000140,-0.00052922,-0.00018013,0.00017847,0.00024256,-0.00018587,-
 0.00014400,0.00026232,-0.00021503,-0.00046580,0.00050549,-0.00051823,-
 0.00018450,0.00045860,0.00177882,0.00087517,-0.00143324,0.00170099,-0.
 00126317,0.00316312,0.00577756,-0.00031775,0.00973997,-0.00102158,0.00
 216319,0.00051983,0.00006817,-0.00269821,0.00357930,0.00051752,-0.0011
 1944,0.00001192,-0.00030870,0.00010738,0.00006986,-0.08602453,-0.00188
 779,-0.03838820,0.00033922,-0.00016452,-0.00001822,0.01126388,-0.00844
 003,-0.01172427,0.10291024,0.00023925,-0.00009759,0.00002739,-0.000182
 06,0.00009375,-0.00002807,-0.00003292,0.00005380,-0.00003804,-0.000050
 86,0.00004556,0.00001661,0.00011538,-0.00068846,0.00021565,-0.00008650
 ,0.00021124,0.00005594,-0.00000524,0.00028842,-0.00021845,-0.00016008,
 0.00010293,0.00001971,-0.00036816,0.00012091,0.00028577,0.00048185,-0.
 00016107,-0.00044888,-0.00158718,0.00011577,-0.00001767,0.00465549,0.0
 0696580,0.01719749,0.00117291,0.00348137,-0.00089892,-0.00233197,-0.00
 313108,0.00464610,0.00008708,-0.00105928,-0.00001865,0.00004059,0.0004
 5842,0.00009968,-0.00331525,-0.07723557,0.00786937,-0.00006776,-0.0006
 5696,-0.00014944,-0.01082626,-0.01747487,-0.06061558,0.00100303,0.0782
 9630,-0.00013069,-0.00030789,-0.00083481,0.00024205,-0.00002854,0.0001
 5296,-0.00001402,-0.00015298,0.00032499,0.00001564,0.00020975,0.000403
 26,0.00014225,0.00115088,-0.00175451,0.00007288,0.00023200,0.00064742,
 -0.00013695,-0.00070794,0.00109891,0.00062900,-0.00011453,0.00090621,-
 0.00017586,0.00121801,0.00222679,-0.00177824,-0.00272401,-0.00403676,0
 .00512991,0.00099125,0.00245411,-0.01521255,0.00118717,-0.04376327,0.0
 0065851,-0.00878310,-0.00442570,0.00397338,0.00947807,-0.00365942,-0.0
 0077343,0.00511996,0.00115371,-0.00017089,-0.00049009,-0.00222544,-0.0
 3173620,0.00921684,-0.29039468,0.00010032,-0.00056697,0.00155637,-0.01
 104150,-0.04393392,-0.04069525,0.09331255,0.01800755,0.40189488,0.0012
 2974,0.00095044,0.00009560,-0.00074479,0.00003708,-0.00008917,-0.00033
 448,-0.00029915,0.00016437,-0.00026733,-0.00024873,-0.00016364,0.00057
 201,-0.00116071,-0.00041546,-0.00034680,0.00017172,0.00022639,-0.00041
 578,0.00006399,-0.00002039,-0.00077855,-0.00190944,0.00123485,-0.00027
 515,-0.00116901,-0.00079062,0.00317903,0.00646805,0.00172930,-0.011691
 95,-0.00739589,0.00328293,-0.04269036,0.01443825,-0.00649304,-0.006107
 63,0.00566126,-0.00364977,0.00294873,-0.00119630,0.00523656,0.00234387
 ,-0.00426772,0.00126611,-0.00085417,0.00020253,0.00062281,-0.27612298,
 0.04443952,0.00391410,0.00087125,-0.00008109,-0.00026878,-0.01417588,0
 .04235894,0.00704830,-0.03641101,0.01121866,-0.04310615,0.38007224,0.0
 0012276,-0.00008847,0.00007246,-0.00014278,0.00007711,-0.00002888,-0.0
 0000182,0.00007192,-0.00005759,-0.00001303,0.00004351,0.00000047,-0.00
 001106,-0.00076643,0.00021510,-0.00004739,0.00017515,0.00001807,0.0000
 2077,0.00031947,-0.00024782,-0.00019102,0.00008335,-0.00010000,-0.0000
 3655,0.00000908,-0.00016868,0.00036202,0.00064834,0.00059367,-0.004002
 45,-0.00003361,0.00120419,-0.00801506,0.00812449,0.00157837,0.00162645
 ,-0.00032751,-0.00135112,-0.00226060,0.00003081,0.00072478,-0.00092385
 ,0.00072590,0.00018698,0.00042510,0.00052835,0.00016285,0.04990459,-0.
 09130035,0.00402477,-0.00040840,-0.00037058,-0.00027557,0.05957176,-0.
 04579046,-0.00891064,0.01230294,0.01027062,0.01099849,-0.10828239,0.11
 756931,-0.00022068,-0.00022864,-0.00026079,0.00020271,-0.00002444,0.00
 006198,0.00003876,-0.00001211,0.00007826,0.00004586,0.00008818,0.00013
 776,-0.00001341,0.00070614,-0.00047000,0.00007017,0.00000536,0.0001462
 2,0.00001380,-0.00029064,0.00037516,0.00032232,0.00031117,0.00008025,-
 0.00004280,0.00052257,0.00075773,-0.00081544,-0.00211743,-0.00188212,0
 .00571198,0.00208065,-0.00005040,0.01369817,-0.00243339,0.00506737,0.0
 0066460,-0.00265974,-0.00135008,0.00311489,0.00082123,0.00232919,-0.00
 027142,0.00142504,0.00024735,0.00002323,-0.00016123,-0.00074208,-0.002
 69375,0.00554988,-0.07800834,-0.00009202,-0.00016083,0.00049374,0.0098
 5734,-0.00877429,0.01202862,-0.05979002,0.01399244,-0.02102977,0.03017
 570,-0.00863992,0.08198997\\0.00000944,0.00000214,-0.00001114,-0.00000
 064,-0.00000680,-0.00000155,-0.00001877,-0.00000693,-0.00000378,0.0000
 0346,0.00000742,0.00001216,0.00000084,-0.00000512,-0.00000415,0.000007
 03,-0.00000341,0.00000380,0.00000489,0.00000436,0.00000194,0.00000201,
 -0.00000076,-0.00000203,-0.00001449,-0.00001572,-0.00002404,0.00001561
 ,0.00002671,0.00003367,-0.00000550,-0.00000513,-0.00001161,-0.00001067
 ,0.00000943,-0.00000805,-0.00000420,-0.00001384,0.00001164,0.00001071,
 -0.00000269,0.00001181,-0.00000210,0.00001201,0.00000162,0.00000326,-0
 .00000288,-0.00002023,-0.00000729,0.00000674,-0.00000719,-0.00000172,-
 0.00000019,0.00000248,0.00000017,-0.00000282,0.00000502,0.00000234,0.0
 0000165,0.00000645,0.00000561,-0.00000417,0.00000319\\\@


 BE NOT THE FIRST BY WHOM THE NEW ARE TRIED,
 NOR YET THE THE LAST TO LAY THE OLD ASIDE.

                          -- ALEXANDER POPE
 Job cpu time:       1 days  1 hours 34 minutes 54.1 seconds.
 Elapsed time:       0 days  0 hours 28 minutes  2.3 seconds.
 File lengths (MBytes):  RWF=    616 Int=      0 D2E=      0 Chk=     24 Scr=      1
 Normal termination of Gaussian 16 at Thu Oct 30 21:03:54 2025.
