 Entering Gaussian System, Link 0=/applications/g16/g16/g16
 Initial command:
 /applications/g16/g16/l1.exe "/scratch/g98/Gau-71679.inp" -scrdir="/scratch/g98/"
 Entering Link 1 = /applications/g16/g16/l1.exe PID=     71680.
  
 Copyright (c) 1988,1990,1992,1993,1995,1998,2003,2009,2016,
            Gaussian, Inc.  All Rights Reserved.
  
 This is part of the Gaussian(R) 16 program.  It is based on
 the Gaussian(R) 09 system (copyright 2009, Gaussian, Inc.),
 the Gaussian(R) 03 system (copyright 2003, Gaussian, Inc.),
 the Gaussian(R) 98 system (copyright 1998, Gaussian, Inc.),
 the Gaussian(R) 94 system (copyright 1995, Gaussian, Inc.),
 the Gaussian 92(TM) system (copyright 1992, Gaussian, Inc.),
 the Gaussian 90(TM) system (copyright 1990, Gaussian, Inc.),
 the Gaussian 88(TM) system (copyright 1988, Gaussian, Inc.),
 the Gaussian 86(TM) system (copyright 1986, Carnegie Mellon
 University), and the Gaussian 82(TM) system (copyright 1983,
 Carnegie Mellon University). Gaussian is a federally registered
 trademark of Gaussian, Inc.
  
 This software contains proprietary and confidential information,
 including trade secrets, belonging to Gaussian, Inc.
  
 This software is provided under written license and may be
 used, copied, transmitted, or stored only in accord with that
 written license.
  
 The following legend is applicable only to US Government
 contracts under FAR:
  
                    RESTRICTED RIGHTS LEGEND
  
 Use, reproduction and disclosure by the US Government is
 subject to restrictions as set forth in subparagraphs (a)
 and (c) of the Commercial Computer Software - Restricted
 Rights clause in FAR 52.227-19.
  
 Gaussian, Inc.
 340 Quinnipiac St., Bldg. 40, Wallingford CT 06492
  
  
 ---------------------------------------------------------------
 Warning -- This program may not be used in any manner that
 competes with the business of Gaussian, Inc. or will provide
 assistance to any competitor of Gaussian, Inc.  The licensee
 of this program is prohibited from giving any competitor of
 Gaussian, Inc. access to this program.  By using this program,
 the user acknowledges that Gaussian, Inc. is engaged in the
 business of creating and licensing software in the field of
 computational chemistry and represents and warrants to the
 licensee that it is not a competitor of Gaussian, Inc. and that
 it will not use this program in any manner prohibited above.
 ---------------------------------------------------------------
  

 Cite this work as:
 Gaussian 16, Revision A.03,
 M. J. Frisch, G. W. Trucks, H. B. Schlegel, G. E. Scuseria, 
 M. A. Robb, J. R. Cheeseman, G. Scalmani, V. Barone, 
 G. A. Petersson, H. Nakatsuji, X. Li, M. Caricato, A. V. Marenich, 
 J. Bloino, B. G. Janesko, R. Gomperts, B. Mennucci, H. P. Hratchian, 
 J. V. Ortiz, A. F. Izmaylov, J. L. Sonnenberg, D. Williams-Young, 
 F. Ding, F. Lipparini, F. Egidi, J. Goings, B. Peng, A. Petrone, 
 T. Henderson, D. Ranasinghe, V. G. Zakrzewski, J. Gao, N. Rega, 
 G. Zheng, W. Liang, M. Hada, M. Ehara, K. Toyota, R. Fukuda, 
 J. Hasegawa, M. Ishida, T. Nakajima, Y. Honda, O. Kitao, H. Nakai, 
 T. Vreven, K. Throssell, J. A. Montgomery, Jr., J. E. Peralta, 
 F. Ogliaro, M. J. Bearpark, J. J. Heyd, E. N. Brothers, K. N. Kudin, 
 V. N. Staroverov, T. A. Keith, R. Kobayashi, J. Normand, 
 K. Raghavachari, A. P. Rendell, J. C. Burant, S. S. Iyengar, 
 J. Tomasi, M. Cossi, J. M. Millam, M. Klene, C. Adamo, R. Cammi, 
 J. W. Ochterski, R. L. Martin, K. Morokuma, O. Farkas, 
 J. B. Foresman, and D. J. Fox, Gaussian, Inc., Wallingford CT, 2016.
 
 ******************************************
 Gaussian 16:  EM64M-G16RevA.03 25-Dec-2016
                27-Apr-2024 
 ******************************************
 %mem=24GB
 %nprocshared=8
 Will use up to    8 processors via shared memory.
 %chk=hf.chk
 ----------------------------------------------------------------------
 # opt=calcall wb97xd/6-311+g(2d) geom=connectivity integral=grid=super
 finegrid scf=(xqc,tight)
 ----------------------------------------------------------------------
 1/10=4,18=20,19=15,26=5,38=1,57=2/1,3;
 2/9=110,12=2,17=6,18=5,40=1/2;
 3/5=4,6=6,7=12,11=2,25=1,30=1,71=2,74=-58,75=-7,140=1/1,2,3;
 4//1;
 5/5=2,8=3,13=1,32=2,38=5/2,8;
 8/6=4,10=90,11=11/1;
 11/6=1,8=1,9=11,15=111,16=1/1,2,10;
 10/6=1/2;
 6/7=2,8=2,9=2,10=2,18=1,28=1/1;
 7/10=1,25=1/1,2,3,16;
 1/10=4,18=20,19=15,26=5/3(3);
 2/9=110/2;
 7/8=1,9=1,25=1,44=-1/16;
 99//99;
 2/9=110/2;
 3/5=4,6=6,7=12,11=2,25=1,30=1,71=2,74=-58,75=-7,140=1/1,2,3;
 4/5=5,16=3,69=1/1;
 5/5=2,8=3,13=1,32=2,38=5/2,8;
 8/6=4,10=90,11=11/1;
 11/6=1,8=1,9=11,15=111,16=1/1,2,10;
 10/6=1/2;
 7/10=1,25=1/1,2,3,16;
 1/10=4,18=20,19=15,26=5/3(-8);
 2/9=110/2;
 6/7=2,8=2,9=2,10=2,18=1,19=2,28=1/1;
 7/8=1,9=1,25=1,44=-1/16;
 99//99;
 -------------------
 Title Card Required
 -------------------
 Symbolic Z-matrix:
 Charge =  0 Multiplicity = 1
 F                    -1.13221  -0.16607  -0.00003 
 H                    -0.33008   0.30455   0.00005 
 

 GradGradGradGradGradGradGradGradGradGradGradGradGradGradGradGradGradGrad
 Berny optimization.
 Initialization pass.
                           ----------------------------
                           !    Initial Parameters    !
                           ! (Angstroms and Degrees)  !
 --------------------------                            --------------------------
 ! Name  Definition              Value          Derivative Info.                !
 --------------------------------------------------------------------------------
 ! R1    R(1,2)                  0.93           calculate D2E/DX2 analytically  !
 --------------------------------------------------------------------------------
 Trust Radius=3.00D-01 FncErr=1.00D-07 GrdErr=1.00D-07 EigMax=2.50D+02 EigMin=1.00D-04
 Number of steps in this run=     20 maximum allowed number of steps=    100.
 GradGradGradGradGradGradGradGradGradGradGradGradGradGradGradGradGradGrad

                          Input orientation:                          
 ---------------------------------------------------------------------
 Center     Atomic      Atomic             Coordinates (Angstroms)
 Number     Number       Type             X           Y           Z
 ---------------------------------------------------------------------
      1          9           0       -1.132209   -0.166074   -0.000030
      2          1           0       -0.330077    0.304548    0.000055
 ---------------------------------------------------------------------
 Stoichiometry    FH
 Framework group  C*V[C*(HF)]
 Deg. of freedom     1
 Full point group                 C*V     NOp   4
 Largest Abelian subgroup         C2V     NOp   4
 Largest concise Abelian subgroup C1      NOp   1
                         Standard orientation:                         
 ---------------------------------------------------------------------
 Center     Atomic      Atomic             Coordinates (Angstroms)
 Number     Number       Type             X           Y           Z
 ---------------------------------------------------------------------
      1          9           0       -0.000000   -0.000000    0.093000
      2          1           0        0.000000    0.000000   -0.837000
 ---------------------------------------------------------------------
 Rotational constants (GHZ):           0.0000000         610.5402130         610.5402130
 Standard basis: 6-311+G(2d) (5D, 7F)
 There are    18 symmetry adapted cartesian basis functions of A1  symmetry.
 There are     2 symmetry adapted cartesian basis functions of A2  symmetry.
 There are     6 symmetry adapted cartesian basis functions of B1  symmetry.
 There are     6 symmetry adapted cartesian basis functions of B2  symmetry.
 There are    16 symmetry adapted basis functions of A1  symmetry.
 There are     2 symmetry adapted basis functions of A2  symmetry.
 There are     6 symmetry adapted basis functions of B1  symmetry.
 There are     6 symmetry adapted basis functions of B2  symmetry.
    30 basis functions,    47 primitive gaussians,    32 cartesian basis functions
     5 alpha electrons        5 beta electrons
       nuclear repulsion energy         5.1210697588 Hartrees.
 NAtoms=    2 NActive=    2 NUniq=    2 SFac= 1.00D+00 NAtFMM=   60 NAOKFM=F Big=F
 Integral buffers will be    131072 words long.
 Raffenetti 2 integral format.
 Two-electron integral symmetry is turned on.
 Nuclear repulsion after empirical dispersion term =        5.1210691122 Hartrees.
 One-electron integrals computed using PRISM.
 NBasis=    30 RedAO= T EigKep=  1.05D-02  NBF=    16     2     6     6
 NBsUse=    30 1.00D-06 EigRej= -1.00D+00 NBFU=    16     2     6     6
 ExpMin= 1.03D-01 ExpMax= 1.14D+04 ExpMxC= 1.72D+03 IAcc=3 IRadAn=         7 AccDes= 0.00D+00
 Harris functional with IExCor= 4639 and IRadAn=       7 diagonalized for initial guess.
 HarFok:  IExCor= 4639 AccDes= 0.00D+00 IRadAn=         7 IDoV= 1 UseB2=F ITyADJ=14
 ICtDFT=  3500011 ScaDFX=  1.000000  1.000000  1.000000  1.000000
 FoFCou: FMM=F IPFlag=           0 FMFlag=      100000 FMFlg1=           0
         NFxFlg=           0 DoJE=T BraDBF=F KetDBF=T FulRan=T
         wScrn=  0.000000 ICntrl=       500 IOpCl=  0 I1Cent=   200000004 NGrid=           0
         NMat0=    1 NMatS0=      1 NMatT0=    0 NMatD0=    1 NMtDS0=    0 NMtDT0=    0
 Petite list used in FoFCou.
 Initial guess orbital symmetries:
       Occupied  (SG) (SG) (SG) (PI) (PI)
       Virtual   (SG) (SG) (PI) (PI) (SG) (SG) (PI) (PI) (SG) (SG)
                 (SG) (PI) (PI) (DLTA) (DLTA) (SG) (PI) (PI) (SG)
                 (PI) (PI) (DLTA) (DLTA) (SG) (SG)
 The electronic state of the initial guess is 1-SG.
 Keep R1 ints in memory in symmetry-blocked form, NReq=7150168.
 Requested convergence on RMS density matrix=1.00D-08 within  32 cycles.
 Requested convergence on MAX density matrix=1.00D-06.
 Requested convergence on             energy=1.00D-06.
 No special actions if energy rises.
 Integral accuracy reduced to 1.0D-05 until final iterations.
 Initial convergence to 1.0D-05 achieved.  Increase integral accuracy.
 SCF Done:  E(RwB97XD) =  -100.447675612     A.U. after   11 cycles
            NFock= 11  Conv=0.67D-09     -V/T= 2.0024
 QCSCF skips out because SCF is already converged.
 DoSCS=F DFT=T ScalE2(SS,OS)=  1.000000  1.000000
 Range of M.O.s used for correlation:     1    30
 NBasis=    30 NAE=     5 NBE=     5 NFC=     0 NFV=     0
 NROrb=     30 NOA=     5 NOB=     5 NVA=    25 NVB=    25
 Symmetrizing basis deriv contribution to polar:
 IMax=3 JMax=2 DiffMx= 0.00D+00
 G2DrvN: will do     3 centers at a time, making    1 passes.
 Calling FoFCou, ICntrl=  3107 FMM=F I1Cent=   0 AccDes= 0.00D+00.
 End of G2Drv F.D. properties file   721 does not exist.
 End of G2Drv F.D. properties file   722 does not exist.
 End of G2Drv F.D. properties file   788 does not exist.
          IDoAtm=11
          Differentiating once with respect to electric field.
                with respect to dipole field.
          Differentiating once with respect to nuclear coordinates.
 Keep R1 ints in memory in symmetry-blocked form, NReq=7101150.
          There are     9 degrees of freedom in the 1st order CPHF.  IDoFFX=6 NUNeed=     3.
      6 vectors produced by pass  0 Test12= 1.39D-15 1.11D-08 XBig12= 1.28D+00 9.26D-01.
 AX will form     6 AO Fock derivatives at one time.
      6 vectors produced by pass  1 Test12= 1.39D-15 1.11D-08 XBig12= 1.44D-01 1.41D-01.
      6 vectors produced by pass  2 Test12= 1.39D-15 1.11D-08 XBig12= 3.51D-03 2.20D-02.
      6 vectors produced by pass  3 Test12= 1.39D-15 1.11D-08 XBig12= 1.52D-05 1.16D-03.
      6 vectors produced by pass  4 Test12= 1.39D-15 1.11D-08 XBig12= 1.13D-07 1.52D-04.
      6 vectors produced by pass  5 Test12= 1.39D-15 1.11D-08 XBig12= 7.65D-10 1.20D-05.
      3 vectors produced by pass  6 Test12= 1.39D-15 1.11D-08 XBig12= 1.84D-12 5.10D-07.
      1 vectors produced by pass  7 Test12= 1.39D-15 1.11D-08 XBig12= 6.38D-15 3.38D-08.
 InvSVY:  IOpt=1 It=  1 EMax= 3.33D-16
 Solved reduced A of dimension    40 with     6 vectors.
 Isotropic polarizability for W=    0.000000        3.66 Bohr**3.
 End of Minotr F.D. properties file   721 does not exist.
 End of Minotr F.D. properties file   722 does not exist.
 End of Minotr F.D. properties file   788 does not exist.

 **********************************************************************

            Population analysis using the SCF density.

 **********************************************************************

 Orbital symmetries:
       Occupied  (SG) (SG) (SG) (PI) (PI)
       Virtual   (SG) (SG) (PI) (PI) (SG) (SG) (PI) (PI) (SG) (SG)
                 (SG) (PI) (PI) (DLTA) (DLTA) (SG) (PI) (PI) (SG)
                 (PI) (PI) (DLTA) (DLTA) (SG) (SG)
 The electronic state is 1-SG.
 Alpha  occ. eigenvalues --  -24.80438  -1.30760  -0.64624  -0.50710  -0.50710
 Alpha virt. eigenvalues --    0.09048   0.27789   0.28530   0.28530   0.38208
 Alpha virt. eigenvalues --    0.45093   1.32983   1.32983   1.38684   1.79251
 Alpha virt. eigenvalues --    1.88728   2.01885   2.01885   2.08706   2.08706
 Alpha virt. eigenvalues --    3.02073   6.35243   6.35243   6.43278   9.10131
 Alpha virt. eigenvalues --    9.10131   9.13639   9.13639   9.40579  66.86086
          Condensed to atoms (all electrons):
               1          2
     1  F    9.283362   0.185804
     2  H    0.185804   0.345030
 Mulliken charges:
               1
     1  F   -0.469166
     2  H    0.469166
 Sum of Mulliken charges =   0.00000
 Mulliken charges with hydrogens summed into heavy atoms:
               1
     1  F    0.000000
 APT charges:
               1
     1  F   -0.415745
     2  H    0.415745
 Sum of APT charges =   0.00000
 APT charges with hydrogens summed into heavy atoms:
               1
     1  F    0.000000
 Electronic spatial extent (au):  <R**2>=             14.1921
 Charge=              0.0000 electrons
 Dipole moment (field-independent basis, Debye):
    X=              0.0000    Y=              0.0000    Z=             -2.0650  Tot=              2.0650
 Quadrupole moment (field-independent basis, Debye-Ang):
   XX=             -5.8677   YY=             -5.8677   ZZ=             -3.6146
   XY=             -0.0000   XZ=             -0.0000   YZ=             -0.0000
 Traceless Quadrupole moment (field-independent basis, Debye-Ang):
   XX=             -0.7510   YY=             -0.7510   ZZ=              1.5020
   XY=             -0.0000   XZ=             -0.0000   YZ=             -0.0000
 Octapole moment (field-independent basis, Debye-Ang**2):
  XXX=              0.0000  YYY=             -0.0000  ZZZ=             -2.0139  XYY=              0.0000
  XXY=             -0.0000  XXZ=             -0.2475  XZZ=              0.0000  YZZ=              0.0000
  YYZ=             -0.2475  XYZ=             -0.0000
 Hexadecapole moment (field-independent basis, Debye-Ang**3):
 XXXX=             -4.0854 YYYY=             -4.0854 ZZZZ=             -3.5443 XXXY=             -0.0000
 XXXZ=              0.0000 YYYX=             -0.0000 YYYZ=              0.0000 ZZZX=             -0.0000
 ZZZY=             -0.0000 XXYY=             -1.3618 XXZZ=             -1.5016 YYZZ=             -1.5016
 XXYZ=              0.0000 YYXZ=              0.0000 ZZXY=             -0.0000
 N-N= 5.121069112183D+00 E-N=-2.505816989190D+02  KE= 1.002026578575D+02
 Symmetry A1   KE= 8.751310523685D+01
 Symmetry A2   KE= 2.697980251945D-31
 Symmetry B1   KE= 6.344776310311D+00
 Symmetry B2   KE= 6.344776310311D+00
  Exact polarizability:   2.962  -0.000   2.962  -0.000  -0.000   5.069
 Approx polarizability:   2.602   0.000   2.602  -0.000  -0.000   4.956
 Calling FoFJK, ICntrl=    100127 FMM=F ISym2X=1 I1Cent= 0 IOpClX= 0 NMat=1 NMatS=1 NMatT=0.
 ***** Axes restored to original set *****
 -------------------------------------------------------------------
 Center     Atomic                   Forces (Hartrees/Bohr)
 Number     Number              X              Y              Z
 -------------------------------------------------------------------
      1        9           0.008244668    0.004837268    0.000000872
      2        1          -0.008244668   -0.004837268   -0.000000872
 -------------------------------------------------------------------
 Cartesian Forces:  Max     0.008244668 RMS     0.005518868
 FormGI is forming the generalized inverse of G from B-inverse, IUseBI=4.

 GradGradGradGradGradGradGradGradGradGradGradGradGradGradGradGradGradGrad
 Berny optimization.
 Internal  Forces:  Max     0.009558960 RMS     0.009558960
 Search for a local minimum.
 Step number   1 out of a maximum of   20
 All quantities printed in internal units (Hartrees-Bohrs-Radians)
 Mixed Optimization -- RFO/linear search
 Second derivative matrix not updated -- analytic derivatives used.
 The second derivative matrix:
                          R1
           R1           0.57205
 ITU=  0
     Eigenvalues ---    0.57205
 RFO step:  Lambda=-1.59684374D-04 EMin= 5.72054795D-01
 Linear search not attempted -- first point.
 Iteration  1 RMS(Cart)=  0.01181236 RMS(Int)=  0.00000000
 Iteration  2 RMS(Cart)=  0.00000000 RMS(Int)=  0.00000000
 ClnCor:  largest displacement from symmetrization is 7.46D-16 for atom     2.
 Variable       Old X    -DE/DX   Delta X   Delta X   Delta X     New X
                                 (Linear)    (Quad)   (Total)
    R1        1.75745  -0.00956   0.00000  -0.01671  -0.01671   1.74074
         Item               Value     Threshold  Converged?
 Maximum Force            0.009559     0.000450     NO 
 RMS     Force            0.009559     0.000300     NO 
 Maximum Displacement     0.007204     0.001800     NO 
 RMS     Displacement     0.011812     0.001200     NO 
 Predicted change in Energy=-7.986447D-05
 GradGradGradGradGradGradGradGradGradGradGradGradGradGradGradGradGradGrad

                          Input orientation:                          
 ---------------------------------------------------------------------
 Center     Atomic      Atomic             Coordinates (Angstroms)
 Number     Number       Type             X           Y           Z
 ---------------------------------------------------------------------
      1          9           0       -1.128397   -0.163837   -0.000030
      2          1           0       -0.333890    0.302312    0.000055
 ---------------------------------------------------------------------
 Stoichiometry    FH
 Framework group  C*V[C*(HF)]
 Deg. of freedom     1
 Full point group                 C*V     NOp   4
 Largest Abelian subgroup         C2V     NOp   4
 Largest concise Abelian subgroup C1      NOp   1
                         Standard orientation:                         
 ---------------------------------------------------------------------
 Center     Atomic      Atomic             Coordinates (Angstroms)
 Number     Number       Type             X           Y           Z
 ---------------------------------------------------------------------
      1          9           0        0.000000   -0.000000    0.092116
      2          1           0       -0.000000    0.000000   -0.829044
 ---------------------------------------------------------------------
 Rotational constants (GHZ):           0.0000000         622.3146735         622.3146735
 Standard basis: 6-311+G(2d) (5D, 7F)
 There are    18 symmetry adapted cartesian basis functions of A1  symmetry.
 There are     2 symmetry adapted cartesian basis functions of A2  symmetry.
 There are     6 symmetry adapted cartesian basis functions of B1  symmetry.
 There are     6 symmetry adapted cartesian basis functions of B2  symmetry.
 There are    16 symmetry adapted basis functions of A1  symmetry.
 There are     2 symmetry adapted basis functions of A2  symmetry.
 There are     6 symmetry adapted basis functions of B1  symmetry.
 There are     6 symmetry adapted basis functions of B2  symmetry.
    30 basis functions,    47 primitive gaussians,    32 cartesian basis functions
     5 alpha electrons        5 beta electrons
       nuclear repulsion energy         5.1702146690 Hartrees.
 NAtoms=    2 NActive=    2 NUniq=    2 SFac= 1.00D+00 NAtFMM=   60 NAOKFM=F Big=F
 Integral buffers will be    131072 words long.
 Raffenetti 2 integral format.
 Two-electron integral symmetry is turned on.
 Nuclear repulsion after empirical dispersion term =        5.1702140584 Hartrees.
 One-electron integrals computed using PRISM.
 NBasis=    30 RedAO= T EigKep=  1.01D-02  NBF=    16     2     6     6
 NBsUse=    30 1.00D-06 EigRej= -1.00D+00 NBFU=    16     2     6     6
 Initial guess from the checkpoint file:  "hf.chk"
 B after Tr=     0.000000   -0.000000    0.000000
         Rot=    1.000000    0.000000   -0.000000    0.000000 Ang=   0.00 deg.
 Initial guess orbital symmetries:
       Occupied  (SG) (SG) (SG) (PI) (PI)
       Virtual   (SG) (SG) (PI) (PI) (SG) (SG) (PI) (PI) (SG) (SG)
                 (SG) (PI) (PI) (DLTA) (DLTA) (SG) (PI) (PI) (SG)
                 (PI) (PI) (DLTA) (DLTA) (SG) (SG)
 Keep R1 ints in memory in symmetry-blocked form, NReq=7150168.
 Requested convergence on RMS density matrix=1.00D-08 within  32 cycles.
 Requested convergence on MAX density matrix=1.00D-06.
 Requested convergence on             energy=1.00D-06.
 No special actions if energy rises.
 SCF Done:  E(RwB97XD) =  -100.447753697     A.U. after    8 cycles
            NFock=  8  Conv=0.28D-08     -V/T= 2.0023
 QCSCF skips out because SCF is already converged.
 DoSCS=F DFT=T ScalE2(SS,OS)=  1.000000  1.000000
 Range of M.O.s used for correlation:     1    30
 NBasis=    30 NAE=     5 NBE=     5 NFC=     0 NFV=     0
 NROrb=     30 NOA=     5 NOB=     5 NVA=    25 NVB=    25
 Symmetrizing basis deriv contribution to polar:
 IMax=3 JMax=2 DiffMx= 0.00D+00
 G2DrvN: will do     3 centers at a time, making    1 passes.
 Calling FoFCou, ICntrl=  3107 FMM=F I1Cent=   0 AccDes= 0.00D+00.
 End of G2Drv F.D. properties file   721 does not exist.
 End of G2Drv F.D. properties file   722 does not exist.
 End of G2Drv F.D. properties file   788 does not exist.
          IDoAtm=11
          Differentiating once with respect to electric field.
                with respect to dipole field.
          Differentiating once with respect to nuclear coordinates.
 Keep R1 ints in memory in symmetry-blocked form, NReq=7101150.
          There are     9 degrees of freedom in the 1st order CPHF.  IDoFFX=6 NUNeed=     3.
      6 vectors produced by pass  0 Test12= 1.39D-15 1.11D-08 XBig12= 1.24D+00 9.03D-01.
 AX will form     6 AO Fock derivatives at one time.
      6 vectors produced by pass  1 Test12= 1.39D-15 1.11D-08 XBig12= 1.36D-01 1.38D-01.
      6 vectors produced by pass  2 Test12= 1.39D-15 1.11D-08 XBig12= 3.31D-03 2.16D-02.
      6 vectors produced by pass  3 Test12= 1.39D-15 1.11D-08 XBig12= 1.42D-05 1.11D-03.
      6 vectors produced by pass  4 Test12= 1.39D-15 1.11D-08 XBig12= 1.04D-07 1.43D-04.
      6 vectors produced by pass  5 Test12= 1.39D-15 1.11D-08 XBig12= 7.08D-10 1.15D-05.
      3 vectors produced by pass  6 Test12= 1.39D-15 1.11D-08 XBig12= 1.98D-12 5.02D-07.
      1 vectors produced by pass  7 Test12= 1.39D-15 1.11D-08 XBig12= 7.42D-15 3.48D-08.
 InvSVY:  IOpt=1 It=  1 EMax= 4.44D-16
 Solved reduced A of dimension    40 with     6 vectors.
 Isotropic polarizability for W=    0.000000        3.63 Bohr**3.
 End of Minotr F.D. properties file   721 does not exist.
 End of Minotr F.D. properties file   722 does not exist.
 End of Minotr F.D. properties file   788 does not exist.
 Calling FoFJK, ICntrl=    100127 FMM=F ISym2X=1 I1Cent= 0 IOpClX= 0 NMat=1 NMatS=1 NMatT=0.
 ***** Axes restored to original set *****
 -------------------------------------------------------------------
 Center     Atomic                   Forces (Hartrees/Bohr)
 Number     Number              X              Y              Z
 -------------------------------------------------------------------
      1        9          -0.000274325   -0.000160951   -0.000000029
      2        1           0.000274325    0.000160951    0.000000029
 -------------------------------------------------------------------
 Cartesian Forces:  Max     0.000274325 RMS     0.000183630

 GradGradGradGradGradGradGradGradGradGradGradGradGradGradGradGradGradGrad
 Berny optimization.
 Using GEDIIS/GDIIS optimizer.
 Internal  Forces:  Max     0.000318056 RMS     0.000318056
 Search for a local minimum.
 Step number   2 out of a maximum of   20
 All quantities printed in internal units (Hartrees-Bohrs-Radians)
 Mixed Optimization -- En-DIIS/RFO-DIIS
 Second derivative matrix not updated -- analytic derivatives used.
 DE= -7.81D-05 DEPred=-7.99D-05 R= 9.78D-01
 TightC=F SS=  1.41D+00  RLast= 1.67D-02 DXNew= 5.0454D-01 5.0116D-02
 Trust test= 9.78D-01 RLast= 1.67D-02 DXMaxT set to 3.00D-01
 The second derivative matrix:
                          R1
           R1           0.61075
 ITU=  1  0
 Use linear search instead of GDIIS.
     Eigenvalues ---    0.61075
 RFO step:  Lambda= 0.00000000D+00 EMin= 6.10745039D-01
 Quintic linear search produced a step of -0.03121.
 Iteration  1 RMS(Cart)=  0.00036861 RMS(Int)=  0.00000000
 Iteration  2 RMS(Cart)=  0.00000000 RMS(Int)=  0.00000000
 ClnCor:  largest displacement from symmetrization is 1.05D-15 for atom     2.
 Variable       Old X    -DE/DX   Delta X   Delta X   Delta X     New X
                                 (Linear)    (Quad)   (Total)
    R1        1.74074   0.00032   0.00052   0.00000   0.00052   1.74126
         Item               Value     Threshold  Converged?
 Maximum Force            0.000318     0.000450     YES
 RMS     Force            0.000318     0.000300     NO 
 Maximum Displacement     0.000225     0.001800     YES
 RMS     Displacement     0.000369     0.001200     YES
 Predicted change in Energy=-8.281631D-08
 GradGradGradGradGradGradGradGradGradGradGradGradGradGradGradGradGradGrad

                          Input orientation:                          
 ---------------------------------------------------------------------
 Center     Atomic      Atomic             Coordinates (Angstroms)
 Number     Number       Type             X           Y           Z
 ---------------------------------------------------------------------
      1          9           0       -1.128515   -0.163907   -0.000030
      2          1           0       -0.333771    0.302381    0.000055
 ---------------------------------------------------------------------
 Stoichiometry    FH
 Framework group  C*V[C*(HF)]
 Deg. of freedom     1
 Full point group                 C*V     NOp   4
 Largest Abelian subgroup         C2V     NOp   4
 Largest concise Abelian subgroup C1      NOp   1
                         Standard orientation:                         
 ---------------------------------------------------------------------
 Center     Atomic      Atomic             Coordinates (Angstroms)
 Number     Number       Type             X           Y           Z
 ---------------------------------------------------------------------
      1          9           0        0.000000   -0.000000    0.092144
      2          1           0       -0.000000    0.000000   -0.829292
 ---------------------------------------------------------------------
 Rotational constants (GHZ):           0.0000000         621.9421158         621.9421158
 Standard basis: 6-311+G(2d) (5D, 7F)
 There are    18 symmetry adapted cartesian basis functions of A1  symmetry.
 There are     2 symmetry adapted cartesian basis functions of A2  symmetry.
 There are     6 symmetry adapted cartesian basis functions of B1  symmetry.
 There are     6 symmetry adapted cartesian basis functions of B2  symmetry.
 There are    16 symmetry adapted basis functions of A1  symmetry.
 There are     2 symmetry adapted basis functions of A2  symmetry.
 There are     6 symmetry adapted basis functions of B1  symmetry.
 There are     6 symmetry adapted basis functions of B2  symmetry.
    30 basis functions,    47 primitive gaussians,    32 cartesian basis functions
     5 alpha electrons        5 beta electrons
       nuclear repulsion energy         5.1686668254 Hartrees.
 NAtoms=    2 NActive=    2 NUniq=    2 SFac= 1.00D+00 NAtFMM=   60 NAOKFM=F Big=F
 Integral buffers will be    131072 words long.
 Raffenetti 2 integral format.
 Two-electron integral symmetry is turned on.
 Nuclear repulsion after empirical dispersion term =        5.1686662137 Hartrees.
 One-electron integrals computed using PRISM.
 NBasis=    30 RedAO= T EigKep=  1.02D-02  NBF=    16     2     6     6
 NBsUse=    30 1.00D-06 EigRej= -1.00D+00 NBFU=    16     2     6     6
 Initial guess from the checkpoint file:  "hf.chk"
 B after Tr=    -0.000000    0.000000    0.000000
         Rot=    1.000000   -0.000000   -0.000000    0.000000 Ang=   0.00 deg.
 Initial guess orbital symmetries:
       Occupied  (SG) (SG) (SG) (PI) (PI)
       Virtual   (SG) (SG) (PI) (PI) (SG) (SG) (PI) (PI) (SG) (SG)
                 (SG) (PI) (PI) (DLTA) (DLTA) (SG) (PI) (PI) (SG)
                 (PI) (PI) (DLTA) (DLTA) (SG) (SG)
 Keep R1 ints in memory in symmetry-blocked form, NReq=7150168.
 Requested convergence on RMS density matrix=1.00D-08 within  32 cycles.
 Requested convergence on MAX density matrix=1.00D-06.
 Requested convergence on             energy=1.00D-06.
 No special actions if energy rises.
 SCF Done:  E(RwB97XD) =  -100.447753780     A.U. after    6 cycles
            NFock=  6  Conv=0.48D-08     -V/T= 2.0023
 QCSCF skips out because SCF is already converged.
 DoSCS=F DFT=T ScalE2(SS,OS)=  1.000000  1.000000
 Range of M.O.s used for correlation:     1    30
 NBasis=    30 NAE=     5 NBE=     5 NFC=     0 NFV=     0
 NROrb=     30 NOA=     5 NOB=     5 NVA=    25 NVB=    25
 Symmetrizing basis deriv contribution to polar:
 IMax=3 JMax=2 DiffMx= 0.00D+00
 G2DrvN: will do     3 centers at a time, making    1 passes.
 Calling FoFCou, ICntrl=  3107 FMM=F I1Cent=   0 AccDes= 0.00D+00.
 End of G2Drv F.D. properties file   721 does not exist.
 End of G2Drv F.D. properties file   722 does not exist.
 End of G2Drv F.D. properties file   788 does not exist.
          IDoAtm=11
          Differentiating once with respect to electric field.
                with respect to dipole field.
          Differentiating once with respect to nuclear coordinates.
 Keep R1 ints in memory in symmetry-blocked form, NReq=7101150.
          There are     9 degrees of freedom in the 1st order CPHF.  IDoFFX=6 NUNeed=     3.
      6 vectors produced by pass  0 Test12= 1.39D-15 1.11D-08 XBig12= 1.24D+00 9.04D-01.
 AX will form     6 AO Fock derivatives at one time.
      6 vectors produced by pass  1 Test12= 1.39D-15 1.11D-08 XBig12= 1.37D-01 1.38D-01.
      6 vectors produced by pass  2 Test12= 1.39D-15 1.11D-08 XBig12= 3.31D-03 2.16D-02.
      6 vectors produced by pass  3 Test12= 1.39D-15 1.11D-08 XBig12= 1.42D-05 1.11D-03.
      6 vectors produced by pass  4 Test12= 1.39D-15 1.11D-08 XBig12= 1.04D-07 1.43D-04.
      6 vectors produced by pass  5 Test12= 1.39D-15 1.11D-08 XBig12= 7.10D-10 1.15D-05.
      3 vectors produced by pass  6 Test12= 1.39D-15 1.11D-08 XBig12= 1.97D-12 5.02D-07.
      1 vectors produced by pass  7 Test12= 1.39D-15 1.11D-08 XBig12= 7.39D-15 3.48D-08.
 InvSVY:  IOpt=1 It=  1 EMax= 3.33D-16
 Solved reduced A of dimension    40 with     6 vectors.
 Isotropic polarizability for W=    0.000000        3.63 Bohr**3.
 End of Minotr F.D. properties file   721 does not exist.
 End of Minotr F.D. properties file   722 does not exist.
 End of Minotr F.D. properties file   788 does not exist.
 Calling FoFJK, ICntrl=    100127 FMM=F ISym2X=1 I1Cent= 0 IOpClX= 0 NMat=1 NMatS=1 NMatT=0.
 ***** Axes restored to original set *****
 -------------------------------------------------------------------
 Center     Atomic                   Forces (Hartrees/Bohr)
 Number     Number              X              Y              Z
 -------------------------------------------------------------------
      1        9           0.000000018    0.000000011    0.000000000
      2        1          -0.000000018   -0.000000011   -0.000000000
 -------------------------------------------------------------------
 Cartesian Forces:  Max     0.000000018 RMS     0.000000012

 GradGradGradGradGradGradGradGradGradGradGradGradGradGradGradGradGradGrad
 Berny optimization.
 Using GEDIIS/GDIIS optimizer.
 Internal  Forces:  Max     0.000000021 RMS     0.000000021
 Search for a local minimum.
 Step number   3 out of a maximum of   20
 All quantities printed in internal units (Hartrees-Bohrs-Radians)
 Mixed Optimization -- En-DIIS/RFO-DIIS
 Swapping is turned off.
 Second derivative matrix not updated -- analytic derivatives used.
 DE= -8.29D-08 DEPred=-8.28D-08 R= 1.00D+00
 Trust test= 1.00D+00 RLast= 5.21D-04 DXMaxT set to 3.00D-01
 The second derivative matrix:
                          R1
           R1           0.60950
 ITU=  0  1
     Eigenvalues ---    0.60950
 En-DIIS/RFO-DIIS/Sim-DIIS IScMMF=       -3 using points:     3    2
 RFO step:  Lambda=-7.21644966D-16.
 DidBck=F Rises=F RFO-DIIS coefs:    0.99993    0.00007
 Iteration  1 RMS(Cart)=  0.00000002 RMS(Int)=  0.00000000
 ClnCor:  largest displacement from symmetrization is 4.99D-16 for atom     2.
 Variable       Old X    -DE/DX   Delta X   Delta X   Delta X     New X
                                 (Linear)    (Quad)   (Total)
    R1        1.74126  -0.00000  -0.00000  -0.00000  -0.00000   1.74126
         Item               Value     Threshold  Converged?
 Maximum Force            0.000000     0.000450     YES
 RMS     Force            0.000000     0.000300     YES
 Maximum Displacement     0.000000     0.001800     YES
 RMS     Displacement     0.000000     0.001200     YES
 Predicted change in Energy=-3.555998D-16
 Optimization completed.
    -- Stationary point found.
                           ----------------------------
                           !   Optimized Parameters   !
                           ! (Angstroms and Degrees)  !
 --------------------------                            --------------------------
 ! Name  Definition              Value          Derivative Info.                !
 --------------------------------------------------------------------------------
 ! R1    R(1,2)                  0.9214         -DE/DX =    0.0                 !
 --------------------------------------------------------------------------------
 GradGradGradGradGradGradGradGradGradGradGradGradGradGradGradGradGradGrad

                          Input orientation:                          
 ---------------------------------------------------------------------
 Center     Atomic      Atomic             Coordinates (Angstroms)
 Number     Number       Type             X           Y           Z
 ---------------------------------------------------------------------
      1          9           0       -1.128515   -0.163907   -0.000030
      2          1           0       -0.333771    0.302381    0.000055
 ---------------------------------------------------------------------
 Stoichiometry    FH
 Framework group  C*V[C*(HF)]
 Deg. of freedom     1
 Full point group                 C*V     NOp   4
 Largest Abelian subgroup         C2V     NOp   4
 Largest concise Abelian subgroup C1      NOp   1
                         Standard orientation:                         
 ---------------------------------------------------------------------
 Center     Atomic      Atomic             Coordinates (Angstroms)
 Number     Number       Type             X           Y           Z
 ---------------------------------------------------------------------
      1          9           0        0.000000   -0.000000    0.092144
      2          1           0       -0.000000    0.000000   -0.829292
 ---------------------------------------------------------------------
 Rotational constants (GHZ):           0.0000000         621.9421158         621.9421158

 **********************************************************************

            Population analysis using the SCF density.

 **********************************************************************

 Orbital symmetries:
       Occupied  (SG) (SG) (SG) (PI) (PI)
       Virtual   (SG) (SG) (PI) (PI) (SG) (SG) (PI) (PI) (SG) (SG)
                 (SG) (PI) (PI) (DLTA) (DLTA) (SG) (PI) (PI) (SG)
                 (PI) (PI) (DLTA) (DLTA) (SG) (SG)
 The electronic state is 1-SG.
 Alpha  occ. eigenvalues --  -24.80416  -1.31036  -0.64829  -0.50783  -0.50783
 Alpha virt. eigenvalues --    0.09247   0.27801   0.28523   0.28523   0.38229
 Alpha virt. eigenvalues --    0.45643   1.32942   1.32942   1.38595   1.79254
 Alpha virt. eigenvalues --    1.88936   2.01711   2.01711   2.08627   2.08627
 Alpha virt. eigenvalues --    3.03793   6.35199   6.35199   6.43777   9.10047
 Alpha virt. eigenvalues --    9.10047   9.13594   9.13594   9.40877  66.86159
          Condensed to atoms (all electrons):
               1          2
     1  F    9.284024   0.185933
     2  H    0.185933   0.344111
 Mulliken charges:
               1
     1  F   -0.469956
     2  H    0.469956
 Sum of Mulliken charges =  -0.00000
 Mulliken charges with hydrogens summed into heavy atoms:
               1
     1  F   -0.000000
 APT charges:
               1
     1  F   -0.416917
     2  H    0.416917
 Sum of APT charges =  -0.00000
 APT charges with hydrogens summed into heavy atoms:
               1
     1  F   -0.000000
 Electronic spatial extent (au):  <R**2>=             14.1445
 Charge=              0.0000 electrons
 Dipole moment (field-independent basis, Debye):
    X=             -0.0000    Y=              0.0000    Z=             -2.0517  Tot=              2.0517
 Quadrupole moment (field-independent basis, Debye-Ang):
   XX=             -5.8590   YY=             -5.8590   ZZ=             -3.6365
   XY=             -0.0000   XZ=             -0.0000   YZ=             -0.0000
 Traceless Quadrupole moment (field-independent basis, Debye-Ang):
   XX=             -0.7408   YY=             -0.7408   ZZ=              1.4817
   XY=             -0.0000   XZ=             -0.0000   YZ=             -0.0000
 Octapole moment (field-independent basis, Debye-Ang**2):
  XXX=             -0.0000  YYY=             -0.0000  ZZZ=             -1.9817  XYY=             -0.0000
  XXY=             -0.0000  XXZ=             -0.2500  XZZ=              0.0000  YZZ=              0.0000
  YYZ=             -0.2500  XYZ=             -0.0000
 Hexadecapole moment (field-independent basis, Debye-Ang**3):
 XXXX=             -4.0733 YYYY=             -4.0733 ZZZZ=             -3.5364 XXXY=             -0.0000
 XXXZ=             -0.0000 YYYX=             -0.0000 YYYZ=              0.0000 ZZZX=             -0.0000
 ZZZY=             -0.0000 XXYY=             -1.3578 XXZZ=             -1.4898 YYZZ=             -1.4898
 XXYZ=              0.0000 YYXZ=             -0.0000 ZZXY=             -0.0000
 N-N= 5.168666213688D+00 E-N=-2.506795783403D+02  KE= 1.002195720645D+02
 Symmetry A1   KE= 8.753009817355D+01
 Symmetry A2   KE= 3.415065809732D-31
 Symmetry B1   KE= 6.344736945487D+00
 Symmetry B2   KE= 6.344736945487D+00
  Exact polarizability:   2.958   0.000   2.958  -0.000  -0.000   4.972
 Approx polarizability:   2.600  -0.000   2.600   0.000  -0.000   4.855
 Rotating derivatives to standard orientation.
 Full mass-weighted force constant matrix:
 Low frequencies ---   -8.5013   -8.5013   -0.0014   -0.0013    0.0017 4102.2629
 Diagonal vibrational polarizability:
        0.0000000       0.0000000       0.1705827
 Harmonic frequencies (cm**-1), IR intensities (KM/Mole), Raman scattering
 activities (A**4/AMU), depolarization ratios for plane and unpolarized
 incident light, reduced masses (AMU), force constants (mDyne/A),
 and normal coordinates:
                      1
                     SG
 Frequencies --   4102.2629
 Red. masses --      1.0583
 Frc consts  --     10.4932
 IR Inten    --    106.6716
  Atom  AN      X      Y      Z
     1   9    -0.00   0.00  -0.05
     2   1     0.00  -0.00   1.00

 -------------------
 - Thermochemistry -
 -------------------
 Temperature   298.150 Kelvin.  Pressure   1.00000 Atm.
 Atom     1 has atomic number  9 and mass  18.99840
 Atom     2 has atomic number  1 and mass   1.00783
 Molecular mass:    20.00623 amu.
 Principal axes and moments of inertia in atomic units:
                           1         2         3
     Eigenvalues --     0.00000   2.90178   2.90178
           X            0.00000  -0.04039   0.99918
           Y           -0.00000   0.99918   0.04039
           Z            1.00000   0.00000   0.00000
 This molecule is a prolate symmetric top.
 Rotational symmetry number  1.
 Rotational temperature (Kelvin)     29.84852
 Rotational constant (GHZ):         621.942116
 Zero-point vibrational energy      24537.0 (Joules/Mol)
                                    5.86448 (Kcal/Mol)
 Vibrational temperatures:   5902.24
          (Kelvin)
 
 Zero-point correction=                           0.009346 (Hartree/Particle)
 Thermal correction to Energy=                    0.011706
 Thermal correction to Enthalpy=                  0.012650
 Thermal correction to Gibbs Free Energy=        -0.007059
 Sum of electronic and zero-point Energies=           -100.438408
 Sum of electronic and thermal Energies=              -100.436048
 Sum of electronic and thermal Enthalpies=            -100.435103
 Sum of electronic and thermal Free Energies=         -100.454813
 
                     E (Thermal)             CV                S
                      KCal/Mol        Cal/Mol-Kelvin    Cal/Mol-Kelvin
 Total                    7.346              4.968             41.482
 Electronic               0.000              0.000              0.000
 Translational            0.889              2.981             34.922
 Rotational               0.592              1.987              6.561
 Vibrational              5.864              0.000              0.000
                       Q            Log10(Q)             Ln(Q)
 Total Bot       0.176612D+04          3.247020          7.476541
 Total V=0       0.351329D+08          7.545714         17.374648
 Vib (Bot)       0.502697D-04         -4.298693         -9.898107
 Vib (V=0)       0.100000D+01          0.000000          0.000000
 Electronic      0.100000D+01          0.000000          0.000000
 Translational   0.351724D+07          6.546202         15.073186
 Rotational      0.998877D+01          0.999512          2.301462
 ***** Axes restored to original set *****
 -------------------------------------------------------------------
 Center     Atomic                   Forces (Hartrees/Bohr)
 Number     Number              X              Y              Z
 -------------------------------------------------------------------
      1        9           0.000000018    0.000000011    0.000000000
      2        1          -0.000000018   -0.000000011   -0.000000000
 -------------------------------------------------------------------
 Cartesian Forces:  Max     0.000000018 RMS     0.000000012

 ----------------------------------------------------------------------

 Electric dipole moment (input orientation):
 (Debye = 10**-18 statcoulomb cm , SI units = C m)
                  (au)            (Debye)         (10**-30 SI)
   Tot        0.807189D+00      0.205167D+01      0.684363D+01
   x          0.696206D+00      0.176958D+01      0.590268D+01
   y          0.408474D+00      0.103824D+01      0.346319D+01
   z          0.736625D-04      0.187231D-03      0.624537D-03

 Dipole polarizability, Alpha (input orientation).
 (esu units = cm**3 , SI units = C**2 m**2 J**-1)
 Alpha(0;0):
               (au)            (10**-24 esu)      (10**-40 SI)
   iso        0.362952D+01      0.537839D+00      0.598427D+00
   aniso      0.201432D+01      0.298491D+00      0.332116D+00
   xx         0.445657D+01      0.660395D+00      0.734789D+00
   yx         0.879185D+00      0.130282D+00      0.144958D+00
   yy         0.347391D+01      0.514780D+00      0.572770D+00
   zx         0.158548D-03      0.234945D-04      0.261411D-04
   zy         0.930227D-04      0.137845D-04      0.153374D-04
   zz         0.295808D+01      0.438342D+00      0.487721D+00

 ----------------------------------------------------------------------

 Dipole orientation:
     9         -0.41103448          0.70031995         -1.99611141
     1         -0.41103448          0.70031995         -0.25485001

 Electric dipole moment (dipole orientation):
 (Debye = 10**-18 statcoulomb cm , SI units = C m)
                  (au)            (Debye)         (10**-30 SI)
   Tot        0.807189D+00      0.205167D+01      0.684363D+01
   x          0.000000D+00      0.000000D+00      0.000000D+00
   y          0.000000D+00      0.000000D+00      0.000000D+00
   z          0.807189D+00      0.205167D+01      0.684363D+01

 Dipole polarizability, Alpha (dipole orientation).
 (esu units = cm**3 , SI units = C**2 m**2 J**-1)
 Alpha(0;0):
               (au)            (10**-24 esu)      (10**-40 SI)
   iso        0.362952D+01      0.537839D+00      0.598427D+00
   aniso      0.201432D+01      0.298491D+00      0.332116D+00
   xx         0.295808D+01      0.438342D+00      0.487721D+00
   yx         0.000000D+00      0.000000D+00      0.000000D+00
   yy         0.295808D+01      0.438342D+00      0.487721D+00
   zx         0.000000D+00      0.000000D+00      0.000000D+00
   zy         0.000000D+00      0.000000D+00      0.000000D+00
   zz         0.497240D+01      0.736833D+00      0.819838D+00

 ----------------------------------------------------------------------
 1\1\GINC-CCLEARCO2\Freq\RwB97XD\6-311+G(2d)\F1H1\RAPPE\27-Apr-2024\0\\
 # opt=calcall wb97xd/6-311+g(2d) geom=connectivity integral=grid=super
 finegrid scf=(xqc,tight)\\Title Card Required\\0,1\F,-1.1285154983,-0.
 1639069537,-0.0000295592\H,-0.3337708117,0.3023814737,0.0000545292\\Ve
 rsion=EM64M-G16RevA.03\State=1-SG\HF=-100.4477538\RMSD=4.822e-09\RMSF=
 1.202e-08\ZeroPoint=0.0093456\Thermal=0.0117061\Dipole=0.696206,0.4084
 743,0.0000737\DipoleDeriv=-0.3594492,0.0610905,0.000011,0.0610905,-0.4
 277296,0.0000065,0.000011,0.0000065,-0.4635723,0.3594492,-0.0610905,-0
 .000011,-0.0610905,0.4277296,-0.0000065,-0.000011,-0.0000065,0.4635723
 \Polar=4.4565671,0.8791851,3.4739098,0.0001585,0.000093,2.9580789\PG=C
 *V [C*(H1F1)]\NImag=0\\0.45341915,0.26602924,0.15608066,0.00004797,0.0
 0002815,-0.00000261,-0.45341915,-0.26602924,-0.00004797,0.45341915,-0.
 26602924,-0.15608066,-0.00002815,0.26602924,0.15608066,-0.00004797,-0.
 00002815,0.00000261,0.00004797,0.00002815,-0.00000261\\-0.00000002,-0.
 00000001,0.,0.00000002,0.00000001,0.\\\@


 CHRISTMAS IS ON TOP OF A STEEP HILL.
 THE CLOSER YOU GET, THE STEEPER THE HILL IS.
          -- LINUS, OF PEANUTS
 Job cpu time:       0 days  0 hours  1 minutes 29.7 seconds.
 Elapsed time:       0 days  0 hours  0 minutes 12.1 seconds.
 File lengths (MBytes):  RWF=      6 Int=      0 D2E=      0 Chk=      1 Scr=      1
 Normal termination of Gaussian 16 at Sat Apr 27 12:47:28 2024.
