 Entering Gaussian System, Link 0=/applications/g16/g16/g16
 Initial command:
 /applications/g16/g16/l1.exe "/scratch/g98/Gau-50941.inp" -scrdir="/scratch/g98/"
 Entering Link 1 = /applications/g16/g16/l1.exe PID=     50942.
  
 Copyright (c) 1988,1990,1992,1993,1995,1998,2003,2009,2016,
            Gaussian, Inc.  All Rights Reserved.
  
 This is part of the Gaussian(R) 16 program.  It is based on
 the Gaussian(R) 09 system (copyright 2009, Gaussian, Inc.),
 the Gaussian(R) 03 system (copyright 2003, Gaussian, Inc.),
 the Gaussian(R) 98 system (copyright 1998, Gaussian, Inc.),
 the Gaussian(R) 94 system (copyright 1995, Gaussian, Inc.),
 the Gaussian 92(TM) system (copyright 1992, Gaussian, Inc.),
 the Gaussian 90(TM) system (copyright 1990, Gaussian, Inc.),
 the Gaussian 88(TM) system (copyright 1988, Gaussian, Inc.),
 the Gaussian 86(TM) system (copyright 1986, Carnegie Mellon
 University), and the Gaussian 82(TM) system (copyright 1983,
 Carnegie Mellon University). Gaussian is a federally registered
 trademark of Gaussian, Inc.
  
 This software contains proprietary and confidential information,
 including trade secrets, belonging to Gaussian, Inc.
  
 This software is provided under written license and may be
 used, copied, transmitted, or stored only in accord with that
 written license.
  
 The following legend is applicable only to US Government
 contracts under FAR:
  
                    RESTRICTED RIGHTS LEGEND
  
 Use, reproduction and disclosure by the US Government is
 subject to restrictions as set forth in subparagraphs (a)
 and (c) of the Commercial Computer Software - Restricted
 Rights clause in FAR 52.227-19.
  
 Gaussian, Inc.
 340 Quinnipiac St., Bldg. 40, Wallingford CT 06492
  
  
 ---------------------------------------------------------------
 Warning -- This program may not be used in any manner that
 competes with the business of Gaussian, Inc. or will provide
 assistance to any competitor of Gaussian, Inc.  The licensee
 of this program is prohibited from giving any competitor of
 Gaussian, Inc. access to this program.  By using this program,
 the user acknowledges that Gaussian, Inc. is engaged in the
 business of creating and licensing software in the field of
 computational chemistry and represents and warrants to the
 licensee that it is not a competitor of Gaussian, Inc. and that
 it will not use this program in any manner prohibited above.
 ---------------------------------------------------------------
  

 Cite this work as:
 Gaussian 16, Revision A.03,
 M. J. Frisch, G. W. Trucks, H. B. Schlegel, G. E. Scuseria, 
 M. A. Robb, J. R. Cheeseman, G. Scalmani, V. Barone, 
 G. A. Petersson, H. Nakatsuji, X. Li, M. Caricato, A. V. Marenich, 
 J. Bloino, B. G. Janesko, R. Gomperts, B. Mennucci, H. P. Hratchian, 
 J. V. Ortiz, A. F. Izmaylov, J. L. Sonnenberg, D. Williams-Young, 
 F. Ding, F. Lipparini, F. Egidi, J. Goings, B. Peng, A. Petrone, 
 T. Henderson, D. Ranasinghe, V. G. Zakrzewski, J. Gao, N. Rega, 
 G. Zheng, W. Liang, M. Hada, M. Ehara, K. Toyota, R. Fukuda, 
 J. Hasegawa, M. Ishida, T. Nakajima, Y. Honda, O. Kitao, H. Nakai, 
 T. Vreven, K. Throssell, J. A. Montgomery, Jr., J. E. Peralta, 
 F. Ogliaro, M. J. Bearpark, J. J. Heyd, E. N. Brothers, K. N. Kudin, 
 V. N. Staroverov, T. A. Keith, R. Kobayashi, J. Normand, 
 K. Raghavachari, A. P. Rendell, J. C. Burant, S. S. Iyengar, 
 J. Tomasi, M. Cossi, J. M. Millam, M. Klene, C. Adamo, R. Cammi, 
 J. W. Ochterski, R. L. Martin, K. Morokuma, O. Farkas, 
 J. B. Foresman, and D. J. Fox, Gaussian, Inc., Wallingford CT, 2016.
 
 ******************************************
 Gaussian 16:  EM64M-G16RevA.03 25-Dec-2016
                16-Nov-2025 
 ******************************************
 %mem=48GB
 %nprocshared=24
 Will use up to   24 processors via shared memory.
 %chk=hfp_2oh_2rad_prod.chk
 ------------------------------------------------
 # opt freq uwb97xd/6-311+g(2d) geom=connectivity
 ------------------------------------------------
 1/18=20,19=15,26=3,38=1,57=2/1,3;
 2/9=110,12=2,17=6,18=5,40=1/2;
 3/5=4,6=6,7=12,11=2,25=1,30=1,71=1,74=-58,116=2/1,2,3;
 4//1;
 5/5=2,38=5/2;
 6/7=2,8=2,9=2,10=2,28=1/1;
 7//1,2,3,16;
 1/18=20,19=15,26=3/3(2);
 2/9=110/2;
 99//99;
 2/9=110/2;
 3/5=4,6=6,7=12,11=2,25=1,30=1,71=1,74=-58,116=2/1,2,3;
 4/5=5,16=3,69=1/1;
 5/5=2,38=5/2;
 7//1,2,3,16;
 1/18=20,19=15,26=3/3(-5);
 2/9=110/2;
 6/7=2,8=2,9=2,10=2,19=2,28=1/1;
 99/9=1/99;
 -------------------
 Title Card Required
 -------------------
 Symbolic Z-matrix:
 Charge =  0 Multiplicity = 2
 C                     1.14848  -0.70993   0.19815 
 F                     1.88121   0.23502  -0.42849 
 F                     1.49579  -1.92942  -0.26522 
 C                    -0.34719  -0.46415  -0.07419 
 F                    -0.09176   1.8409    0.3748 
 F                     1.37957  -0.65085   1.52692 
 F                    -2.13869   1.06339   0.1188 
 F                    -0.80629   1.2558   -1.62697 
 C                    -0.86186   0.96817  -0.30914 
 O                    -1.25812  -1.56592  -0.10892 
 H                    -1.60842  -1.71939   0.77161 
 

 GradGradGradGradGradGradGradGradGradGradGradGradGradGradGradGradGradGrad
 Berny optimization.
 Initialization pass.
                           ----------------------------
                           !    Initial Parameters    !
                           ! (Angstroms and Degrees)  !
 --------------------------                            --------------------------
 ! Name  Definition              Value          Derivative Info.                !
 --------------------------------------------------------------------------------
 ! R1    R(1,2)                  1.35           estimate D2E/DX2                !
 ! R2    R(1,3)                  1.35           estimate D2E/DX2                !
 ! R3    R(1,4)                  1.54           estimate D2E/DX2                !
 ! R4    R(1,6)                  1.35           estimate D2E/DX2                !
 ! R5    R(4,9)                  1.54           estimate D2E/DX2                !
 ! R6    R(4,10)                 1.43           estimate D2E/DX2                !
 ! R7    R(5,9)                  1.35           estimate D2E/DX2                !
 ! R8    R(7,9)                  1.35           estimate D2E/DX2                !
 ! R9    R(8,9)                  1.35           estimate D2E/DX2                !
 ! R10   R(10,11)                0.96           estimate D2E/DX2                !
 ! A1    A(2,1,3)              109.4712         estimate D2E/DX2                !
 ! A2    A(2,1,4)              109.4712         estimate D2E/DX2                !
 ! A3    A(2,1,6)              109.4712         estimate D2E/DX2                !
 ! A4    A(3,1,4)              109.4712         estimate D2E/DX2                !
 ! A5    A(3,1,6)              109.4712         estimate D2E/DX2                !
 ! A6    A(4,1,6)              109.4712         estimate D2E/DX2                !
 ! A7    A(1,4,9)              120.0            estimate D2E/DX2                !
 ! A8    A(1,4,10)             120.0            estimate D2E/DX2                !
 ! A9    A(9,4,10)             120.0            estimate D2E/DX2                !
 ! A10   A(4,9,5)              109.4712         estimate D2E/DX2                !
 ! A11   A(4,9,7)              109.4712         estimate D2E/DX2                !
 ! A12   A(4,9,8)              109.4712         estimate D2E/DX2                !
 ! A13   A(5,9,7)              109.4712         estimate D2E/DX2                !
 ! A14   A(5,9,8)              109.4712         estimate D2E/DX2                !
 ! A15   A(7,9,8)              109.4712         estimate D2E/DX2                !
 ! A16   A(4,10,11)            109.4712         estimate D2E/DX2                !
 ! D1    D(2,1,4,9)            -30.0            estimate D2E/DX2                !
 ! D2    D(2,1,4,10)           150.0            estimate D2E/DX2                !
 ! D3    D(3,1,4,9)           -150.0            estimate D2E/DX2                !
 ! D4    D(3,1,4,10)            30.0            estimate D2E/DX2                !
 ! D5    D(6,1,4,9)             90.0            estimate D2E/DX2                !
 ! D6    D(6,1,4,10)           -90.0            estimate D2E/DX2                !
 ! D7    D(1,4,9,5)            -30.0            estimate D2E/DX2                !
 ! D8    D(1,4,9,7)           -150.0            estimate D2E/DX2                !
 ! D9    D(1,4,9,8)             90.0            estimate D2E/DX2                !
 ! D10   D(10,4,9,5)           150.0            estimate D2E/DX2                !
 ! D11   D(10,4,9,7)            30.0            estimate D2E/DX2                !
 ! D12   D(10,4,9,8)           -90.0            estimate D2E/DX2                !
 ! D13   D(1,4,10,11)           90.0            estimate D2E/DX2                !
 ! D14   D(9,4,10,11)          -90.0            estimate D2E/DX2                !
 --------------------------------------------------------------------------------
 Trust Radius=3.00D-01 FncErr=1.00D-07 GrdErr=1.00D-06 EigMax=2.50D+02 EigMin=1.00D-04
 Number of steps in this run=     50 maximum allowed number of steps=    100.
 GradGradGradGradGradGradGradGradGradGradGradGradGradGradGradGradGradGrad

                          Input orientation:                          
 ---------------------------------------------------------------------
 Center     Atomic      Atomic             Coordinates (Angstroms)
 Number     Number       Type             X           Y           Z
 ---------------------------------------------------------------------
      1          6           0        1.148476   -0.709933    0.198155
      2          9           0        1.881206    0.235016   -0.428486
      3          9           0        1.495790   -1.929424   -0.265220
      4          6           0       -0.347190   -0.464147   -0.074192
      5          9           0       -0.091756    1.840904    0.374803
      6          9           0        1.379569   -0.650854    1.526916
      7          9           0       -2.138691    1.063393    0.118798
      8          9           0       -0.806294    1.255798   -1.626968
      9          6           0       -0.861857    0.968166   -0.309136
     10          8           0       -1.258116   -1.565921   -0.108924
     11          1           0       -1.608416   -1.719387    0.771609
 ---------------------------------------------------------------------
                    Distance matrix (angstroms):
                    1          2          3          4          5
     1  C    0.000000
     2  F    1.350000   0.000000
     3  F    1.350000   2.204541   0.000000
     4  C    1.540000   2.362224   2.362224   0.000000
     5  F    2.841857   2.667720   4.140688   2.362224   0.000000
     6  F    1.350000   2.204541   2.204541   2.362224   3.114645
     7  F    3.735833   4.140688   4.723756   2.362224   2.204541
     8  F    3.319081   3.114645   4.159277   2.362224   2.204541
     9  C    2.667358   2.841857   3.735833   1.540000   1.350000
    10  O    2.572683   3.633296   2.782186   1.430000   3.633296
    11  H    2.991371   4.175809   3.279515   1.970203   3.890164
                    6          7          8          9         10
     6  F    0.000000
     7  F    4.159277   0.000000
     8  F    4.284892   2.204541   0.000000
     9  C    3.319081   1.350000   1.350000   0.000000
    10  O    3.235846   2.782186   3.235846   2.572683   0.000000
    11  H    3.261947   2.907098   3.904907   2.991371   0.960000
                   11
    11  H    0.000000
 Stoichiometry    C3HF6O(2)
 Framework group  C1[X(C3HF6O)]
 Deg. of freedom    27
 Full point group                 C1      NOp   1
 Largest Abelian subgroup         C1      NOp   1
 Largest concise Abelian subgroup C1      NOp   1
                         Standard orientation:                         
 ---------------------------------------------------------------------
 Center     Atomic      Atomic             Coordinates (Angstroms)
 Number     Number       Type             X           Y           Z
 ---------------------------------------------------------------------
      1          6           0       -1.333679   -0.155815   -0.002366
      2          9           0       -1.172255   -1.369513   -0.571032
      3          9           0       -2.274526    0.536620   -0.679005
      4          6           0        0.000000    0.612952   -0.045913
      5          9           0        1.172255   -1.297530    0.699723
      6          9           0       -1.723391   -0.308473    1.281114
      7          9           0        2.274526    0.608602    0.591750
      8          9           0        1.723391   -0.452437   -1.260396
      9          6           0        1.333679   -0.155815   -0.002366
     10          8           0        0.000000    2.040664   -0.126786
     11          1           0        0.000000    2.411339    0.758765
 ---------------------------------------------------------------------
 Rotational constants (GHZ):           1.9712031           1.0160068           0.8903349
 Standard basis: 6-311+G(2d) (5D, 7F)
 There are   293 symmetry adapted cartesian basis functions of A   symmetry.
 There are   273 symmetry adapted basis functions of A   symmetry.
   273 basis functions,   425 primitive gaussians,   293 cartesian basis functions
    41 alpha electrons       40 beta electrons
       nuclear repulsion energy       630.4359030235 Hartrees.
 NAtoms=   11 NActive=   11 NUniq=   11 SFac= 1.00D+00 NAtFMM=   60 NAOKFM=F Big=F
 Integral buffers will be    131072 words long.
 Raffenetti 2 integral format.
 Two-electron integral symmetry is turned on.
 Nuclear repulsion after empirical dispersion term =      630.4313017266 Hartrees.
 One-electron integrals computed using PRISM.
 NBasis=   273 RedAO= T EigKep=  7.15D-05  NBF=   273
 NBsUse=   273 1.00D-06 EigRej= -1.00D+00 NBFU=   273
 ExpMin= 4.38D-02 ExpMax= 1.14D+04 ExpMxC= 1.72D+03 IAcc=3 IRadAn=         5 AccDes= 0.00D+00
 Harris functional with IExCor= 4639 and IRadAn=       5 diagonalized for initial guess.
 HarFok:  IExCor= 4639 AccDes= 0.00D+00 IRadAn=         5 IDoV= 1 UseB2=F ITyADJ=14
 ICtDFT=  3500011 ScaDFX=  1.000000  1.000000  1.000000  1.000000
 FoFCou: FMM=F IPFlag=           0 FMFlag=      100000 FMFlg1=           0
         NFxFlg=           0 DoJE=T BraDBF=F KetDBF=T FulRan=T
         wScrn=  0.000000 ICntrl=       500 IOpCl=  0 I1Cent=   200000004 NGrid=           0
         NMat0=    1 NMatS0=      1 NMatT0=    0 NMatD0=    1 NMtDS0=    0 NMtDT0=    0
 Petite list used in FoFCou.
 Initial guess <Sx>= 0.0000 <Sy>= 0.0000 <Sz>= 0.5000 <S**2>= 0.7500 S= 0.5000
 Keep R1 and R2 ints in memory in canonical form, NReq=2824723821.
 Requested convergence on RMS density matrix=1.00D-08 within 128 cycles.
 Requested convergence on MAX density matrix=1.00D-06.
 Requested convergence on             energy=1.00D-06.
 No special actions if energy rises.
 SCF Done:  E(UwB97XD) =  -789.167608235     A.U. after   14 cycles
            NFock= 14  Conv=0.94D-08     -V/T= 2.0032
 <Sx>= 0.0000 <Sy>= 0.0000 <Sz>= 0.5000 <S**2>= 0.7552 S= 0.5026
 <L.S>= 0.000000000000E+00
 Annihilation of the first spin contaminant:
 S**2 before annihilation     0.7552,   after     0.7500

 **********************************************************************

            Population analysis using the SCF density.

 **********************************************************************

 Orbital symmetries:
 Alpha Orbitals:
       Occupied  (A) (A) (A) (A) (A) (A) (A) (A) (A) (A) (A) (A)
                 (A) (A) (A) (A) (A) (A) (A) (A) (A) (A) (A) (A)
                 (A) (A) (A) (A) (A) (A) (A) (A) (A) (A) (A) (A)
                 (A) (A) (A) (A) (A)
       Virtual   (A) (A) (A) (A) (A) (A) (A) (A) (A) (A) (A) (A)
                 (A) (A) (A) (A) (A) (A) (A) (A) (A) (A) (A) (A)
                 (A) (A) (A) (A) (A) (A) (A) (A) (A) (A) (A) (A)
                 (A) (A) (A) (A) (A) (A) (A) (A) (A) (A) (A) (A)
                 (A) (A) (A) (A) (A) (A) (A) (A) (A) (A) (A) (A)
                 (A) (A) (A) (A) (A) (A) (A) (A) (A) (A) (A) (A)
                 (A) (A) (A) (A) (A) (A) (A) (A) (A) (A) (A) (A)
                 (A) (A) (A) (A) (A) (A) (A) (A) (A) (A) (A) (A)
                 (A) (A) (A) (A) (A) (A) (A) (A) (A) (A) (A) (A)
                 (A) (A) (A) (A) (A) (A) (A) (A) (A) (A) (A) (A)
                 (A) (A) (A) (A) (A) (A) (A) (A) (A) (A) (A) (A)
                 (A) (A) (A) (A) (A) (A) (A) (A) (A) (A) (A) (A)
                 (A) (A) (A) (A) (A) (A) (A) (A) (A) (A) (A) (A)
                 (A) (A) (A) (A) (A) (A) (A) (A) (A) (A) (A) (A)
                 (A) (A) (A) (A) (A) (A) (A) (A) (A) (A) (A) (A)
                 (A) (A) (A) (A) (A) (A) (A) (A) (A) (A) (A) (A)
                 (A) (A) (A) (A) (A) (A) (A) (A) (A) (A) (A) (A)
                 (A) (A) (A) (A) (A) (A) (A) (A) (A) (A) (A) (A)
                 (A) (A) (A) (A) (A) (A) (A) (A) (A) (A) (A) (A)
                 (A) (A) (A) (A)
 Beta  Orbitals:
       Occupied  (A) (A) (A) (A) (A) (A) (A) (A) (A) (A) (A) (A)
                 (A) (A) (A) (A) (A) (A) (A) (A) (A) (A) (A) (A)
                 (A) (A) (A) (A) (A) (A) (A) (A) (A) (A) (A) (A)
                 (A) (A) (A) (A)
       Virtual   (A) (A) (A) (A) (A) (A) (A) (A) (A) (A) (A) (A)
                 (A) (A) (A) (A) (A) (A) (A) (A) (A) (A) (A) (A)
                 (A) (A) (A) (A) (A) (A) (A) (A) (A) (A) (A) (A)
                 (A) (A) (A) (A) (A) (A) (A) (A) (A) (A) (A) (A)
                 (A) (A) (A) (A) (A) (A) (A) (A) (A) (A) (A) (A)
                 (A) (A) (A) (A) (A) (A) (A) (A) (A) (A) (A) (A)
                 (A) (A) (A) (A) (A) (A) (A) (A) (A) (A) (A) (A)
                 (A) (A) (A) (A) (A) (A) (A) (A) (A) (A) (A) (A)
                 (A) (A) (A) (A) (A) (A) (A) (A) (A) (A) (A) (A)
                 (A) (A) (A) (A) (A) (A) (A) (A) (A) (A) (A) (A)
                 (A) (A) (A) (A) (A) (A) (A) (A) (A) (A) (A) (A)
                 (A) (A) (A) (A) (A) (A) (A) (A) (A) (A) (A) (A)
                 (A) (A) (A) (A) (A) (A) (A) (A) (A) (A) (A) (A)
                 (A) (A) (A) (A) (A) (A) (A) (A) (A) (A) (A) (A)
                 (A) (A) (A) (A) (A) (A) (A) (A) (A) (A) (A) (A)
                 (A) (A) (A) (A) (A) (A) (A) (A) (A) (A) (A) (A)
                 (A) (A) (A) (A) (A) (A) (A) (A) (A) (A) (A) (A)
                 (A) (A) (A) (A) (A) (A) (A) (A) (A) (A) (A) (A)
                 (A) (A) (A) (A) (A) (A) (A) (A) (A) (A) (A) (A)
                 (A) (A) (A) (A) (A)
 The electronic state is 2-A.
 Alpha  occ. eigenvalues --  -24.87198 -24.87188 -24.87177 -24.87044 -24.86812
 Alpha  occ. eigenvalues --  -24.86795 -19.32883 -10.58190 -10.58153 -10.42872
 Alpha  occ. eigenvalues --   -1.44855  -1.44358  -1.36426  -1.36235  -1.36063
 Alpha  occ. eigenvalues --   -1.35895  -1.19456  -0.92895  -0.84547  -0.78670
 Alpha  occ. eigenvalues --   -0.72819  -0.72691  -0.72179  -0.71529  -0.70356
 Alpha  occ. eigenvalues --   -0.68551  -0.59554  -0.59213  -0.59079  -0.58705
 Alpha  occ. eigenvalues --   -0.58090  -0.56168  -0.55888  -0.55128  -0.54770
 Alpha  occ. eigenvalues --   -0.53440  -0.53018  -0.52925  -0.51758  -0.44007
 Alpha  occ. eigenvalues --   -0.36605
 Alpha virt. eigenvalues --    0.04573   0.08657   0.09243   0.10210   0.11674
 Alpha virt. eigenvalues --    0.12484   0.13128   0.13769   0.14141   0.14678
 Alpha virt. eigenvalues --    0.16426   0.17154   0.19529   0.20032   0.20199
 Alpha virt. eigenvalues --    0.22215   0.23320   0.24615   0.25088   0.26439
 Alpha virt. eigenvalues --    0.27616   0.28521   0.30792   0.32513   0.32916
 Alpha virt. eigenvalues --    0.34394   0.34562   0.35654   0.35717   0.36464
 Alpha virt. eigenvalues --    0.37805   0.38931   0.39747   0.40224   0.40853
 Alpha virt. eigenvalues --    0.41641   0.42031   0.42084   0.43038   0.43622
 Alpha virt. eigenvalues --    0.43949   0.45432   0.46310   0.47090   0.48389
 Alpha virt. eigenvalues --    0.49268   0.49839   0.53416   0.53484   0.58610
 Alpha virt. eigenvalues --    0.59742   0.65095   0.66625   0.67645   0.71178
 Alpha virt. eigenvalues --    0.72831   0.72974   0.74504   0.74930   0.78670
 Alpha virt. eigenvalues --    0.81340   0.86988   0.88022   0.99248   1.01892
 Alpha virt. eigenvalues --    1.04119   1.05799   1.10125   1.11594   1.12521
 Alpha virt. eigenvalues --    1.18773   1.20439   1.21586   1.23298   1.27088
 Alpha virt. eigenvalues --    1.27488   1.30324   1.34266   1.38222   1.38786
 Alpha virt. eigenvalues --    1.39288   1.40661   1.42687   1.44412   1.44699
 Alpha virt. eigenvalues --    1.45683   1.47243   1.47734   1.48074   1.48870
 Alpha virt. eigenvalues --    1.50496   1.51304   1.51338   1.54515   1.55432
 Alpha virt. eigenvalues --    1.56869   1.58082   1.60371   1.61454   1.67203
 Alpha virt. eigenvalues --    1.73326   1.80598   1.87599   1.95051   1.97979
 Alpha virt. eigenvalues --    1.99038   2.02486   2.04518   2.04866   2.05168
 Alpha virt. eigenvalues --    2.06965   2.07581   2.08120   2.09727   2.11815
 Alpha virt. eigenvalues --    2.14017   2.16528   2.18168   2.18765   2.21243
 Alpha virt. eigenvalues --    2.22925   2.25136   2.30215   2.32095   2.36187
 Alpha virt. eigenvalues --    2.38926   2.49471   2.49974   2.52480   2.59426
 Alpha virt. eigenvalues --    2.63602   2.65310   2.66015   2.69592   2.72144
 Alpha virt. eigenvalues --    2.72842   2.78349   2.81846   2.91697   3.03652
 Alpha virt. eigenvalues --    3.07459   3.18542   3.18858   3.23190   3.33174
 Alpha virt. eigenvalues --    3.42419   3.42981   3.46041   3.47854   3.49633
 Alpha virt. eigenvalues --    3.50269   3.50756   3.54125   3.59715   3.60726
 Alpha virt. eigenvalues --    3.63436   3.70460   3.71940   3.84640   3.95525
 Alpha virt. eigenvalues --    4.13602   4.27097   4.29718   4.29832   4.32464
 Alpha virt. eigenvalues --    4.48660   5.18383   5.21679   5.56376   6.38961
 Alpha virt. eigenvalues --    6.41168   6.42722   6.43339   6.43714   6.44616
 Alpha virt. eigenvalues --    6.45520   6.46914   6.47529   6.49440   6.49898
 Alpha virt. eigenvalues --    6.51884   6.53054   6.55355   6.77664   6.78838
 Alpha virt. eigenvalues --    6.82198   6.84058   6.86503   6.97150   7.04156
 Alpha virt. eigenvalues --    7.14643   7.35401   9.08415   9.08763   9.09840
 Alpha virt. eigenvalues --    9.10226   9.11167   9.11677   9.19137   9.19353
 Alpha virt. eigenvalues --    9.20393   9.20659   9.21538   9.22271   9.23722
 Alpha virt. eigenvalues --    9.27272   9.31466   9.32616   9.33422   9.37261
 Alpha virt. eigenvalues --    9.46386   9.46720   9.65725   9.66674   9.69718
 Alpha virt. eigenvalues --    9.70375   9.71093   9.76014   9.86211   9.88114
 Alpha virt. eigenvalues --    9.88485   9.88742  23.77370  23.93078  24.01380
 Alpha virt. eigenvalues --   50.01282  66.92603  66.92831  66.95463  66.96137
 Alpha virt. eigenvalues --   66.97157  67.00287
  Beta  occ. eigenvalues --  -24.87149 -24.87147 -24.87085 -24.87014 -24.86765
  Beta  occ. eigenvalues --  -24.86705 -19.32767 -10.58271 -10.58233 -10.41600
  Beta  occ. eigenvalues --   -1.44720  -1.44246  -1.36332  -1.36043  -1.35872
  Beta  occ. eigenvalues --   -1.35798  -1.18735  -0.90709  -0.84329  -0.77857
  Beta  occ. eigenvalues --   -0.72497  -0.72425  -0.71655  -0.71297  -0.70193
  Beta  occ. eigenvalues --   -0.67924  -0.59191  -0.58945  -0.58601  -0.58501
  Beta  occ. eigenvalues --   -0.56785  -0.56016  -0.55356  -0.54909  -0.54676
  Beta  occ. eigenvalues --   -0.53303  -0.52822  -0.51745  -0.51145  -0.43727
  Beta virt. eigenvalues --   -0.05576   0.04787   0.08743   0.09245   0.10467
  Beta virt. eigenvalues --    0.11746   0.12548   0.13163   0.13887   0.14278
  Beta virt. eigenvalues --    0.14952   0.16912   0.17223   0.19528   0.20302
  Beta virt. eigenvalues --    0.20802   0.23366   0.23896   0.24728   0.25189
  Beta virt. eigenvalues --    0.27362   0.28133   0.28630   0.31193   0.32729
  Beta virt. eigenvalues --    0.33189   0.34542   0.34872   0.35917   0.36164
  Beta virt. eigenvalues --    0.36478   0.38143   0.38945   0.39847   0.40320
  Beta virt. eigenvalues --    0.40884   0.41742   0.42252   0.42425   0.43254
  Beta virt. eigenvalues --    0.43719   0.44060   0.45482   0.46368   0.47268
  Beta virt. eigenvalues --    0.48423   0.49366   0.49998   0.53430   0.53972
  Beta virt. eigenvalues --    0.58784   0.60095   0.65292   0.67035   0.67844
  Beta virt. eigenvalues --    0.71654   0.73132   0.73504   0.75573   0.76935
  Beta virt. eigenvalues --    0.78665   0.82027   0.88189   0.88845   0.99725
  Beta virt. eigenvalues --    1.01927   1.04256   1.06241   1.10546   1.11763
  Beta virt. eigenvalues --    1.12939   1.19465   1.20792   1.21775   1.23573
  Beta virt. eigenvalues --    1.27346   1.27768   1.30852   1.34389   1.38551
  Beta virt. eigenvalues --    1.39047   1.39424   1.40730   1.42736   1.44513
  Beta virt. eigenvalues --    1.44759   1.45813   1.47401   1.47786   1.48226
  Beta virt. eigenvalues --    1.49262   1.50607   1.51358   1.51447   1.54613
  Beta virt. eigenvalues --    1.55490   1.56917   1.58333   1.60559   1.62083
  Beta virt. eigenvalues --    1.67939   1.73730   1.81058   1.88200   1.95392
  Beta virt. eigenvalues --    1.98118   1.99104   2.02549   2.04691   2.04964
  Beta virt. eigenvalues --    2.05253   2.07092   2.07680   2.08241   2.09875
  Beta virt. eigenvalues --    2.11931   2.14218   2.17108   2.18202   2.18818
  Beta virt. eigenvalues --    2.21374   2.23179   2.25542   2.30330   2.32290
  Beta virt. eigenvalues --    2.36851   2.39879   2.49797   2.50295   2.52739
  Beta virt. eigenvalues --    2.59554   2.63677   2.65400   2.66073   2.70381
  Beta virt. eigenvalues --    2.72350   2.74294   2.78880   2.83374   2.91897
  Beta virt. eigenvalues --    3.04048   3.07901   3.18767   3.19804   3.25953
  Beta virt. eigenvalues --    3.35403   3.42998   3.44776   3.46794   3.49533
  Beta virt. eigenvalues --    3.50559   3.51406   3.52759   3.55845   3.60095
  Beta virt. eigenvalues --    3.62396   3.65412   3.71951   3.73011   3.85949
  Beta virt. eigenvalues --    3.97660   4.15176   4.27103   4.29843   4.29916
  Beta virt. eigenvalues --    4.32600   4.49840   5.18980   5.21802   5.56931
  Beta virt. eigenvalues --    6.39049   6.41296   6.42785   6.43441   6.43884
  Beta virt. eigenvalues --    6.44692   6.45583   6.46997   6.47617   6.49557
  Beta virt. eigenvalues --    6.49990   6.51947   6.53168   6.55495   6.78036
  Beta virt. eigenvalues --    6.78944   6.82370   6.84228   6.86698   6.97670
  Beta virt. eigenvalues --    7.04412   7.14680   7.35627   9.08583   9.08948
  Beta virt. eigenvalues --    9.09979   9.10370   9.11294   9.11781   9.19235
  Beta virt. eigenvalues --    9.19448   9.20525   9.20789   9.21707   9.22464
  Beta virt. eigenvalues --    9.23895   9.27413   9.31711   9.32784   9.33647
  Beta virt. eigenvalues --    9.37420   9.46540   9.46863   9.65903   9.66874
  Beta virt. eigenvalues --    9.69856   9.70571   9.71259   9.76155   9.86410
  Beta virt. eigenvalues --    9.88191   9.88672   9.88829  23.79886  23.93003
  Beta virt. eigenvalues --   24.01263  50.01383  66.92635  66.92888  66.95509
  Beta virt. eigenvalues --   66.96172  66.97207  67.00327
          Condensed to atoms (all electrons):
               1          2          3          4          5          6
     1  C    4.634366   0.207159   0.249729   0.257399  -0.003525   0.244720
     2  F    0.207159   9.100341   0.000121  -0.049931   0.006391   0.005645
     3  F    0.249729   0.000121   9.096983  -0.085868  -0.000826  -0.006271
     4  C    0.257399  -0.049931  -0.085868   5.648569  -0.046509  -0.060746
     5  F   -0.003525   0.006391  -0.000826  -0.046509   9.107111   0.011428
     6  F    0.244720   0.005645  -0.006271  -0.060746   0.011428   9.091273
     7  F    0.026194  -0.001211  -0.000083  -0.039048   0.002305  -0.001769
     8  F   -0.025985   0.010056  -0.001199  -0.065882   0.003381  -0.001207
     9  C   -0.256700   0.009403   0.011637  -0.063929   0.208871  -0.030056
    10  O   -0.147475   0.007876   0.006042   0.302212   0.005450   0.012883
    11  H    0.029670  -0.000440  -0.002720  -0.018928  -0.001035  -0.002002
               7          8          9         10         11
     1  C    0.026194  -0.025985  -0.256700  -0.147475   0.029670
     2  F   -0.001211   0.010056   0.009403   0.007876  -0.000440
     3  F   -0.000083  -0.001199   0.011637   0.006042  -0.002720
     4  C   -0.039048  -0.065882  -0.063929   0.302212  -0.018928
     5  F    0.002305   0.003381   0.208871   0.005450  -0.001035
     6  F   -0.001769  -0.001207  -0.030056   0.012883  -0.002002
     7  F    9.110775  -0.001422   0.176937   0.023962  -0.000693
     8  F   -0.001422   9.076528   0.252404   0.007334  -0.000249
     9  C    0.176937   0.252404   4.986822  -0.092745  -0.014639
    10  O    0.023962   0.007334  -0.092745   8.262316   0.196830
    11  H   -0.000693  -0.000249  -0.014639   0.196830   0.379022
          Atomic-Atomic Spin Densities.
               1          2          3          4          5          6
     1  C   -0.074756   0.003194  -0.002539   0.058725   0.000986  -0.002863
     2  F    0.003194   0.011482   0.003032  -0.012841  -0.000649  -0.001591
     3  F   -0.002539   0.003032   0.017920  -0.012909  -0.000447  -0.003948
     4  C    0.058725  -0.012841  -0.012909   1.045339  -0.013507  -0.034112
     5  F    0.000986  -0.000649  -0.000447  -0.013507   0.018707   0.001852
     6  F   -0.002863  -0.001591  -0.003948  -0.034112   0.001852   0.056937
     7  F    0.000181  -0.000218  -0.000161  -0.010881   0.003942   0.000589
     8  F   -0.003891   0.001234   0.000683  -0.036512  -0.002866  -0.000589
     9  C    0.006435   0.001564   0.000707   0.058964  -0.002763  -0.005474
    10  O    0.002403   0.000167   0.002801  -0.072847  -0.000173   0.000862
    11  H    0.002244  -0.000180  -0.000882  -0.021624   0.000534   0.001581
               7          8          9         10         11
     1  C    0.000181  -0.003891   0.006435   0.002403   0.002244
     2  F   -0.000218   0.001234   0.001564   0.000167  -0.000180
     3  F   -0.000161   0.000683   0.000707   0.002801  -0.000882
     4  C   -0.010881  -0.036512   0.058964  -0.072847  -0.021624
     5  F    0.003942  -0.002866  -0.002763  -0.000173   0.000534
     6  F    0.000589  -0.000589  -0.005474   0.000862   0.001581
     7  F    0.016117  -0.003363  -0.003089  -0.000054   0.001389
     8  F   -0.003363   0.053962   0.001338   0.002748  -0.000609
     9  C   -0.003089   0.001338  -0.074897   0.010856  -0.003820
    10  O   -0.000054   0.002748   0.010856   0.053731   0.001931
    11  H    0.001389  -0.000609  -0.003820   0.001931   0.044380
 Mulliken charges and spin densities:
               1          2
     1  C    0.784447  -0.009880
     2  F   -0.295411   0.005195
     3  F   -0.267544   0.004256
     4  C    0.222660   0.947795
     5  F   -0.293041   0.005616
     6  F   -0.263897   0.013243
     7  F   -0.295948   0.004452
     8  F   -0.253759   0.012134
     9  C    0.811993  -0.010178
    10  O   -0.584684   0.002424
    11  H    0.435183   0.024945
 Sum of Mulliken charges =  -0.00000   1.00000
 Mulliken charges and spin densities with hydrogens summed into heavy atoms:
               1          2
     1  C    0.784447  -0.009880
     2  F   -0.295411   0.005195
     3  F   -0.267544   0.004256
     4  C    0.222660   0.947795
     5  F   -0.293041   0.005616
     6  F   -0.263897   0.013243
     7  F   -0.295948   0.004452
     8  F   -0.253759   0.012134
     9  C    0.811993  -0.010178
    10  O   -0.149501   0.027368
 Electronic spatial extent (au):  <R**2>=           1260.0811
 Charge=             -0.0000 electrons
 Dipole moment (field-independent basis, Debye):
    X=              0.0034    Y=              1.3642    Z=              1.4647  Tot=              2.0016
 Quadrupole moment (field-independent basis, Debye-Ang):
   XX=            -56.5947   YY=            -51.3809   ZZ=            -52.6264
   XY=             -0.0148   XZ=              0.0183   YZ=              4.2699
 Traceless Quadrupole moment (field-independent basis, Debye-Ang):
   XX=             -3.0607   YY=              2.1531   ZZ=              0.9076
   XY=             -0.0148   XZ=              0.0183   YZ=              4.2699
 Octapole moment (field-independent basis, Debye-Ang**2):
  XXX=             -0.0221  YYY=              1.0102  ZZZ=              1.4893  XYY=             -0.1112
  XXY=             -5.5662  XXZ=              0.1357  XZZ=              0.1132  YZZ=              1.3373
  YYZ=             11.3108  XYZ=             -0.8264
 Hexadecapole moment (field-independent basis, Debye-Ang**3):
 XXXX=           -736.9241 YYYY=           -313.7418 ZZZZ=           -182.3102 XXXY=             -0.2434
 XXXZ=             -1.4728 YYYX=             -0.1928 YYYZ=             29.3635 ZZZX=              2.5356
 ZZZY=              4.3854 XXYY=           -180.6081 XXZZ=           -157.0576 YYZZ=            -79.8113
 XXYZ=              0.3408 YYXZ=             -1.4642 ZZXY=              0.2815
 N-N= 6.304313017266D+02 E-N=-3.134695165306D+03  KE= 7.866415438580D+02
                          Isotropic Fermi Contact Couplings
        Atom                 a.u.       MegaHertz       Gauss      10(-4) cm-1
     1  C(13)             -0.03974     -44.67670     -15.94176     -14.90254
     2  F(19)              0.00494      20.77209       7.41200       6.92882
     3  F(19)              0.00442      18.60251       6.63784       6.20513
     4  C(13)              0.09291     104.44959      37.27021      34.84063
     5  F(19)              0.00877      36.88131      13.16017      12.30228
     6  F(19)              0.03141     132.16908      47.16122      44.08686
     7  F(19)              0.00421      17.71648       6.32168       5.90958
     8  F(19)              0.02898     121.92313      43.50520      40.66918
     9  C(13)             -0.04003     -44.99992     -16.05709     -15.01036
    10  O(17)              0.06836     -41.44031     -14.78693     -13.82300
    11  H(1)               0.02085      93.18889      33.25211      31.08447
 --------------------------------------------------------
       Center         ----  Spin Dipole Couplings  ----
                      3XX-RR        3YY-RR        3ZZ-RR
 --------------------------------------------------------
     1   Atom        0.000536     -0.008647      0.008111
     2   Atom       -0.030336      0.044700     -0.014364
     3   Atom        0.066002     -0.039663     -0.026339
     4   Atom       -0.603650     -0.617865      1.221515
     5   Atom       -0.030588      0.069344     -0.038755
     6   Atom        0.123718     -0.058193     -0.065524
     7   Atom        0.061679     -0.039163     -0.022516
     8   Atom        0.111198     -0.033980     -0.077218
     9   Atom        0.000295     -0.008572      0.008277
    10   Atom       -0.102848     -0.167967      0.270815
    11   Atom       -0.018840      0.018256      0.000584
 --------------------------------------------------------
                        XY            XZ            YZ
 --------------------------------------------------------
     1   Atom        0.006345      0.001788      0.001015
     2   Atom        0.035091     -0.024159     -0.043916
     3   Atom       -0.025818     -0.035903      0.004553
     4   Atom        0.000127     -0.010043      0.018805
     5   Atom       -0.055540     -0.021020      0.034274
     6   Atom        0.122543     -0.119057     -0.060359
     7   Atom        0.019361     -0.037249     -0.001827
     8   Atom       -0.134278     -0.096338      0.057096
     9   Atom       -0.006615     -0.002216      0.001491
    10   Atom        0.007113     -0.022156     -0.107575
    11   Atom        0.000214      0.000477      0.021259
 --------------------------------------------------------


 ---------------------------------------------------------------------------------
              Anisotropic Spin Dipole Couplings in Principal Axis System
 ---------------------------------------------------------------------------------

       Atom             a.u.   MegaHertz   Gauss  10(-4) cm-1        Axes

              Baa    -0.0119    -1.595    -0.569    -0.532 -0.4543  0.8908 -0.0046
     1 C(13)  Bbb     0.0030     0.397     0.142     0.132  0.8283  0.4205 -0.3702
              Bcc     0.0089     1.198     0.428     0.400  0.3279  0.1720  0.9289
 
              Baa    -0.0480   -24.123    -8.608    -8.047  0.8596 -0.0868  0.5036
     2 F(19)  Bbb    -0.0358   -17.970    -6.412    -5.994 -0.3741  0.5646  0.7358
              Bcc     0.0838    42.093    15.020    14.041  0.3482  0.8208 -0.4528
 
              Baa    -0.0470   -23.605    -8.423    -7.874  0.3126  0.8837  0.3485
     3 F(19)  Bbb    -0.0368   -18.461    -6.587    -6.158  0.2032 -0.4206  0.8842
              Bcc     0.0838    42.066    15.010    14.032  0.9279 -0.2056 -0.3111
 
              Baa    -0.6181   -82.938   -29.594   -27.665 -0.0160  0.9998 -0.0103
     4 C(13)  Bbb    -0.6037   -81.011   -28.907   -27.022  0.9999  0.0160  0.0053
              Bcc     1.2218   163.949    58.501    54.687 -0.0055  0.0102  0.9999
 
              Baa    -0.0583   -29.301   -10.455    -9.774  0.8383  0.2322  0.4933
     5 F(19)  Bbb    -0.0468   -23.503    -8.387    -7.840 -0.3703 -0.4214  0.8278
              Bcc     0.1051    52.805    18.842    17.614 -0.4001  0.8766  0.2672
 
              Baa    -0.1233   -61.923   -22.096   -20.655  0.3037  0.2742  0.9124
     6 F(19)  Bbb    -0.1198   -60.170   -21.470   -20.071 -0.4856  0.8685 -0.0994
              Bcc     0.2431   122.093    43.566    40.726  0.8197  0.4129 -0.3970
 
              Baa    -0.0452   -22.688    -8.096    -7.568 -0.3044  0.8490 -0.4319
     7 F(19)  Bbb    -0.0336   -16.877    -6.022    -5.630  0.2235  0.5045  0.8340
              Bcc     0.0788    39.565    14.118    13.198  0.9259  0.1573 -0.3433
 
              Baa    -0.1178   -59.171   -21.114   -19.737  0.3287 -0.1122  0.9377
     8 F(19)  Bbb    -0.1140   -57.261   -20.432   -19.100  0.4895  0.8694 -0.0676
              Bcc     0.2318   116.432    41.546    38.837  0.8077 -0.4812 -0.3407
 
              Baa    -0.0121    -1.624    -0.580    -0.542  0.4687  0.8833 -0.0136
     9 C(13)  Bbb     0.0026     0.347     0.124     0.116  0.8032 -0.4197  0.4227
              Bcc     0.0095     1.277     0.456     0.426 -0.3676  0.2091  0.9062
 
              Baa    -0.1930    13.963     4.982     4.657 -0.0216  0.9741  0.2249
    10 O(17)  Bbb    -0.1042     7.536     2.689     2.514  0.9981  0.0080  0.0613
              Bcc     0.2971   -21.499    -7.671    -7.171 -0.0579 -0.2258  0.9724
 
              Baa    -0.0189   -10.062    -3.590    -3.356  0.9986  0.0221 -0.0487
    11 H(1)   Bbb    -0.0136    -7.250    -2.587    -2.418  0.0528 -0.5547  0.8304
              Bcc     0.0324    17.312     6.177     5.775  0.0086  0.8317  0.5551
 

 ---------------------------------------------------------------------------------

 Calling FoFJK, ICntrl=      2127 FMM=F ISym2X=0 I1Cent= 0 IOpClX= 1 NMat=1 NMatS=1 NMatT=0.
 ***** Axes restored to original set *****
 -------------------------------------------------------------------
 Center     Atomic                   Forces (Hartrees/Bohr)
 Number     Number              X              Y              Z
 -------------------------------------------------------------------
      1        6          -0.025673841   -0.001998323   -0.013659929
      2        9          -0.002810087   -0.016131055    0.011894532
      3        9           0.001608158    0.018601026    0.011023788
      4        6          -0.022044689   -0.025905231    0.002560140
      5        9          -0.014875517   -0.004793184   -0.011510606
      6        9           0.006999260   -0.002890725   -0.012919128
      7        9           0.016478834    0.005275320   -0.008239923
      8        9          -0.004573430    0.006086889    0.016249240
      9        6           0.004596397   -0.026690231    0.004205313
     10        8           0.042280763    0.047726245   -0.004271518
     11        1          -0.001985846    0.000719268    0.004668092
 -------------------------------------------------------------------
 Cartesian Forces:  Max     0.047726245 RMS     0.016555186

 GradGradGradGradGradGradGradGradGradGradGradGradGradGradGradGradGradGrad
 Berny optimization.
 FormGI is forming the generalized inverse of G from B-inverse, IUseBI=4.
 Internal  Forces:  Max     0.063004517 RMS     0.014328944
 Search for a local minimum.
 Step number   1 out of a maximum of   50
 All quantities printed in internal units (Hartrees-Bohrs-Radians)
 Mixed Optimization -- RFO/linear search
 Second derivative matrix not updated -- first step.
 ITU=  0
     Eigenvalues ---    0.00237   0.00237   0.00388   0.01295   0.11243
     Eigenvalues ---    0.11243   0.11243   0.11243   0.16000   0.25000
     Eigenvalues ---    0.25000   0.25000   0.25000   0.25000   0.25000
     Eigenvalues ---    0.25000   0.25000   0.28519   0.28519   0.40989
     Eigenvalues ---    0.55021   0.55021   0.55021   0.55021   0.55021
     Eigenvalues ---    0.55021   0.55473
 RFO step:  Lambda=-2.12973230D-02 EMin= 2.36824194D-03
 Linear search not attempted -- first point.
 Iteration  1 RMS(Cart)=  0.06465736 RMS(Int)=  0.00193458
 Iteration  2 RMS(Cart)=  0.00211887 RMS(Int)=  0.00047747
 Iteration  3 RMS(Cart)=  0.00000289 RMS(Int)=  0.00047746
 Iteration  4 RMS(Cart)=  0.00000000 RMS(Int)=  0.00047746
 Variable       Old X    -DE/DX   Delta X   Delta X   Delta X     New X
                                 (Linear)    (Quad)   (Total)
    R1        2.55113  -0.01834   0.00000  -0.03209  -0.03209   2.51904
    R2        2.55113  -0.02017   0.00000  -0.03529  -0.03529   2.51584
    R3        2.91018  -0.01957   0.00000  -0.06384  -0.06384   2.84633
    R4        2.55113  -0.01164   0.00000  -0.02038  -0.02038   2.53075
    R5        2.91018  -0.01936   0.00000  -0.06318  -0.06318   2.84700
    R6        2.70231  -0.06300   0.00000  -0.14612  -0.14612   2.55619
    R7        2.55113  -0.01741   0.00000  -0.03047  -0.03047   2.52066
    R8        2.55113  -0.01783   0.00000  -0.03119  -0.03119   2.51994
    R9        2.55113  -0.01475   0.00000  -0.02581  -0.02581   2.52532
   R10        1.81414   0.00489   0.00000   0.00849   0.00849   1.82263
    A1        1.91063  -0.00938   0.00000  -0.03206  -0.03286   1.87777
    A2        1.91063   0.01148   0.00000   0.04445   0.04347   1.95410
    A3        1.91063  -0.01130   0.00000  -0.03986  -0.04087   1.86976
    A4        1.91063   0.00895   0.00000   0.03208   0.03138   1.94201
    A5        1.91063  -0.01204   0.00000  -0.04868  -0.04918   1.86146
    A6        1.91063   0.01230   0.00000   0.04406   0.04324   1.95388
    A7        2.09440   0.01313   0.00000   0.04839   0.04837   2.14277
    A8        2.09440  -0.00619   0.00000  -0.02282  -0.02284   2.07156
    A9        2.09440  -0.00694   0.00000  -0.02557  -0.02559   2.06881
   A10        1.91063   0.01110   0.00000   0.04168   0.04074   1.95137
   A11        1.91063   0.00724   0.00000   0.02491   0.02433   1.93497
   A12        1.91063   0.01454   0.00000   0.05460   0.05357   1.96420
   A13        1.91063  -0.00985   0.00000  -0.03834  -0.03878   1.87186
   A14        1.91063  -0.01164   0.00000  -0.03935  -0.04063   1.87001
   A15        1.91063  -0.01139   0.00000  -0.04351  -0.04414   1.86650
   A16        1.91063  -0.00199   0.00000  -0.01098  -0.01098   1.89966
    D1       -0.52360  -0.00009   0.00000  -0.00775  -0.00779  -0.53139
    D2        2.61799  -0.00037   0.00000  -0.01857  -0.01869   2.59931
    D3       -2.61799  -0.00111   0.00000  -0.01535  -0.01543  -2.63343
    D4        0.52360  -0.00138   0.00000  -0.02617  -0.02633   0.49727
    D5        1.57080   0.00063   0.00000  -0.00236  -0.00213   1.56867
    D6       -1.57080   0.00035   0.00000  -0.01319  -0.01303  -1.58382
    D7       -0.52360  -0.00122   0.00000  -0.02493  -0.02528  -0.54888
    D8       -2.61799  -0.00039   0.00000  -0.01875  -0.01871  -2.63670
    D9        1.57080   0.00022   0.00000  -0.01415  -0.01393   1.55686
   D10        2.61799  -0.00095   0.00000  -0.01410  -0.01440   2.60360
   D11        0.52360  -0.00012   0.00000  -0.00793  -0.00783   0.51577
   D12       -1.57080   0.00049   0.00000  -0.00333  -0.00305  -1.57385
   D13        1.57080   0.00105   0.00000   0.03198   0.03178   1.60258
   D14       -1.57080   0.00077   0.00000   0.02116   0.02135  -1.54944
         Item               Value     Threshold  Converged?
 Maximum Force            0.063005     0.000450     NO 
 RMS     Force            0.014329     0.000300     NO 
 Maximum Displacement     0.169742     0.001800     NO 
 RMS     Displacement     0.064503     0.001200     NO 
 Predicted change in Energy=-1.132065D-02
 GradGradGradGradGradGradGradGradGradGradGradGradGradGradGradGradGradGrad

                          Input orientation:                          
 ---------------------------------------------------------------------
 Center     Atomic      Atomic             Coordinates (Angstroms)
 Number     Number       Type             X           Y           Z
 ---------------------------------------------------------------------
      1          6           0        1.123216   -0.727117    0.193011
      2          9           0        1.915601    0.159673   -0.409212
      3          9           0        1.473309   -1.937198   -0.237755
      4          6           0       -0.333700   -0.452771   -0.073096
      5          9           0       -0.181580    1.854761    0.367433
      6          9           0        1.409314   -0.687608    1.500715
      7          9           0       -2.142553    1.023757    0.091133
      8          9           0       -0.843094    1.285370   -1.595746
      9          6           0       -0.872903    0.934479   -0.306641
     10          8           0       -1.193576   -1.496057   -0.116720
     11          1           0       -1.561313   -1.633679    0.764234
 ---------------------------------------------------------------------
                    Distance matrix (angstroms):
                    1          2          3          4          5
     1  C    0.000000
     2  F    1.333020   0.000000
     3  F    1.331323   2.149857   0.000000
     4  C    1.506215   2.355295   2.344338   0.000000
     5  F    2.898105   2.806184   4.181371   2.354126   0.000000
     6  F    1.339218   2.149891   2.141927   2.360112   3.206074
     7  F    3.706911   4.179186   4.685070   2.340738   2.147632
     8  F    3.334086   3.207095   4.194617   2.366237   2.148459
     9  C    2.644815   2.895963   3.708906   1.506567   1.333875
    10  O    2.460636   3.534682   2.705833   1.352678   3.533628
    11  H    2.890475   4.084362   3.210146   1.898078   3.772311
                    6          7          8          9         10
     6  F    0.000000
     7  F    4.187058   0.000000
     8  F    4.307442   2.145365   0.000000
     9  C    3.332599   1.333494   1.336340   0.000000
    10  O    3.169342   2.700597   3.169652   2.458944   0.000000
    11  H    3.203448   2.802297   3.821804   2.866376   0.964495
                   11
    11  H    0.000000
 Stoichiometry    C3HF6O(2)
 Framework group  C1[X(C3HF6O)]
 Deg. of freedom    27
 Full point group                 C1      NOp   1
 Largest Abelian subgroup         C1      NOp   1
 Largest concise Abelian subgroup C1      NOp   1
                         Standard orientation:                         
 ---------------------------------------------------------------------
 Center     Atomic      Atomic             Coordinates (Angstroms)
 Number     Number       Type             X           Y           Z
 ---------------------------------------------------------------------
      1          6           0       -1.323036   -0.133422   -0.008618
      2          9           0       -1.249168   -1.339721   -0.571049
      3          9           0       -2.264491    0.553537   -0.652178
      4          6           0       -0.000582    0.586666   -0.044282
      5          9           0        1.248961   -1.262462    0.704903
      6          9           0       -1.764087   -0.308452    1.243717
      7          9           0        2.259841    0.627010    0.562275
      8          9           0        1.765960   -0.460311   -1.219972
      9          6           0        1.321772   -0.134018   -0.002584
     10          8           0        0.001692    1.936642   -0.129712
     11          1           0        0.024396    2.305112    0.761335
 ---------------------------------------------------------------------
 Rotational constants (GHZ):           2.0922559           1.0061614           0.8906921
 Standard basis: 6-311+G(2d) (5D, 7F)
 There are   293 symmetry adapted cartesian basis functions of A   symmetry.
 There are   273 symmetry adapted basis functions of A   symmetry.
   273 basis functions,   425 primitive gaussians,   293 cartesian basis functions
    41 alpha electrons       40 beta electrons
       nuclear repulsion energy       637.7916471518 Hartrees.
 NAtoms=   11 NActive=   11 NUniq=   11 SFac= 1.00D+00 NAtFMM=   60 NAOKFM=F Big=F
 Integral buffers will be    131072 words long.
 Raffenetti 2 integral format.
 Two-electron integral symmetry is turned on.
 Nuclear repulsion after empirical dispersion term =      637.7870623458 Hartrees.
 One-electron integrals computed using PRISM.
 NBasis=   273 RedAO= T EigKep=  6.15D-05  NBF=   273
 NBsUse=   273 1.00D-06 EigRej= -1.00D+00 NBFU=   273
 Initial guess from the checkpoint file:  "hfp_2oh_2rad_prod.chk"
 B after Tr=    -0.000000    0.000000   -0.000000
         Rot=    0.999999    0.001488    0.000743    0.000157 Ang=   0.19 deg.
 Initial guess <Sx>= 0.0000 <Sy>= 0.0000 <Sz>= 0.5000 <S**2>= 0.7549 S= 0.5024
 ExpMin= 4.38D-02 ExpMax= 1.14D+04 ExpMxC= 1.72D+03 IAcc=2 IRadAn=         4 AccDes= 0.00D+00
 Harris functional with IExCor= 4639 and IRadAn=       4 diagonalized for initial guess.
 HarFok:  IExCor= 4639 AccDes= 0.00D+00 IRadAn=         4 IDoV= 1 UseB2=F ITyADJ=14
 ICtDFT=  3500011 ScaDFX=  1.000000  1.000000  1.000000  1.000000
 FoFCou: FMM=F IPFlag=           0 FMFlag=      100000 FMFlg1=           0
         NFxFlg=           0 DoJE=T BraDBF=F KetDBF=T FulRan=T
         wScrn=  0.000000 ICntrl=       500 IOpCl=  0 I1Cent=   200000004 NGrid=           0
         NMat0=    1 NMatS0=      1 NMatT0=    0 NMatD0=    1 NMtDS0=    0 NMtDT0=    0
 Petite list used in FoFCou.
 Keep R1 and R2 ints in memory in canonical form, NReq=2824723821.
 Requested convergence on RMS density matrix=1.00D-08 within 128 cycles.
 Requested convergence on MAX density matrix=1.00D-06.
 Requested convergence on             energy=1.00D-06.
 No special actions if energy rises.
 SCF Done:  E(UwB97XD) =  -789.178341032     A.U. after   13 cycles
            NFock= 13  Conv=0.63D-08     -V/T= 2.0026
 <Sx>= 0.0000 <Sy>= 0.0000 <Sz>= 0.5000 <S**2>= 0.7544 S= 0.5022
 <L.S>= 0.000000000000E+00
 Annihilation of the first spin contaminant:
 S**2 before annihilation     0.7544,   after     0.7500
 Calling FoFJK, ICntrl=      2127 FMM=F ISym2X=0 I1Cent= 0 IOpClX= 1 NMat=1 NMatS=1 NMatT=0.
 ***** Axes restored to original set *****
 -------------------------------------------------------------------
 Center     Atomic                   Forces (Hartrees/Bohr)
 Number     Number              X              Y              Z
 -------------------------------------------------------------------
      1        6           0.003121251   -0.000892077   -0.005922693
      2        9          -0.001811453    0.003657520   -0.001059363
      3        9          -0.003694610   -0.001961700   -0.001131179
      4        6          -0.004604695   -0.005571226   -0.001641336
      5        9           0.004410564   -0.000619757    0.001870771
      6        9          -0.001910912    0.001079180    0.006248802
      7        9          -0.002890591   -0.004315586    0.001622367
      8        9           0.001173200   -0.001545038   -0.003636263
      9        6           0.000429207    0.002557533    0.000022469
     10        8           0.010493136    0.011104116    0.004359716
     11        1          -0.004715096   -0.003492965   -0.000733292
 -------------------------------------------------------------------
 Cartesian Forces:  Max     0.011104116 RMS     0.004063960

 GradGradGradGradGradGradGradGradGradGradGradGradGradGradGradGradGradGrad
 Berny optimization.
 Using GEDIIS/GDIIS optimizer.
 FormGI is forming the generalized inverse of G from B-inverse, IUseBI=4.
 Internal  Forces:  Max     0.009997286 RMS     0.003750853
 Search for a local minimum.
 Step number   2 out of a maximum of   50
 All quantities printed in internal units (Hartrees-Bohrs-Radians)
 Mixed Optimization -- RFO/linear search
 Update second derivatives using D2CorX and points    1    2
 DE= -1.07D-02 DEPred=-1.13D-02 R= 9.48D-01
 TightC=F SS=  1.41D+00  RLast= 2.51D-01 DXNew= 5.0454D-01 7.5278D-01
 Trust test= 9.48D-01 RLast= 2.51D-01 DXMaxT set to 5.05D-01
 ITU=  1  0
 Use linear search instead of GDIIS.
     Eigenvalues ---    0.00237   0.00239   0.00377   0.01290   0.10375
     Eigenvalues ---    0.10443   0.10590   0.10665   0.15787   0.24414
     Eigenvalues ---    0.24999   0.25000   0.25000   0.25000   0.25000
     Eigenvalues ---    0.25000   0.26568   0.28519   0.31118   0.37787
     Eigenvalues ---    0.54827   0.55021   0.55021   0.55021   0.55021
     Eigenvalues ---    0.55436   0.58990
 RFO step:  Lambda=-2.36851529D-03 EMin= 2.36823938D-03
 Quartic linear search produced a step of -0.02835.
 Iteration  1 RMS(Cart)=  0.04814606 RMS(Int)=  0.00206806
 Iteration  2 RMS(Cart)=  0.00197188 RMS(Int)=  0.00014927
 Iteration  3 RMS(Cart)=  0.00000402 RMS(Int)=  0.00014925
 Iteration  4 RMS(Cart)=  0.00000000 RMS(Int)=  0.00014925
 Variable       Old X    -DE/DX   Delta X   Delta X   Delta X     New X
                                 (Linear)    (Quad)   (Total)
    R1        2.51904   0.00183   0.00091  -0.00140  -0.00049   2.51856
    R2        2.51584   0.00118   0.00100  -0.00301  -0.00201   2.51382
    R3        2.84633  -0.00483   0.00181  -0.02565  -0.02384   2.82250
    R4        2.53075   0.00573   0.00058   0.00713   0.00771   2.53846
    R5        2.84700  -0.00471   0.00179  -0.02516  -0.02337   2.82363
    R6        2.55619  -0.00966   0.00414  -0.04392  -0.03978   2.51641
    R7        2.52066   0.00280   0.00086   0.00054   0.00140   2.52206
    R8        2.51994   0.00295   0.00088   0.00069   0.00157   2.52151
    R9        2.52532   0.00313   0.00073   0.00178   0.00251   2.52783
   R10        1.82263   0.00162  -0.00024   0.00405   0.00381   1.82645
    A1        1.87777   0.00563   0.00093   0.02025   0.02118   1.89895
    A2        1.95410  -0.00388  -0.00123  -0.00804  -0.00930   1.94480
    A3        1.86976   0.00372   0.00116   0.00580   0.00691   1.87667
    A4        1.94201  -0.00491  -0.00089  -0.01309  -0.01402   1.92799
    A5        1.86146   0.00448   0.00139   0.00874   0.01005   1.87150
    A6        1.95388  -0.00402  -0.00123  -0.01111  -0.01241   1.94146
    A7        2.14277  -0.00163  -0.00137   0.00065  -0.00125   2.14152
    A8        2.07156   0.00080   0.00065  -0.00045  -0.00034   2.07122
    A9        2.06881   0.00083   0.00073  -0.00076  -0.00057   2.06824
   A10        1.95137  -0.00435  -0.00116  -0.01035  -0.01154   1.93984
   A11        1.93497  -0.00594  -0.00069  -0.01905  -0.01980   1.91516
   A12        1.96420  -0.00250  -0.00152  -0.00272  -0.00426   1.95994
   A13        1.87186   0.00588   0.00110   0.01841   0.01944   1.89130
   A14        1.87001   0.00362   0.00115   0.00721   0.00837   1.87838
   A15        1.86650   0.00432   0.00125   0.00908   0.01028   1.87678
   A16        1.89966   0.01000   0.00031   0.05814   0.05845   1.95811
    D1       -0.53139   0.00100   0.00022   0.07076   0.07095  -0.46044
    D2        2.59931   0.00064   0.00053   0.00882   0.00933   2.60863
    D3       -2.63343  -0.00011   0.00044   0.05951   0.05999  -2.57344
    D4        0.49727  -0.00047   0.00075  -0.00243  -0.00164   0.49563
    D5        1.56867   0.00024   0.00006   0.06477   0.06481   1.63347
    D6       -1.58382  -0.00013   0.00037   0.00282   0.00318  -1.58064
    D7       -0.54888   0.00029   0.00072   0.00926   0.01002  -0.53886
    D8       -2.63670  -0.00024   0.00053   0.00573   0.00626  -2.63044
    D9        1.55686   0.00007   0.00039   0.00922   0.00960   1.56647
   D10        2.60360   0.00065   0.00041   0.07111   0.07154   2.67514
   D11        0.51577   0.00013   0.00022   0.06758   0.06778   0.58355
   D12       -1.57385   0.00043   0.00009   0.07107   0.07112  -1.50272
   D13        1.60258   0.00148  -0.00090   0.11805   0.11716   1.71974
   D14       -1.54944   0.00111  -0.00061   0.05877   0.05815  -1.49129
         Item               Value     Threshold  Converged?
 Maximum Force            0.009997     0.000450     NO 
 RMS     Force            0.003751     0.000300     NO 
 Maximum Displacement     0.128746     0.001800     NO 
 RMS     Displacement     0.048566     0.001200     NO 
 Predicted change in Energy=-1.252488D-03
 GradGradGradGradGradGradGradGradGradGradGradGradGradGradGradGradGradGrad

                          Input orientation:                          
 ---------------------------------------------------------------------
 Center     Atomic      Atomic             Coordinates (Angstroms)
 Number     Number       Type             X           Y           Z
 ---------------------------------------------------------------------
      1          6           0        1.124653   -0.714706    0.199539
      2          9           0        1.893290    0.208073   -0.378327
      3          9           0        1.462266   -1.911328   -0.273429
      4          6           0       -0.324703   -0.447302   -0.042764
      5          9           0       -0.135209    1.851132    0.323061
      6          9           0        1.407088   -0.711779    1.512805
      7          9           0       -2.118286    1.005992    0.131145
      8          9           0       -0.864209    1.225405   -1.607894
      9          6           0       -0.859956    0.922892   -0.304886
     10          8           0       -1.162771   -1.480080   -0.107918
     11          1           0       -1.629442   -1.624688    0.726021
 ---------------------------------------------------------------------
                    Distance matrix (angstroms):
                    1          2          3          4          5
     1  C    0.000000
     2  F    1.332762   0.000000
     3  F    1.330257   2.165328   0.000000
     4  C    1.493602   2.337009   2.321601   0.000000
     5  F    2.861125   2.703034   4.130839   2.335066   0.000000
     6  F    1.343297   2.158449   2.152346   2.342828   3.219112
     7  F    3.671802   4.121769   4.636247   2.315005   2.164183
     8  F    3.314576   3.186001   4.127030   2.353434   2.156748
     9  C    2.621992   2.845474   3.664219   1.494201   1.334617
    10  O    2.431591   3.501784   2.665368   1.331628   3.512634
    11  H    2.947930   4.121680   3.261859   1.918232   3.804791
                    6          7          8          9         10
     6  F    0.000000
     7  F    4.157882   0.000000
     8  F    4.318592   2.155252   0.000000
     9  C    3.334012   1.334325   1.337670   0.000000
    10  O    3.133880   2.674081   3.107847   2.429973   0.000000
    11  H    3.266948   2.741044   3.762416   2.853952   0.966513
                   11
    11  H    0.000000
 Stoichiometry    C3HF6O(2)
 Framework group  C1[X(C3HF6O)]
 Deg. of freedom    27
 Full point group                 C1      NOp   1
 Largest Abelian subgroup         C1      NOp   1
 Largest concise Abelian subgroup C1      NOp   1
                         Standard orientation:                         
 ---------------------------------------------------------------------
 Center     Atomic      Atomic             Coordinates (Angstroms)
 Number     Number       Type             X           Y           Z
 ---------------------------------------------------------------------
      1          6           0       -1.312952   -0.133532   -0.009706
      2          9           0       -1.207217   -1.351469   -0.540465
      3          9           0       -2.220468    0.555841   -0.695828
      4          6           0       -0.000871    0.580089   -0.015654
      5          9           0        1.214188   -1.296133    0.659591
      6          9           0       -1.783436   -0.276501    1.240355
      7          9           0        2.228222    0.615091    0.608178
      8          9           0        1.756845   -0.407863   -1.229341
      9          6           0        1.309009   -0.138616    0.002045
     10          8           0        0.004022    1.907437   -0.122222
     11          1           0        0.103498    2.342146    0.735263
 ---------------------------------------------------------------------
 Rotational constants (GHZ):           2.0958092           1.0256509           0.9082420
 Standard basis: 6-311+G(2d) (5D, 7F)
 There are   293 symmetry adapted cartesian basis functions of A   symmetry.
 There are   273 symmetry adapted basis functions of A   symmetry.
   273 basis functions,   425 primitive gaussians,   293 cartesian basis functions
    41 alpha electrons       40 beta electrons
       nuclear repulsion energy       641.0312408871 Hartrees.
 NAtoms=   11 NActive=   11 NUniq=   11 SFac= 1.00D+00 NAtFMM=   60 NAOKFM=F Big=F
 Integral buffers will be    131072 words long.
 Raffenetti 2 integral format.
 Two-electron integral symmetry is turned on.
 Nuclear repulsion after empirical dispersion term =      641.0266924495 Hartrees.
 One-electron integrals computed using PRISM.
 NBasis=   273 RedAO= T EigKep=  5.95D-05  NBF=   273
 NBsUse=   273 1.00D-06 EigRej= -1.00D+00 NBFU=   273
 Initial guess from the checkpoint file:  "hfp_2oh_2rad_prod.chk"
 B after Tr=     0.000000    0.000000   -0.000000
         Rot=    0.999987   -0.003251    0.003866    0.000894 Ang=  -0.59 deg.
 Initial guess <Sx>= 0.0000 <Sy>= 0.0000 <Sz>= 0.5000 <S**2>= 0.7543 S= 0.5022
 ExpMin= 4.38D-02 ExpMax= 1.14D+04 ExpMxC= 1.72D+03 IAcc=2 IRadAn=         4 AccDes= 0.00D+00
 Harris functional with IExCor= 4639 and IRadAn=       4 diagonalized for initial guess.
 HarFok:  IExCor= 4639 AccDes= 0.00D+00 IRadAn=         4 IDoV= 1 UseB2=F ITyADJ=14
 ICtDFT=  3500011 ScaDFX=  1.000000  1.000000  1.000000  1.000000
 FoFCou: FMM=F IPFlag=           0 FMFlag=      100000 FMFlg1=           0
         NFxFlg=           0 DoJE=T BraDBF=F KetDBF=T FulRan=T
         wScrn=  0.000000 ICntrl=       500 IOpCl=  0 I1Cent=   200000004 NGrid=           0
         NMat0=    1 NMatS0=      1 NMatT0=    0 NMatD0=    1 NMtDS0=    0 NMtDT0=    0
 Petite list used in FoFCou.
 Keep R1 and R2 ints in memory in canonical form, NReq=2824723821.
 Requested convergence on RMS density matrix=1.00D-08 within 128 cycles.
 Requested convergence on MAX density matrix=1.00D-06.
 Requested convergence on             energy=1.00D-06.
 No special actions if energy rises.
 SCF Done:  E(UwB97XD) =  -789.179495464     A.U. after   13 cycles
            NFock= 13  Conv=0.73D-08     -V/T= 2.0025
 <Sx>= 0.0000 <Sy>= 0.0000 <Sz>= 0.5000 <S**2>= 0.7542 S= 0.5021
 <L.S>= 0.000000000000E+00
 Annihilation of the first spin contaminant:
 S**2 before annihilation     0.7542,   after     0.7500
 Calling FoFJK, ICntrl=      2127 FMM=F ISym2X=0 I1Cent= 0 IOpClX= 1 NMat=1 NMatS=1 NMatT=0.
 ***** Axes restored to original set *****
 -------------------------------------------------------------------
 Center     Atomic                   Forces (Hartrees/Bohr)
 Number     Number              X              Y              Z
 -------------------------------------------------------------------
      1        6           0.000242659    0.000331113   -0.003191573
      2        9           0.001811760   -0.000469312   -0.000351388
      3        9           0.001641049   -0.000965470   -0.000330826
      4        6          -0.000627617    0.001592818   -0.000293463
      5        9          -0.000819132    0.001767965    0.000387637
      6        9           0.001224213   -0.000254536    0.003090859
      7        9          -0.003020577    0.001127761    0.000669543
      8        9          -0.000801359    0.000963927   -0.001827224
      9        6           0.003189028    0.000652148    0.001084152
     10        8          -0.000963821   -0.005481401    0.003253431
     11        1          -0.001876203    0.000734987   -0.002491147
 -------------------------------------------------------------------
 Cartesian Forces:  Max     0.005481401 RMS     0.001867966

 GradGradGradGradGradGradGradGradGradGradGradGradGradGradGradGradGradGrad
 Berny optimization.
 Using GEDIIS/GDIIS optimizer.
 FormGI is forming the generalized inverse of G from B-inverse, IUseBI=4.
 Internal  Forces:  Max     0.005432016 RMS     0.001949372
 Search for a local minimum.
 Step number   3 out of a maximum of   50
 All quantities printed in internal units (Hartrees-Bohrs-Radians)
 Mixed Optimization -- RFO/linear search
 Update second derivatives using D2CorX and points    1    2    3
 DE= -1.15D-03 DEPred=-1.25D-03 R= 9.22D-01
 TightC=F SS=  1.41D+00  RLast= 2.31D-01 DXNew= 8.4853D-01 6.9312D-01
 Trust test= 9.22D-01 RLast= 2.31D-01 DXMaxT set to 6.93D-01
 ITU=  1  1  0
 Use linear search instead of GDIIS.
     Eigenvalues ---    0.00237   0.00253   0.00382   0.00968   0.10441
     Eigenvalues ---    0.10685   0.10807   0.10927   0.14165   0.24649
     Eigenvalues ---    0.24948   0.24984   0.25000   0.25000   0.25000
     Eigenvalues ---    0.25094   0.28518   0.29448   0.36162   0.46497
     Eigenvalues ---    0.54678   0.55021   0.55021   0.55021   0.55164
     Eigenvalues ---    0.56237   0.58910
 RFO step:  Lambda=-9.90617891D-04 EMin= 2.36814687D-03
 Quartic linear search produced a step of -0.04492.
 Iteration  1 RMS(Cart)=  0.04446892 RMS(Int)=  0.00375372
 Iteration  2 RMS(Cart)=  0.00341088 RMS(Int)=  0.00006989
 Iteration  3 RMS(Cart)=  0.00001859 RMS(Int)=  0.00006892
 Iteration  4 RMS(Cart)=  0.00000000 RMS(Int)=  0.00006892
 Variable       Old X    -DE/DX   Delta X   Delta X   Delta X     New X
                                 (Linear)    (Quad)   (Total)
    R1        2.51856   0.00087   0.00002   0.00035   0.00037   2.51892
    R2        2.51382   0.00140   0.00009   0.00049   0.00058   2.51440
    R3        2.82250   0.00489   0.00107   0.00369   0.00476   2.82725
    R4        2.53846   0.00328  -0.00035   0.00802   0.00768   2.54614
    R5        2.82363   0.00460   0.00105   0.00299   0.00404   2.82767
    R6        2.51641   0.00543   0.00179  -0.00869  -0.00691   2.50951
    R7        2.52206   0.00097  -0.00006   0.00133   0.00127   2.52333
    R8        2.52151   0.00314  -0.00007   0.00494   0.00487   2.52638
    R9        2.52783   0.00200  -0.00011   0.00362   0.00351   2.53134
   R10        1.82645  -0.00135  -0.00017  -0.00038  -0.00055   1.82589
    A1        1.89895  -0.00217  -0.00095  -0.00054  -0.00149   1.89746
    A2        1.94480   0.00226   0.00042   0.00586   0.00627   1.95107
    A3        1.87667  -0.00105  -0.00031  -0.00088  -0.00119   1.87548
    A4        1.92799   0.00152   0.00063  -0.00018   0.00045   1.92844
    A5        1.87150  -0.00114  -0.00045  -0.00211  -0.00256   1.86895
    A6        1.94146   0.00034   0.00056  -0.00244  -0.00187   1.93959
    A7        2.14152   0.00093   0.00006   0.00364   0.00345   2.14497
    A8        2.07122  -0.00100   0.00002  -0.00503  -0.00524   2.06597
    A9        2.06824   0.00006   0.00003  -0.00141  -0.00163   2.06661
   A10        1.93984   0.00253   0.00052   0.00664   0.00715   1.94699
   A11        1.91516   0.00080   0.00089  -0.00620  -0.00530   1.90986
   A12        1.95994   0.00072   0.00019   0.00266   0.00284   1.96278
   A13        1.89130  -0.00185  -0.00087  -0.00033  -0.00119   1.89010
   A14        1.87838  -0.00106  -0.00038   0.00121   0.00080   1.87918
   A15        1.87678  -0.00139  -0.00046  -0.00427  -0.00474   1.87204
   A16        1.95811   0.00246  -0.00263   0.03774   0.03511   1.99322
    D1       -0.46044  -0.00023  -0.00319   0.01162   0.00842  -0.45202
    D2        2.60863  -0.00033  -0.00042  -0.03438  -0.03478   2.57385
    D3       -2.57344  -0.00004  -0.00269   0.00849   0.00578  -2.56767
    D4        0.49563  -0.00014   0.00007  -0.03751  -0.03743   0.45820
    D5        1.63347   0.00019  -0.00291   0.01280   0.00988   1.64335
    D6       -1.58064   0.00009  -0.00014  -0.03320  -0.03333  -1.61397
    D7       -0.53886  -0.00051  -0.00045  -0.03515  -0.03564  -0.57450
    D8       -2.63044  -0.00033  -0.00028  -0.03491  -0.03522  -2.66566
    D9        1.56647   0.00041  -0.00043  -0.02707  -0.02752   1.53894
   D10        2.67514  -0.00037  -0.00321   0.01092   0.00772   2.68286
   D11        0.58355  -0.00019  -0.00304   0.01115   0.00814   0.59169
   D12       -1.50272   0.00055  -0.00319   0.01900   0.01584  -1.48688
   D13        1.71974   0.00221  -0.00526   0.20052   0.19518   1.91492
   D14       -1.49129   0.00215  -0.00261   0.15670   0.15417  -1.33712
         Item               Value     Threshold  Converged?
 Maximum Force            0.005432     0.000450     NO 
 RMS     Force            0.001949     0.000300     NO 
 Maximum Displacement     0.185582     0.001800     NO 
 RMS     Displacement     0.044666     0.001200     NO 
 Predicted change in Energy=-5.307135D-04
 GradGradGradGradGradGradGradGradGradGradGradGradGradGradGradGradGradGrad

                          Input orientation:                          
 ---------------------------------------------------------------------
 Center     Atomic      Atomic             Coordinates (Angstroms)
 Number     Number       Type             X           Y           Z
 ---------------------------------------------------------------------
      1          6           0        1.144280   -0.713479    0.197786
      2          9           0        1.905816    0.200197   -0.403905
      3          9           0        1.473011   -1.916226   -0.266691
      4          6           0       -0.312846   -0.449834   -0.015863
      5          9           0       -0.155021    1.861757    0.333055
      6          9           0        1.453620   -0.697468    1.509057
      7          9           0       -2.124587    0.982482    0.136246
      8          9           0       -0.866422    1.209426   -1.598648
      9          6           0       -0.859853    0.915324   -0.291824
     10          8           0       -1.137628   -1.487932   -0.090688
     11          1           0       -1.727648   -1.580637    0.668829
 ---------------------------------------------------------------------
                    Distance matrix (angstroms):
                    1          2          3          4          5
     1  C    0.000000
     2  F    1.332957   0.000000
     3  F    1.330564   2.164577   0.000000
     4  C    1.496118   2.344265   2.324329   0.000000
     5  F    2.887616   2.747898   4.157324   2.343097   0.000000
     6  F    1.347361   2.160950   2.153841   2.346722   3.243507
     7  F    3.683146   4.141000   4.637626   2.314535   2.165882
     8  F    3.311746   3.182964   4.125137   2.358982   2.159422
     9  C    2.628549   2.858828   3.668864   1.496338   1.335289
    10  O    2.426953   3.494344   2.651386   1.327974   3.516461
    11  H    3.036744   4.186190   3.351423   1.936281   3.799471
                    6          7          8          9         10
     6  F    0.000000
     7  F    4.184543   0.000000
     8  F    4.321651   2.155073   0.000000
     9  C    3.346106   1.336901   1.339525   0.000000
    10  O    3.146202   2.669932   3.102134   2.427603   0.000000
    11  H    3.406822   2.647789   3.696973   2.811716   0.966221
                   11
    11  H    0.000000
 Stoichiometry    C3HF6O(2)
 Framework group  C1[X(C3HF6O)]
 Deg. of freedom    27
 Full point group                 C1      NOp   1
 Largest Abelian subgroup         C1      NOp   1
 Largest concise Abelian subgroup C1      NOp   1
                         Standard orientation:                         
 ---------------------------------------------------------------------
 Center     Atomic      Atomic             Coordinates (Angstroms)
 Number     Number       Type             X           Y           Z
 ---------------------------------------------------------------------
      1          6           0       -1.318858   -0.130251   -0.008470
      2          9           0       -1.225436   -1.338249   -0.564155
      3          9           0       -2.221205    0.580169   -0.680390
      4          6           0       -0.000781    0.577428    0.006789
      5          9           0        1.232746   -1.303339    0.663471
      6          9           0       -1.795768   -0.295771    1.240746
      7          9           0        2.237329    0.614274    0.595497
      8          9           0        1.744555   -0.410717   -1.235050
      9          6           0        1.309621   -0.144973    0.003715
     10          8           0        0.006699    1.900130   -0.111184
     11          1           0        0.256528    2.368433    0.696195
 ---------------------------------------------------------------------
 Rotational constants (GHZ):           2.0942590           1.0196228           0.9035127
 Standard basis: 6-311+G(2d) (5D, 7F)
 There are   293 symmetry adapted cartesian basis functions of A   symmetry.
 There are   273 symmetry adapted basis functions of A   symmetry.
   273 basis functions,   425 primitive gaussians,   293 cartesian basis functions
    41 alpha electrons       40 beta electrons
       nuclear repulsion energy       639.9896402448 Hartrees.
 NAtoms=   11 NActive=   11 NUniq=   11 SFac= 1.00D+00 NAtFMM=   60 NAOKFM=F Big=F
 Integral buffers will be    131072 words long.
 Raffenetti 2 integral format.
 Two-electron integral symmetry is turned on.
 Nuclear repulsion after empirical dispersion term =      639.9851176655 Hartrees.
 One-electron integrals computed using PRISM.
 NBasis=   273 RedAO= T EigKep=  6.00D-05  NBF=   273
 NBsUse=   273 1.00D-06 EigRej= -1.00D+00 NBFU=   273
 Initial guess from the checkpoint file:  "hfp_2oh_2rad_prod.chk"
 B after Tr=    -0.000000   -0.000000    0.000000
         Rot=    0.999991   -0.003540   -0.001533    0.001973 Ang=  -0.50 deg.
 Initial guess <Sx>= 0.0000 <Sy>= 0.0000 <Sz>= 0.5000 <S**2>= 0.7542 S= 0.5021
 ExpMin= 4.38D-02 ExpMax= 1.14D+04 ExpMxC= 1.72D+03 IAcc=2 IRadAn=         4 AccDes= 0.00D+00
 Harris functional with IExCor= 4639 and IRadAn=       4 diagonalized for initial guess.
 HarFok:  IExCor= 4639 AccDes= 0.00D+00 IRadAn=         4 IDoV= 1 UseB2=F ITyADJ=14
 ICtDFT=  3500011 ScaDFX=  1.000000  1.000000  1.000000  1.000000
 FoFCou: FMM=F IPFlag=           0 FMFlag=      100000 FMFlg1=           0
         NFxFlg=           0 DoJE=T BraDBF=F KetDBF=T FulRan=T
         wScrn=  0.000000 ICntrl=       500 IOpCl=  0 I1Cent=   200000004 NGrid=           0
         NMat0=    1 NMatS0=      1 NMatT0=    0 NMatD0=    1 NMtDS0=    0 NMtDT0=    0
 Petite list used in FoFCou.
 Keep R1 and R2 ints in memory in canonical form, NReq=2824723821.
 Requested convergence on RMS density matrix=1.00D-08 within 128 cycles.
 Requested convergence on MAX density matrix=1.00D-06.
 Requested convergence on             energy=1.00D-06.
 No special actions if energy rises.
 SCF Done:  E(UwB97XD) =  -789.180559380     A.U. after   13 cycles
            NFock= 13  Conv=0.91D-08     -V/T= 2.0025
 <Sx>= 0.0000 <Sy>= 0.0000 <Sz>= 0.5000 <S**2>= 0.7541 S= 0.5021
 <L.S>= 0.000000000000E+00
 Annihilation of the first spin contaminant:
 S**2 before annihilation     0.7541,   after     0.7500
 Calling FoFJK, ICntrl=      2127 FMM=F ISym2X=0 I1Cent= 0 IOpClX= 1 NMat=1 NMatS=1 NMatT=0.
 ***** Axes restored to original set *****
 -------------------------------------------------------------------
 Center     Atomic                   Forces (Hartrees/Bohr)
 Number     Number              X              Y              Z
 -------------------------------------------------------------------
      1        6           0.000050953   -0.001173878   -0.000819466
      2        9           0.000316722   -0.000060712    0.000046992
      3        9           0.001270536   -0.000469771   -0.000376725
      4        6          -0.000504395    0.005014518    0.000597647
      5        9          -0.000894194    0.000038579   -0.000591188
      6        9           0.000395226    0.000287741   -0.000047886
      7        9          -0.002532060    0.001004181    0.000716030
      8        9          -0.000158449    0.000390764   -0.000227331
      9        6           0.003081371    0.001001441    0.001588498
     10        8          -0.000146000   -0.010439269    0.001629858
     11        1          -0.000879709    0.004406408   -0.002516429
 -------------------------------------------------------------------
 Cartesian Forces:  Max     0.010439269 RMS     0.002403569

 GradGradGradGradGradGradGradGradGradGradGradGradGradGradGradGradGradGrad
 Berny optimization.
 Using GEDIIS/GDIIS optimizer.
 FormGI is forming the generalized inverse of G from B-inverse, IUseBI=4.
 Internal  Forces:  Max     0.005403819 RMS     0.001630823
 Search for a local minimum.
 Step number   4 out of a maximum of   50
 All quantities printed in internal units (Hartrees-Bohrs-Radians)
 Mixed Optimization -- RFO/linear search
 Update second derivatives using D2CorX and points    1    2    3    4
 DE= -1.06D-03 DEPred=-5.31D-04 R= 2.00D+00
 TightC=F SS=  1.41D+00  RLast= 2.67D-01 DXNew= 1.1657D+00 7.9969D-01
 Trust test= 2.00D+00 RLast= 2.67D-01 DXMaxT set to 8.00D-01
 ITU=  1  1  1  0
 Use linear search instead of GDIIS.
     Eigenvalues ---   -0.69275   0.00023   0.00237   0.00302   0.00507
     Eigenvalues ---    0.10490   0.10682   0.10944   0.11155   0.22620
     Eigenvalues ---    0.24652   0.24930   0.24970   0.24989   0.25000
     Eigenvalues ---    0.25000   0.26165   0.28518   0.31218   0.39057
     Eigenvalues ---    0.52365   0.54542   0.55017   0.55021   0.55021
     Eigenvalues ---    0.55390   0.55974
 RFO step:  Lambda=-6.92759175D-01 EMin=-6.92753237D-01
 I=     1 Eig=   -6.93D-01 Dot1=  1.22D-03
 I=     1 Stepn=  6.00D-01 RXN=   6.00D-01 EDone=F
 Mixed    1 eigenvectors in step.  Raw Step.Grad=  1.22D-03.
 RFO eigenvector is Hessian eigenvector with negative curvature.
 Taking step of  6.00D-01 in eigenvector direction(s).  Step.Grad= -7.98D-04.
 Skip linear search -- no minimum in search direction.
 Iteration  1 RMS(Cart)=  0.18591121 RMS(Int)=  0.03325616
 Iteration  2 RMS(Cart)=  0.05653456 RMS(Int)=  0.00531583
 Iteration  3 RMS(Cart)=  0.00439920 RMS(Int)=  0.00147968
 Iteration  4 RMS(Cart)=  0.00000557 RMS(Int)=  0.00147967
 Iteration  5 RMS(Cart)=  0.00000000 RMS(Int)=  0.00147967
 Variable       Old X    -DE/DX   Delta X   Delta X   Delta X     New X
                                 (Linear)    (Quad)   (Total)
    R1        2.51892   0.00012   0.00000  -0.03498  -0.03498   2.48394
    R2        2.51440   0.00087   0.00000  -0.02828  -0.02828   2.48613
    R3        2.82725   0.00206   0.00000  -0.18484  -0.18484   2.64242
    R4        2.54614   0.00005   0.00000  -0.14634  -0.14634   2.39981
    R5        2.82767   0.00213   0.00000  -0.16369  -0.16369   2.66398
    R6        2.50951   0.00540   0.00000  -0.03880  -0.03880   2.47070
    R7        2.52333  -0.00072   0.00000  -0.07435  -0.07435   2.44898
    R8        2.52638   0.00267   0.00000  -0.03035  -0.03035   2.49603
    R9        2.53134   0.00031   0.00000  -0.07807  -0.07807   2.45326
   R10        1.82589  -0.00187   0.00000  -0.01470  -0.01470   1.81119
    A1        1.89746  -0.00101   0.00000   0.08377   0.08255   1.98001
    A2        1.95107  -0.00007   0.00000  -0.15001  -0.15265   1.79842
    A3        1.87548  -0.00057   0.00000   0.03017   0.02573   1.90121
    A4        1.92844   0.00177   0.00000   0.00483   0.00405   1.93249
    A5        1.86895  -0.00051   0.00000   0.05228   0.05180   1.92075
    A6        1.93959   0.00027   0.00000  -0.00996  -0.01191   1.92768
    A7        2.14497  -0.00050   0.00000  -0.08669  -0.08671   2.05827
    A8        2.06597  -0.00124   0.00000  -0.00810  -0.00808   2.05789
    A9        2.06661   0.00174   0.00000   0.09563   0.09565   2.16226
   A10        1.94699   0.00103   0.00000  -0.10420  -0.10634   1.84064
   A11        1.90986   0.00123   0.00000   0.01649   0.01648   1.92635
   A12        1.96278   0.00016   0.00000  -0.03827  -0.04022   1.92256
   A13        1.89010  -0.00111   0.00000   0.05979   0.05981   1.94992
   A14        1.87918  -0.00073   0.00000   0.02189   0.01732   1.89650
   A15        1.87204  -0.00073   0.00000   0.05399   0.05396   1.92601
   A16        1.99322  -0.00399   0.00000  -0.40209  -0.40209   1.59113
    D1       -0.45202   0.00011   0.00000   0.02678   0.02545  -0.42657
    D2        2.57385   0.00024   0.00000   0.04197   0.04049   2.61434
    D3       -2.56767   0.00022   0.00000   0.01865   0.01840  -2.54927
    D4        0.45820   0.00035   0.00000   0.03384   0.03344   0.49164
    D5        1.64335  -0.00047   0.00000  -0.04333  -0.04153   1.60182
    D6       -1.61397  -0.00034   0.00000  -0.02814  -0.02649  -1.64045
    D7       -0.57450   0.00006   0.00000   0.04493   0.04293  -0.53157
    D8       -2.66566  -0.00002   0.00000   0.02544   0.02541  -2.64026
    D9        1.53894  -0.00002   0.00000  -0.02904  -0.02716   1.51178
   D10        2.68286   0.00012   0.00000   0.03626   0.03437   2.71723
   D11        0.59169   0.00004   0.00000   0.01677   0.01684   0.60854
   D12       -1.48688   0.00003   0.00000  -0.03771  -0.03572  -1.52261
   D13        1.91492   0.00357   0.00000   0.09068   0.09032   2.00524
   D14       -1.33712   0.00355   0.00000   0.09322   0.09358  -1.24354
         Item               Value     Threshold  Converged?
 Maximum Force            0.005404     0.000450     NO 
 RMS     Force            0.001631     0.000300     NO 
 Maximum Displacement     0.632889     0.001800     NO 
 RMS     Displacement     0.206286     0.001200     NO 
 Predicted change in Energy=-1.257073D-01
 GradGradGradGradGradGradGradGradGradGradGradGradGradGradGradGradGradGrad

                          Input orientation:                          
 ---------------------------------------------------------------------
 Center     Atomic      Atomic             Coordinates (Angstroms)
 Number     Number       Type             X           Y           Z
 ---------------------------------------------------------------------
      1          6           0        1.031026   -0.677072    0.192865
      2          9           0        1.570906    0.361145   -0.405804
      3          9           0        1.432322   -1.830543   -0.296292
      4          6           0       -0.337119   -0.493959   -0.030548
      5          9           0        0.005472    1.591124    0.388840
      6          9           0        1.289695   -0.617120    1.434718
      7          9           0       -2.047004    0.947116    0.136409
      8          9           0       -0.702375    1.099447   -1.534358
      9          6           0       -0.797315    0.816675   -0.270880
     10          8           0       -1.090828   -1.558714   -0.117828
     11          1           0       -1.562059   -1.314488    0.680232
 ---------------------------------------------------------------------
                    Distance matrix (angstroms):
                    1          2          3          4          5
     1  C    0.000000
     2  F    1.314446   0.000000
     3  F    1.315602   2.198793   0.000000
     4  C    1.398308   2.124283   2.233382   0.000000
     5  F    2.496974   2.143570   3.770028   2.154257   0.000000
     6  F    1.269923   2.103237   2.118757   2.192875   2.760332
     7  F    3.480724   3.704946   4.473066   2.242382   2.165900
     8  F    3.023904   2.643204   3.830741   2.221215   2.107483
     9  C    2.406070   2.415405   3.461169   1.409716   1.295944
    10  O    2.318639   3.294483   2.544017   1.307440   3.373435
    11  H    2.714390   3.715197   3.191587   1.636751   3.314309
                    6          7          8          9         10
     6  F    0.000000
     7  F    3.907173   0.000000
     8  F    3.966152   2.150045   0.000000
     9  C    3.052941   1.320841   1.298210   0.000000
    10  O    2.993976   2.694085   3.036984   2.398343   0.000000
    11  H    3.031184   2.376082   3.386819   2.455871   0.958440
                   11
    11  H    0.000000
 Stoichiometry    C3HF6O(2)
 Framework group  C1[X(C3HF6O)]
 Deg. of freedom    27
 Full point group                 C1      NOp   1
 Largest Abelian subgroup         C1      NOp   1
 Largest concise Abelian subgroup C1      NOp   1
                         Standard orientation:                         
 ---------------------------------------------------------------------
 Center     Atomic      Atomic             Coordinates (Angstroms)
 Number     Number       Type             X           Y           Z
 ---------------------------------------------------------------------
      1          6           0       -1.204033   -0.138048    0.006815
      2          9           0       -0.841472   -1.282847   -0.527743
      3          9           0       -2.140640    0.484931   -0.675442
      4          6           0       -0.016833    0.600747    0.005755
      5          9           0        0.961118   -1.214325    0.630215
      6          9           0       -1.596768   -0.344940    1.196629
      7          9           0        2.146858    0.597821    0.594574
      8          9           0        1.548870   -0.390912   -1.218575
      9          6           0        1.201837   -0.107851   -0.000054
     10          8           0       -0.104941    1.900424   -0.105939
     11          1           0        0.251991    2.019972    0.775489
 ---------------------------------------------------------------------
 Rotational constants (GHZ):           2.2303222           1.2061854           1.0598691
 Standard basis: 6-311+G(2d) (5D, 7F)
 There are   293 symmetry adapted cartesian basis functions of A   symmetry.
 There are   273 symmetry adapted basis functions of A   symmetry.
   273 basis functions,   425 primitive gaussians,   293 cartesian basis functions
    41 alpha electrons       40 beta electrons
       nuclear repulsion energy       677.0477237509 Hartrees.
 NAtoms=   11 NActive=   11 NUniq=   11 SFac= 1.00D+00 NAtFMM=   60 NAOKFM=F Big=F
 Integral buffers will be    131072 words long.
 Raffenetti 2 integral format.
 Two-electron integral symmetry is turned on.
 Nuclear repulsion after empirical dispersion term =      677.0433760270 Hartrees.
 One-electron integrals computed using PRISM.
 NBasis=   273 RedAO= T EigKep=  4.77D-05  NBF=   273
 NBsUse=   273 1.00D-06 EigRej= -1.00D+00 NBFU=   273
 Initial guess from the checkpoint file:  "hfp_2oh_2rad_prod.chk"
 B after Tr=     0.000000    0.000000   -0.000000
         Rot=    0.999915   -0.002375    0.000042   -0.012854 Ang=  -1.50 deg.
 Initial guess <Sx>= 0.0000 <Sy>= 0.0000 <Sz>= 0.5000 <S**2>= 0.7537 S= 0.5018
 ExpMin= 4.38D-02 ExpMax= 1.14D+04 ExpMxC= 1.72D+03 IAcc=2 IRadAn=         4 AccDes= 0.00D+00
 Harris functional with IExCor= 4639 and IRadAn=       4 diagonalized for initial guess.
 HarFok:  IExCor= 4639 AccDes= 0.00D+00 IRadAn=         4 IDoV= 1 UseB2=F ITyADJ=14
 ICtDFT=  3500011 ScaDFX=  1.000000  1.000000  1.000000  1.000000
 FoFCou: FMM=F IPFlag=           0 FMFlag=      100000 FMFlg1=           0
         NFxFlg=           0 DoJE=T BraDBF=F KetDBF=T FulRan=T
         wScrn=  0.000000 ICntrl=       500 IOpCl=  0 I1Cent=   200000004 NGrid=           0
         NMat0=    1 NMatS0=      1 NMatT0=    0 NMatD0=    1 NMtDS0=    0 NMtDT0=    0
 Petite list used in FoFCou.
 Keep R1 and R2 ints in memory in canonical form, NReq=2824723821.
 Requested convergence on RMS density matrix=1.00D-08 within 128 cycles.
 Requested convergence on MAX density matrix=1.00D-06.
 Requested convergence on             energy=1.00D-06.
 No special actions if energy rises.
 SCF Done:  E(UwB97XD) =  -789.118516076     A.U. after   15 cycles
            NFock= 15  Conv=0.63D-08     -V/T= 2.0008
 <Sx>= 0.0000 <Sy>= 0.0000 <Sz>= 0.5000 <S**2>= 0.7535 S= 0.5018
 <L.S>= 0.000000000000E+00
 Annihilation of the first spin contaminant:
 S**2 before annihilation     0.7535,   after     0.7500
 Calling FoFJK, ICntrl=      2127 FMM=F ISym2X=0 I1Cent= 0 IOpClX= 1 NMat=1 NMatS=1 NMatT=0.
 ***** Axes restored to original set *****
 -------------------------------------------------------------------
 Center     Atomic                   Forces (Hartrees/Bohr)
 Number     Number              X              Y              Z
 -------------------------------------------------------------------
      1        6           0.001330855    0.000327828   -0.039380563
      2        9           0.069171776   -0.000744832   -0.025711774
      3        9           0.021345024   -0.012703350   -0.007482280
      4        6          -0.009392684   -0.031308768   -0.018286321
      5        9          -0.008986196    0.061643891    0.030975131
      6        9           0.032894793   -0.004716706    0.074194766
      7        9          -0.022710056    0.013510935    0.003537561
      8        9          -0.011365133    0.022715118   -0.043733715
      9        6          -0.007429774   -0.005361285    0.005623924
     10        8          -0.027962499   -0.015128179    0.014407002
     11        1          -0.036896106   -0.028234651    0.005856268
 -------------------------------------------------------------------
 Cartesian Forces:  Max     0.074194766 RMS     0.028772656

 GradGradGradGradGradGradGradGradGradGradGradGradGradGradGradGradGradGrad
 Berny optimization.
 Using GEDIIS/GDIIS optimizer.
 FormGI is forming the generalized inverse of G from B-inverse, IUseBI=4.
 Internal  Forces:  Max     0.124646498 RMS     0.046424659
 Search for a local minimum.
 Step number   5 out of a maximum of   50
 All quantities printed in internal units (Hartrees-Bohrs-Radians)
 Mixed Optimization -- RFO/linear search
 Update second derivatives using D2CorX and points    1    2    3    5    4
 ITU=  0  1  1  1  0
 Use linear search instead of GDIIS.
     Eigenvalues ---    0.00028   0.00237   0.00290   0.00535   0.10970
     Eigenvalues ---    0.11142   0.11998   0.12273   0.19588   0.24413
     Eigenvalues ---    0.24880   0.24976   0.24994   0.25000   0.25089
     Eigenvalues ---    0.28467   0.29337   0.32158   0.46034   0.52064
     Eigenvalues ---    0.54695   0.55003   0.55021   0.55128   0.55626
     Eigenvalues ---    0.57618   1.16098
 RFO step:  Lambda=-3.94442319D-03 EMin= 2.76551282D-04
 Quartic linear search produced a step of -0.98644.
 Iteration  1 RMS(Cart)=  0.18641306 RMS(Int)=  0.09179284
 Iteration  2 RMS(Cart)=  0.07022914 RMS(Int)=  0.03744696
 Iteration  3 RMS(Cart)=  0.03988918 RMS(Int)=  0.00424382
 Iteration  4 RMS(Cart)=  0.00392245 RMS(Int)=  0.00135987
 Iteration  5 RMS(Cart)=  0.00002798 RMS(Int)=  0.00135967
 Iteration  6 RMS(Cart)=  0.00000000 RMS(Int)=  0.00135967
 Variable       Old X    -DE/DX   Delta X   Delta X   Delta X     New X
                                 (Linear)    (Quad)   (Total)
    R1        2.48394   0.03953   0.03450  -0.00870   0.02580   2.50975
    R2        2.48613   0.02043   0.02789  -0.00709   0.02081   2.50693
    R3        2.64242   0.12465   0.18233  -0.03044   0.15188   2.79430
    R4        2.39981   0.07903   0.14435  -0.00069   0.14366   2.54347
    R5        2.66398   0.10310   0.16147  -0.02908   0.13239   2.79637
    R6        2.47070   0.07135   0.03828  -0.05911  -0.02083   2.44987
    R7        2.44898   0.04704   0.07334  -0.01391   0.05943   2.50841
    R8        2.49603   0.02391   0.02994   0.01274   0.04268   2.53870
    R9        2.45326   0.04668   0.07702  -0.00434   0.07268   2.52594
   R10        1.81119   0.01582   0.01451  -0.00423   0.01028   1.82146
    A1        1.98001  -0.05804  -0.08143   0.01427  -0.06747   1.91253
    A2        1.79842   0.09807   0.15058  -0.00425   0.14674   1.94516
    A3        1.90121  -0.02770  -0.02538   0.00106  -0.02321   1.87800
    A4        1.93249  -0.00032  -0.00400   0.00025  -0.00400   1.92848
    A5        1.92075  -0.02440  -0.05110  -0.00122  -0.05251   1.86824
    A6        1.92768   0.01994   0.01175  -0.01076   0.00148   1.92916
    A7        2.05827   0.07587   0.08553   0.00190   0.08477   2.14304
    A8        2.05789  -0.02638   0.00797  -0.02610  -0.02039   2.03750
    A9        2.16226  -0.04936  -0.09435   0.01374  -0.08203   2.08022
   A10        1.84064   0.07603   0.10490   0.00920   0.11367   1.95431
   A11        1.92635  -0.00389  -0.01626  -0.02364  -0.03952   1.88682
   A12        1.92256   0.02119   0.03967   0.00634   0.04524   1.96781
   A13        1.94992  -0.04517  -0.05900   0.01010  -0.04819   1.90173
   A14        1.89650  -0.01962  -0.01709   0.00864  -0.00982   1.88668
   A15        1.92601  -0.02415  -0.05323  -0.00927  -0.06250   1.86351
   A16        1.59113   0.07889   0.39664   0.08066   0.47730   2.06843
    D1       -0.42657  -0.01924  -0.02511   0.02645   0.00359  -0.42297
    D2        2.61434  -0.02083  -0.03995  -0.08275  -0.12382   2.49053
    D3       -2.54927  -0.00801  -0.01815   0.01195  -0.00456  -2.55383
    D4        0.49164  -0.00960  -0.03299  -0.09725  -0.13197   0.35967
    D5        1.60182   0.00952   0.04097   0.02066   0.06279   1.66462
    D6       -1.64045   0.00792   0.02613  -0.08854  -0.06462  -1.70507
    D7       -0.53157  -0.02029  -0.04235  -0.09473  -0.13737  -0.66894
    D8       -2.64026  -0.00952  -0.02506  -0.09947  -0.12373  -2.76399
    D9        1.51178   0.00928   0.02679  -0.07631  -0.04847   1.46331
   D10        2.71723  -0.02066  -0.03390   0.02408  -0.01115   2.70608
   D11        0.60854  -0.00989  -0.01661   0.01933   0.00249   0.61102
   D12       -1.52261   0.00892   0.03524   0.04250   0.07775  -1.44486
   D13        2.00524   0.00297  -0.08909   0.68751   0.59437   2.59961
   D14       -1.24354   0.00917  -0.09231   0.57032   0.48205  -0.76148
         Item               Value     Threshold  Converged?
 Maximum Force            0.124646     0.000450     NO 
 RMS     Force            0.046425     0.000300     NO 
 Maximum Displacement     0.719862     0.001800     NO 
 RMS     Displacement     0.245358     0.001200     NO 
 Predicted change in Energy=-1.397351D-02
 GradGradGradGradGradGradGradGradGradGradGradGradGradGradGradGradGradGrad

                          Input orientation:                          
 ---------------------------------------------------------------------
 Center     Atomic      Atomic             Coordinates (Angstroms)
 Number     Number       Type             X           Y           Z
 ---------------------------------------------------------------------
      1          6           0        1.168436   -0.706426    0.193347
      2          9           0        1.872885    0.186471   -0.492465
      3          9           0        1.461583   -1.927498   -0.234376
      4          6           0       -0.283822   -0.452638    0.079180
      5          9           0       -0.165935    1.855474    0.362742
      6          9           0        1.560716   -0.633965    1.478816
      7          9           0       -2.116314    0.911159    0.189854
      8          9           0       -0.866027    1.136479   -1.546175
      9          6           0       -0.841939    0.881526   -0.234266
     10          8           0       -1.053869   -1.493052    0.006624
     11          1           0       -1.942994   -1.433919    0.374073
 ---------------------------------------------------------------------
                    Distance matrix (angstroms):
                    1          2          3          4          5
     1  C    0.000000
     2  F    1.328101   0.000000
     3  F    1.326612   2.169020   0.000000
     4  C    1.478681   2.320911   2.306507   0.000000
     5  F    2.893540   2.770151   4.161279   2.328451   0.000000
     6  F    1.345944   2.157895   2.148972   2.322538   3.228661
     7  F    3.661445   4.111501   4.586861   2.286966   2.173844
     8  F    3.249812   3.084552   4.065285   2.346494   2.156629
     9  C    2.597317   2.814256   3.632745   1.479776   1.327393
    10  O    2.364801   3.411125   2.564044   1.296417   3.482509
    11  H    3.200454   4.235267   3.493562   1.950058   3.738739
                    6          7          8          9         10
     6  F    0.000000
     7  F    4.191585   0.000000
     8  F    4.263113   2.151228   0.000000
     9  C    3.317245   1.343424   1.336670   0.000000
    10  O    3.121127   2.634880   3.059559   2.396156   0.000000
    11  H    3.759836   2.358680   3.384399   2.635088   0.963877
                   11
    11  H    0.000000
 Stoichiometry    C3HF6O(2)
 Framework group  C1[X(C3HF6O)]
 Deg. of freedom    27
 Full point group                 C1      NOp   1
 Largest Abelian subgroup         C1      NOp   1
 Largest concise Abelian subgroup C1      NOp   1
                         Standard orientation:                         
 ---------------------------------------------------------------------
 Center     Atomic      Atomic             Coordinates (Angstroms)
 Number     Number       Type             X           Y           Z
 ---------------------------------------------------------------------
      1          6           0       -1.309660   -0.121863   -0.006937
      2          9           0       -1.207446   -1.285960   -0.638033
      3          9           0       -2.198169    0.643546   -0.627098
      4          6           0       -0.002776    0.564948    0.075786
      5          9           0        1.241172   -1.315600    0.657007
      6          9           0       -1.792517   -0.367839    1.225098
      7          9           0        2.228738    0.619167    0.573401
      8          9           0        1.683348   -0.396161   -1.243036
      9          6           0        1.287358   -0.156922    0.011015
     10          8           0       -0.012591    1.854956   -0.052588
     11          1           0        0.655047    2.369002    0.415467
 ---------------------------------------------------------------------
 Rotational constants (GHZ):           2.1263124           1.0383370           0.9208551
 Standard basis: 6-311+G(2d) (5D, 7F)
 There are   293 symmetry adapted cartesian basis functions of A   symmetry.
 There are   273 symmetry adapted basis functions of A   symmetry.
   273 basis functions,   425 primitive gaussians,   293 cartesian basis functions
    41 alpha electrons       40 beta electrons
       nuclear repulsion energy       644.9391051262 Hartrees.
 NAtoms=   11 NActive=   11 NUniq=   11 SFac= 1.00D+00 NAtFMM=   60 NAOKFM=F Big=F
 Integral buffers will be    131072 words long.
 Raffenetti 2 integral format.
 Two-electron integral symmetry is turned on.
 Nuclear repulsion after empirical dispersion term =      644.9346809829 Hartrees.
 One-electron integrals computed using PRISM.
 NBasis=   273 RedAO= T EigKep=  5.55D-05  NBF=   273
 NBsUse=   273 1.00D-06 EigRej= -1.00D+00 NBFU=   273
 Lowest energy guess from the checkpoint file:  "hfp_2oh_2rad_prod.chk"
 B after Tr=     0.000000   -0.000000   -0.000000
         Rot=    0.999896   -0.013877   -0.003090    0.002386 Ang=  -1.65 deg.
 B after Tr=    -0.000000   -0.000000    0.000000
         Rot=    0.999809   -0.011880   -0.004081    0.014944 Ang=  -2.24 deg.
 Initial guess <Sx>= 0.0000 <Sy>= 0.0000 <Sz>= 0.5000 <S**2>= 0.7542 S= 0.5021
 Keep R1 and R2 ints in memory in canonical form, NReq=2824723821.
 Requested convergence on RMS density matrix=1.00D-08 within 128 cycles.
 Requested convergence on MAX density matrix=1.00D-06.
 Requested convergence on             energy=1.00D-06.
 No special actions if energy rises.
 SCF Done:  E(UwB97XD) =  -789.183031830     A.U. after   15 cycles
            NFock= 15  Conv=0.41D-08     -V/T= 2.0023
 <Sx>= 0.0000 <Sy>= 0.0000 <Sz>= 0.5000 <S**2>= 0.7538 S= 0.5019
 <L.S>= 0.000000000000E+00
 Annihilation of the first spin contaminant:
 S**2 before annihilation     0.7538,   after     0.7500
 Calling FoFJK, ICntrl=      2127 FMM=F ISym2X=0 I1Cent= 0 IOpClX= 1 NMat=1 NMatS=1 NMatT=0.
 ***** Axes restored to original set *****
 -------------------------------------------------------------------
 Center     Atomic                   Forces (Hartrees/Bohr)
 Number     Number              X              Y              Z
 -------------------------------------------------------------------
      1        6          -0.002143774   -0.002298952    0.005134732
      2        9           0.005321098    0.001970474   -0.002615765
      3        9           0.004908872   -0.003469778   -0.003006327
      4        6           0.004924463    0.023773336    0.001504773
      5        9          -0.000553165    0.004075716    0.000478273
      6        9           0.004524703    0.000627273    0.002175014
      7        9          -0.005518927    0.004156612    0.001216277
      8        9          -0.000679544    0.003614739   -0.004752011
      9        6           0.001746091   -0.001593002    0.002883599
     10        8          -0.014695584   -0.042082604   -0.001797735
     11        1           0.002165767    0.011226187   -0.001220831
 -------------------------------------------------------------------
 Cartesian Forces:  Max     0.042082604 RMS     0.009497148

 GradGradGradGradGradGradGradGradGradGradGradGradGradGradGradGradGradGrad
 Berny optimization.
 Using GEDIIS/GDIIS optimizer.
 FormGI is forming the generalized inverse of G from B-inverse, IUseBI=4.
 Internal  Forces:  Max     0.032376075 RMS     0.007251674
 Search for a local minimum.
 Step number   6 out of a maximum of   50
 All quantities printed in internal units (Hartrees-Bohrs-Radians)
 Mixed Optimization -- RFO/linear search
 Update second derivatives using D2CorX and points    4    6
 DE= -2.47D-03 DEPred=-1.40D-02 R= 1.77D-01
 Trust test= 1.77D-01 RLast= 9.31D-01 DXMaxT set to 8.00D-01
 ITU=  0  0  1  1  1  0
 Use linear search instead of GDIIS.
     Eigenvalues ---    0.00235   0.00253   0.00367   0.00456   0.10466
     Eigenvalues ---    0.10703   0.11109   0.11283   0.18828   0.23395
     Eigenvalues ---    0.24827   0.24945   0.24984   0.25001   0.25309
     Eigenvalues ---    0.28497   0.29234   0.31459   0.45854   0.52083
     Eigenvalues ---    0.53503   0.55005   0.55042   0.55138   0.55574
     Eigenvalues ---    0.56374   1.33608
 RFO step:  Lambda=-2.20070929D-03 EMin= 2.34694319D-03
 Quartic linear search produced a step of -0.07531.
 Iteration  1 RMS(Cart)=  0.02688168 RMS(Int)=  0.00241703
 Iteration  2 RMS(Cart)=  0.00242060 RMS(Int)=  0.00005824
 Iteration  3 RMS(Cart)=  0.00001407 RMS(Int)=  0.00005685
 Iteration  4 RMS(Cart)=  0.00000000 RMS(Int)=  0.00005685
 Variable       Old X    -DE/DX   Delta X   Delta X   Delta X     New X
                                 (Linear)    (Quad)   (Total)
    R1        2.50975   0.00550   0.00069   0.00162   0.00231   2.51206
    R2        2.50693   0.00525   0.00056   0.00090   0.00146   2.50839
    R3        2.79430   0.01306   0.00248  -0.00130   0.00119   2.79549
    R4        2.54347   0.00343   0.00020  -0.00308  -0.00288   2.54059
    R5        2.79637   0.01117   0.00236  -0.00514  -0.00279   2.79358
    R6        2.44987   0.03238   0.00449   0.00941   0.01390   2.46378
    R7        2.50841   0.00292   0.00112  -0.00646  -0.00534   2.50307
    R8        2.53870   0.00571  -0.00093   0.01109   0.01016   2.54887
    R9        2.52594   0.00537   0.00041   0.00093   0.00134   2.52728
   R10        1.82146  -0.00178   0.00033  -0.00222  -0.00188   1.81958
    A1        1.91253  -0.00533  -0.00114  -0.00066  -0.00180   1.91073
    A2        1.94516   0.00214   0.00044  -0.00732  -0.00687   1.93829
    A3        1.87800  -0.00424  -0.00019  -0.00252  -0.00269   1.87531
    A4        1.92848   0.00458  -0.00000   0.00149   0.00146   1.92995
    A5        1.86824  -0.00290   0.00005   0.00141   0.00144   1.86968
    A6        1.92916   0.00525   0.00079   0.00783   0.00862   1.93778
    A7        2.14304  -0.00075   0.00015  -0.00301  -0.00274   2.14030
    A8        2.03750  -0.00075   0.00214  -0.01185  -0.00961   2.02789
    A9        2.08022   0.00159  -0.00103   0.01531   0.01444   2.09467
   A10        1.95431   0.00279  -0.00055   0.00032  -0.00024   1.95407
   A11        1.88682   0.00576   0.00174  -0.00499  -0.00325   1.88358
   A12        1.96781   0.00292  -0.00038   0.00761   0.00724   1.97505
   A13        1.90173  -0.00479  -0.00088   0.00290   0.00202   1.90375
   A14        1.88668  -0.00372  -0.00056  -0.00081  -0.00137   1.88531
   A15        1.86351  -0.00353   0.00064  -0.00535  -0.00469   1.85882
   A16        2.06843  -0.01944  -0.00566  -0.02662  -0.03228   2.03614
    D1       -0.42297  -0.00080  -0.00219   0.01089   0.00880  -0.41417
    D2        2.49053  -0.00012   0.00627   0.01510   0.02130   2.51183
    D3       -2.55383   0.00133  -0.00104   0.01573   0.01478  -2.53905
    D4        0.35967   0.00201   0.00742   0.01993   0.02727   0.38694
    D5        1.66462  -0.00124  -0.00160   0.00814   0.00661   1.67122
    D6       -1.70507  -0.00056   0.00686   0.01235   0.01911  -1.68596
    D7       -0.66894   0.00020   0.00711  -0.01847  -0.01128  -0.68022
    D8       -2.76399   0.00066   0.00740  -0.01899  -0.01152  -2.77551
    D9        1.46331  -0.00043   0.00570  -0.01366  -0.00788   1.45543
   D10        2.70608  -0.00020  -0.00175  -0.01932  -0.02115   2.68493
   D11        0.61102   0.00026  -0.00146  -0.01984  -0.02138   0.58964
   D12       -1.44486  -0.00082  -0.00316  -0.01451  -0.01774  -1.46260
   D13        2.59961   0.00294  -0.05156   0.18828   0.13672   2.73633
   D14       -0.76148   0.00328  -0.04335   0.18998   0.14662  -0.61486
         Item               Value     Threshold  Converged?
 Maximum Force            0.032376     0.000450     NO 
 RMS     Force            0.007252     0.000300     NO 
 Maximum Displacement     0.097816     0.001800     NO 
 RMS     Displacement     0.026707     0.001200     NO 
 Predicted change in Energy=-1.092478D-03
 GradGradGradGradGradGradGradGradGradGradGradGradGradGradGradGradGradGrad

                          Input orientation:                          
 ---------------------------------------------------------------------
 Center     Atomic      Atomic             Coordinates (Angstroms)
 Number     Number       Type             X           Y           Z
 ---------------------------------------------------------------------
      1          6           0        1.171218   -0.707224    0.196751
      2          9           0        1.863069    0.191287   -0.496881
      3          9           0        1.466959   -1.925811   -0.238597
      4          6           0       -0.282718   -0.455845    0.090759
      5          9           0       -0.168273    1.850111    0.362491
      6          9           0        1.581677   -0.632994    1.474829
      7          9           0       -2.120887    0.901621    0.191475
      8          9           0       -0.867651    1.130588   -1.543346
      9          6           0       -0.840204    0.874987   -0.230907
     10          8           0       -1.047505   -1.510898    0.048470
     11          1           0       -1.962963   -1.392211    0.322311
 ---------------------------------------------------------------------
                    Distance matrix (angstroms):
                    1          2          3          4          5
     1  C    0.000000
     2  F    1.329325   0.000000
     3  F    1.327383   2.169267   0.000000
     4  C    1.479309   2.317003   2.308819   0.000000
     5  F    2.891655   2.759814   4.158471   2.324730   0.000000
     6  F    1.344421   2.155518   2.149503   2.328733   3.235032
     7  F    3.664200   4.104913   4.588243   2.287296   2.177518
     8  F    3.249996   3.071515   4.061324   2.351429   2.153848
     9  C    2.594629   2.801048   3.628709   1.478301   1.324568
    10  O    2.364448   3.415594   2.564584   1.303774   3.488273
    11  H    3.210617   4.221026   3.516207   1.937426   3.706100
                    6          7          8          9         10
     6  F    0.000000
     7  F    4.208446   0.000000
     8  F    4.268350   2.152355   0.000000
     9  C    3.324010   1.348802   1.337379   0.000000
    10  O    3.117341   2.644399   3.089285   2.411115   0.000000
    11  H    3.803837   2.302981   3.323387   2.589754   0.962880
                   11
    11  H    0.000000
 Stoichiometry    C3HF6O(2)
 Framework group  C1[X(C3HF6O)]
 Deg. of freedom    27
 Full point group                 C1      NOp   1
 Largest Abelian subgroup         C1      NOp   1
 Largest concise Abelian subgroup C1      NOp   1
                         Standard orientation:                         
 ---------------------------------------------------------------------
 Center     Atomic      Atomic             Coordinates (Angstroms)
 Number     Number       Type             X           Y           Z
 ---------------------------------------------------------------------
      1          6           0       -1.309194   -0.120612   -0.005486
      2          9           0       -1.196254   -1.289498   -0.628426
      3          9           0       -2.194651    0.636311   -0.641865
      4          6           0       -0.001638    0.566328    0.076771
      5          9           0        1.239890   -1.308000    0.668274
      6          9           0       -1.804487   -0.363447    1.220558
      7          9           0        2.232511    0.627263    0.563174
      8          9           0        1.683166   -0.412268   -1.239665
      9          6           0        1.285102   -0.158539    0.011634
     10          8           0       -0.025415    1.864673   -0.039678
     11          1           0        0.716132    2.346319    0.341456
 ---------------------------------------------------------------------
 Rotational constants (GHZ):           2.1242422           1.0382938           0.9195958
 Standard basis: 6-311+G(2d) (5D, 7F)
 There are   293 symmetry adapted cartesian basis functions of A   symmetry.
 There are   273 symmetry adapted basis functions of A   symmetry.
   273 basis functions,   425 primitive gaussians,   293 cartesian basis functions
    41 alpha electrons       40 beta electrons
       nuclear repulsion energy       644.6997594835 Hartrees.
 NAtoms=   11 NActive=   11 NUniq=   11 SFac= 1.00D+00 NAtFMM=   60 NAOKFM=F Big=F
 Integral buffers will be    131072 words long.
 Raffenetti 2 integral format.
 Two-electron integral symmetry is turned on.
 Nuclear repulsion after empirical dispersion term =      644.6953561068 Hartrees.
 One-electron integrals computed using PRISM.
 NBasis=   273 RedAO= T EigKep=  5.56D-05  NBF=   273
 NBsUse=   273 1.00D-06 EigRej= -1.00D+00 NBFU=   273
 Initial guess from the checkpoint file:  "hfp_2oh_2rad_prod.chk"
 B after Tr=     0.000000    0.000000    0.000000
         Rot=    0.999995    0.003111    0.000749   -0.000279 Ang=   0.37 deg.
 Initial guess <Sx>= 0.0000 <Sy>= 0.0000 <Sz>= 0.5000 <S**2>= 0.7538 S= 0.5019
 ExpMin= 4.38D-02 ExpMax= 1.14D+04 ExpMxC= 1.72D+03 IAcc=2 IRadAn=         4 AccDes= 0.00D+00
 Harris functional with IExCor= 4639 and IRadAn=       4 diagonalized for initial guess.
 HarFok:  IExCor= 4639 AccDes= 0.00D+00 IRadAn=         4 IDoV= 1 UseB2=F ITyADJ=14
 ICtDFT=  3500011 ScaDFX=  1.000000  1.000000  1.000000  1.000000
 FoFCou: FMM=F IPFlag=           0 FMFlag=      100000 FMFlg1=           0
         NFxFlg=           0 DoJE=T BraDBF=F KetDBF=T FulRan=T
         wScrn=  0.000000 ICntrl=       500 IOpCl=  0 I1Cent=   200000004 NGrid=           0
         NMat0=    1 NMatS0=      1 NMatT0=    0 NMatD0=    1 NMtDS0=    0 NMtDT0=    0
 Petite list used in FoFCou.
 Keep R1 and R2 ints in memory in canonical form, NReq=2824723821.
 Requested convergence on RMS density matrix=1.00D-08 within 128 cycles.
 Requested convergence on MAX density matrix=1.00D-06.
 Requested convergence on             energy=1.00D-06.
 No special actions if energy rises.
 SCF Done:  E(UwB97XD) =  -789.184929410     A.U. after   13 cycles
            NFock= 13  Conv=0.51D-08     -V/T= 2.0023
 <Sx>= 0.0000 <Sy>= 0.0000 <Sz>= 0.5000 <S**2>= 0.7538 S= 0.5019
 <L.S>= 0.000000000000E+00
 Annihilation of the first spin contaminant:
 S**2 before annihilation     0.7538,   after     0.7500
 Calling FoFJK, ICntrl=      2127 FMM=F ISym2X=0 I1Cent= 0 IOpClX= 1 NMat=1 NMatS=1 NMatT=0.
 ***** Axes restored to original set *****
 -------------------------------------------------------------------
 Center     Atomic                   Forces (Hartrees/Bohr)
 Number     Number              X              Y              Z
 -------------------------------------------------------------------
      1        6          -0.001811399   -0.001469842    0.003889358
      2        9           0.005376522    0.001842116   -0.002775549
      3        9           0.004432231   -0.003124235   -0.002541866
      4        6           0.004376563    0.017072565    0.000490889
      5        9          -0.000248850    0.004881354    0.001312202
      6        9           0.003778294    0.000246518    0.002443033
      7        9          -0.003223532    0.004055390    0.000655985
      8        9          -0.000433627    0.002987896   -0.004317784
      9        6          -0.002025376   -0.002792550    0.002048658
     10        8          -0.011357456   -0.033045670   -0.000057593
     11        1           0.001136630    0.009346459   -0.001147333
 -------------------------------------------------------------------
 Cartesian Forces:  Max     0.033045670 RMS     0.007457604

 GradGradGradGradGradGradGradGradGradGradGradGradGradGradGradGradGradGrad
 Berny optimization.
 Using GEDIIS/GDIIS optimizer.
 FormGI is forming the generalized inverse of G from B-inverse, IUseBI=4.
 Internal  Forces:  Max     0.025213799 RMS     0.006063384
 Search for a local minimum.
 Step number   7 out of a maximum of   50
 All quantities printed in internal units (Hartrees-Bohrs-Radians)
 Mixed Optimization -- RFO/linear search
 Update second derivatives using D2CorX and points    6    7
 DE= -1.90D-03 DEPred=-1.09D-03 R= 1.74D+00
 TightC=F SS=  1.41D+00  RLast= 2.13D-01 DXNew= 1.3449D+00 6.4041D-01
 Trust test= 1.74D+00 RLast= 2.13D-01 DXMaxT set to 8.00D-01
 ITU=  1  0  0  1  1  1  0
 Use linear search instead of GDIIS.
     Eigenvalues ---    0.00221   0.00254   0.00373   0.00482   0.09890
     Eigenvalues ---    0.10447   0.11068   0.11234   0.12591   0.23818
     Eigenvalues ---    0.24856   0.24920   0.24976   0.24995   0.25645
     Eigenvalues ---    0.26392   0.28652   0.29576   0.40686   0.52032
     Eigenvalues ---    0.54060   0.54929   0.55006   0.55072   0.55416
     Eigenvalues ---    0.56590   0.67959
 RFO step:  Lambda=-3.40538374D-03 EMin= 2.20525575D-03
 Quartic linear search produced a step of  2.00000.
 Iteration  1 RMS(Cart)=  0.05281246 RMS(Int)=  0.00491066
 Iteration  2 RMS(Cart)=  0.00441947 RMS(Int)=  0.00013683
 Iteration  3 RMS(Cart)=  0.00003207 RMS(Int)=  0.00013361
 Iteration  4 RMS(Cart)=  0.00000000 RMS(Int)=  0.00013361
 Variable       Old X    -DE/DX   Delta X   Delta X   Delta X     New X
                                 (Linear)    (Quad)   (Total)
    R1        2.51206   0.00549   0.00463   0.01396   0.01859   2.53065
    R2        2.50839   0.00469   0.00292   0.00944   0.01235   2.52074
    R3        2.79549   0.01207   0.00237   0.03218   0.03455   2.83004
    R4        2.54059   0.00349  -0.00575   0.00186  -0.00389   2.53670
    R5        2.79358   0.01052  -0.00557   0.02829   0.02271   2.81630
    R6        2.46378   0.02521   0.02780   0.04491   0.07272   2.53649
    R7        2.50307   0.00405  -0.01068   0.01264   0.00197   2.50504
    R8        2.54887   0.00335   0.02033  -0.00272   0.01761   2.56648
    R9        2.52728   0.00482   0.00268   0.00750   0.01017   2.53745
   R10        1.81958  -0.00026  -0.00377   0.00643   0.00266   1.82224
    A1        1.91073  -0.00508  -0.00361  -0.01360  -0.01723   1.89350
    A2        1.93829   0.00296  -0.01373   0.00461  -0.00910   1.92920
    A3        1.87531  -0.00353  -0.00539  -0.00133  -0.00666   1.86865
    A4        1.92995   0.00404   0.00293   0.00633   0.00906   1.93901
    A5        1.86968  -0.00273   0.00288  -0.00321  -0.00065   1.86903
    A6        1.93778   0.00381   0.01723   0.00642   0.02351   1.96129
    A7        2.14030   0.00059  -0.00548   0.00298  -0.00282   2.13748
    A8        2.02789   0.00057  -0.01922   0.02266   0.00312   2.03101
    A9        2.09467  -0.00107   0.02888  -0.02163   0.00698   2.10165
   A10        1.95407   0.00299  -0.00048  -0.00378  -0.00425   1.94983
   A11        1.88358   0.00566  -0.00650   0.02518   0.01859   1.90217
   A12        1.97505   0.00197   0.01448  -0.00150   0.01289   1.98793
   A13        1.90375  -0.00497   0.00405  -0.01676  -0.01270   1.89105
   A14        1.88531  -0.00317  -0.00275  -0.00719  -0.00994   1.87537
   A15        1.85882  -0.00304  -0.00939   0.00369  -0.00588   1.85294
   A16        2.03614  -0.01644  -0.06457  -0.10435  -0.16892   1.86722
    D1       -0.41417  -0.00064   0.01760   0.00290   0.02064  -0.39353
    D2        2.51183  -0.00031   0.04259   0.02133   0.06386   2.57569
    D3       -2.53905   0.00103   0.02956   0.01268   0.04246  -2.49660
    D4        0.38694   0.00136   0.05455   0.03112   0.08568   0.47262
    D5        1.67122  -0.00061   0.01322   0.00850   0.02167   1.69290
    D6       -1.68596  -0.00028   0.03821   0.02694   0.06489  -1.62107
    D7       -0.68022   0.00005  -0.02256   0.02168  -0.00081  -0.68103
    D8       -2.77551   0.00070  -0.02304   0.02827   0.00539  -2.77012
    D9        1.45543  -0.00039  -0.01576   0.00818  -0.00758   1.44786
   D10        2.68493  -0.00049  -0.04229  -0.00283  -0.04521   2.63972
   D11        0.58964   0.00016  -0.04277   0.00376  -0.03901   0.55063
   D12       -1.46260  -0.00093  -0.03549  -0.01633  -0.05197  -1.51458
   D13        2.73633   0.00206   0.27345  -0.25359   0.01975   2.75608
   D14       -0.61486   0.00259   0.29325  -0.23262   0.06074  -0.55412
         Item               Value     Threshold  Converged?
 Maximum Force            0.025214     0.000450     NO 
 RMS     Force            0.006063     0.000300     NO 
 Maximum Displacement     0.211470     0.001800     NO 
 RMS     Displacement     0.052023     0.001200     NO 
 Predicted change in Energy=-3.345270D-03
 GradGradGradGradGradGradGradGradGradGradGradGradGradGradGradGradGradGrad

                          Input orientation:                          
 ---------------------------------------------------------------------
 Center     Atomic      Atomic             Coordinates (Angstroms)
 Number     Number       Type             X           Y           Z
 ---------------------------------------------------------------------
      1          6           0        1.184432   -0.718177    0.205271
      2          9           0        1.870401    0.215282   -0.466631
      3          9           0        1.516590   -1.916543   -0.277360
      4          6           0       -0.288596   -0.477241    0.083137
      5          9           0       -0.193709    1.836499    0.362261
      6          9           0        1.605253   -0.675577    1.479253
      7          9           0       -2.150273    0.904819    0.164535
      8          9           0       -0.869188    1.140116   -1.557792
      9          6           0       -0.855888    0.861413   -0.244339
     10          8           0       -1.072670   -1.566674    0.080575
     11          1           0       -1.953632   -1.280305    0.348443
 ---------------------------------------------------------------------
                    Distance matrix (angstroms):
                    1          2          3          4          5
     1  C    0.000000
     2  F    1.339160   0.000000
     3  F    1.333920   2.169259   0.000000
     4  C    1.497591   2.333045   2.336717   0.000000
     5  F    2.906938   2.752446   4.173675   2.332446   0.000000
     6  F    1.342362   2.156478   2.152568   2.361174   3.285492
     7  F    3.708912   4.127911   4.647713   2.320033   2.176067
     8  F    3.283138   3.090517   4.083456   2.376043   2.151238
     9  C    2.619191   2.810614   3.653326   1.490321   1.325609
    10  O    2.414541   3.483743   2.637194   1.342253   3.526118
    11  H    3.191228   4.186210   3.583137   1.867524   3.579384
                    6          7          8          9         10
     6  F    0.000000
     7  F    4.281367   0.000000
     8  F    4.317782   2.159387   0.000000
     9  C    3.374956   1.358121   1.342762   0.000000
    10  O    3.149861   2.697509   3.170547   2.459303   0.000000
    11  H    3.782868   2.201649   3.266220   2.478586   0.964290
                   11
    11  H    0.000000
 Stoichiometry    C3HF6O(2)
 Framework group  C1[X(C3HF6O)]
 Deg. of freedom    27
 Full point group                 C1      NOp   1
 Largest Abelian subgroup         C1      NOp   1
 Largest concise Abelian subgroup C1      NOp   1
                         Standard orientation:                         
 ---------------------------------------------------------------------
 Center     Atomic      Atomic             Coordinates (Angstroms)
 Number     Number       Type             X           Y           Z
 ---------------------------------------------------------------------
      1          6           0       -1.324064   -0.115275    0.001937
      2          9           0       -1.197761   -1.318443   -0.572330
      3          9           0       -2.209873    0.596176   -0.697008
      4          6           0        0.000708    0.580688    0.060182
      5          9           0        1.243365   -1.286991    0.698839
      6          9           0       -1.851000   -0.313731    1.220497
      7          9           0        2.270299    0.624872    0.539305
      8          9           0        1.696890   -0.462829   -1.235818
      9          6           0        1.294792   -0.156673    0.008206
     10          8           0       -0.023692    1.918669   -0.044002
     11          1           0        0.793640    2.246722    0.348689
 ---------------------------------------------------------------------
 Rotational constants (GHZ):           2.0995193           1.0174853           0.8994294
 Standard basis: 6-311+G(2d) (5D, 7F)
 There are   293 symmetry adapted cartesian basis functions of A   symmetry.
 There are   273 symmetry adapted basis functions of A   symmetry.
   273 basis functions,   425 primitive gaussians,   293 cartesian basis functions
    41 alpha electrons       40 beta electrons
       nuclear repulsion energy       639.6357737763 Hartrees.
 NAtoms=   11 NActive=   11 NUniq=   11 SFac= 1.00D+00 NAtFMM=   60 NAOKFM=F Big=F
 Integral buffers will be    131072 words long.
 Raffenetti 2 integral format.
 Two-electron integral symmetry is turned on.
 Nuclear repulsion after empirical dispersion term =      639.6313989791 Hartrees.
 One-electron integrals computed using PRISM.
 NBasis=   273 RedAO= T EigKep=  5.94D-05  NBF=   273
 NBsUse=   273 1.00D-06 EigRej= -1.00D+00 NBFU=   273
 Initial guess from the checkpoint file:  "hfp_2oh_2rad_prod.chk"
 B after Tr=     0.000000    0.000000    0.000000
         Rot=    0.999908    0.013397    0.001397    0.001512 Ang=   1.55 deg.
 Initial guess <Sx>= 0.0000 <Sy>= 0.0000 <Sz>= 0.5000 <S**2>= 0.7538 S= 0.5019
 ExpMin= 4.38D-02 ExpMax= 1.14D+04 ExpMxC= 1.72D+03 IAcc=2 IRadAn=         4 AccDes= 0.00D+00
 Harris functional with IExCor= 4639 and IRadAn=       4 diagonalized for initial guess.
 HarFok:  IExCor= 4639 AccDes= 0.00D+00 IRadAn=         4 IDoV= 1 UseB2=F ITyADJ=14
 ICtDFT=  3500011 ScaDFX=  1.000000  1.000000  1.000000  1.000000
 FoFCou: FMM=F IPFlag=           0 FMFlag=      100000 FMFlg1=           0
         NFxFlg=           0 DoJE=T BraDBF=F KetDBF=T FulRan=T
         wScrn=  0.000000 ICntrl=       500 IOpCl=  0 I1Cent=   200000004 NGrid=           0
         NMat0=    1 NMatS0=      1 NMatT0=    0 NMatD0=    1 NMtDS0=    0 NMtDT0=    0
 Petite list used in FoFCou.
 Keep R1 and R2 ints in memory in canonical form, NReq=2824723821.
 Requested convergence on RMS density matrix=1.00D-08 within 128 cycles.
 Requested convergence on MAX density matrix=1.00D-06.
 Requested convergence on             energy=1.00D-06.
 No special actions if energy rises.
 SCF Done:  E(UwB97XD) =  -789.187042456     A.U. after   13 cycles
            NFock= 13  Conv=0.40D-08     -V/T= 2.0026
 <Sx>= 0.0000 <Sy>= 0.0000 <Sz>= 0.5000 <S**2>= 0.7541 S= 0.5020
 <L.S>= 0.000000000000E+00
 Annihilation of the first spin contaminant:
 S**2 before annihilation     0.7541,   after     0.7500
 Calling FoFJK, ICntrl=      2127 FMM=F ISym2X=0 I1Cent= 0 IOpClX= 1 NMat=1 NMatS=1 NMatT=0.
 ***** Axes restored to original set *****
 -------------------------------------------------------------------
 Center     Atomic                   Forces (Hartrees/Bohr)
 Number     Number              X              Y              Z
 -------------------------------------------------------------------
      1        6          -0.000345980    0.000957873   -0.003680582
      2        9          -0.000150799   -0.001597591    0.000687734
      3        9          -0.000822781    0.001189079    0.000421049
      4        6           0.003625833   -0.006897861   -0.001351991
      5        9           0.000027428    0.001967702    0.001502554
      6        9          -0.001138000   -0.000088541    0.000231677
      7        9           0.003897838   -0.001136218   -0.000925328
      8        9           0.000093045   -0.001579821    0.001543391
      9        6          -0.004426646    0.000087376   -0.000194453
     10        8           0.003780219    0.010524134    0.004223704
     11        1          -0.004540155   -0.003426132   -0.002457754
 -------------------------------------------------------------------
 Cartesian Forces:  Max     0.010524134 RMS     0.003080184

 GradGradGradGradGradGradGradGradGradGradGradGradGradGradGradGradGradGrad
 Berny optimization.
 Using GEDIIS/GDIIS optimizer.
 FormGI is forming the generalized inverse of G from B-inverse, IUseBI=4.
 Internal  Forces:  Max     0.009002095 RMS     0.002296460
 Search for a local minimum.
 Step number   8 out of a maximum of   50
 All quantities printed in internal units (Hartrees-Bohrs-Radians)
 Mixed Optimization -- RFO/linear search
 Update second derivatives using D2CorX and points    6    7    8
 DE= -2.11D-03 DEPred=-3.35D-03 R= 6.32D-01
 TightC=F SS=  1.41D+00  RLast= 2.59D-01 DXNew= 1.3449D+00 7.7759D-01
 Trust test= 6.32D-01 RLast= 2.59D-01 DXMaxT set to 8.00D-01
 ITU=  1  1  0  0  1  1  1  0
 Use linear search instead of GDIIS.
     Eigenvalues ---    0.00217   0.00253   0.00353   0.00431   0.10277
     Eigenvalues ---    0.10682   0.10840   0.10993   0.15687   0.24050
     Eigenvalues ---    0.24874   0.24974   0.24993   0.25020   0.26223
     Eigenvalues ---    0.28005   0.28628   0.29627   0.41116   0.52075
     Eigenvalues ---    0.54725   0.54907   0.55035   0.55225   0.55532
     Eigenvalues ---    0.56838   0.65601
 RFO step:  Lambda=-1.93599613D-03 EMin= 2.17280987D-03
 Quartic linear search produced a step of -0.25005.
 Iteration  1 RMS(Cart)=  0.04228389 RMS(Int)=  0.03986506
 Iteration  2 RMS(Cart)=  0.04006469 RMS(Int)=  0.00386760
 Iteration  3 RMS(Cart)=  0.00379381 RMS(Int)=  0.00003275
 Iteration  4 RMS(Cart)=  0.00002351 RMS(Int)=  0.00002929
 Iteration  5 RMS(Cart)=  0.00000000 RMS(Int)=  0.00002929
 Variable       Old X    -DE/DX   Delta X   Delta X   Delta X     New X
                                 (Linear)    (Quad)   (Total)
    R1        2.53065  -0.00154  -0.00465   0.00218  -0.00247   2.52818
    R2        2.52074  -0.00143  -0.00309   0.00047  -0.00262   2.51813
    R3        2.83004  -0.00268  -0.00864  -0.00644  -0.01508   2.81496
    R4        2.53670  -0.00014   0.00097  -0.00077   0.00020   2.53690
    R5        2.81630  -0.00086  -0.00568  -0.00647  -0.01215   2.80414
    R6        2.53649  -0.00532  -0.01818  -0.00173  -0.01991   2.51658
    R7        2.50504   0.00215  -0.00049  -0.00244  -0.00293   2.50210
    R8        2.56648  -0.00403  -0.00440   0.00861   0.00421   2.57068
    R9        2.53745  -0.00184  -0.00254   0.00117  -0.00137   2.53608
   R10        1.82224   0.00245  -0.00067   0.00262   0.00195   1.82419
    A1        1.89350  -0.00030   0.00431  -0.00162   0.00269   1.89619
    A2        1.92920   0.00201   0.00228  -0.00157   0.00070   1.92989
    A3        1.86865   0.00049   0.00166  -0.00202  -0.00037   1.86829
    A4        1.93901  -0.00090  -0.00227   0.00315   0.00092   1.93993
    A5        1.86903   0.00086   0.00016  -0.00025  -0.00002   1.86901
    A6        1.96129  -0.00212  -0.00588   0.00206  -0.00379   1.95750
    A7        2.13748   0.00283   0.00070   0.00546   0.00623   2.14371
    A8        2.03101   0.00031  -0.00078  -0.00700  -0.00772   2.02330
    A9        2.10165  -0.00311  -0.00175   0.00278   0.00110   2.10275
   A10        1.94983   0.00215   0.00106   0.00766   0.00870   1.95853
   A11        1.90217  -0.00214  -0.00465  -0.00790  -0.01252   1.88964
   A12        1.98793  -0.00185  -0.00322   0.00574   0.00249   1.99043
   A13        1.89105  -0.00013   0.00317  -0.00127   0.00192   1.89298
   A14        1.87537   0.00088   0.00248   0.00194   0.00436   1.87973
   A15        1.85294   0.00113   0.00147  -0.00710  -0.00561   1.84733
   A16        1.86722   0.00900   0.04224  -0.00517   0.03707   1.90429
    D1       -0.39353  -0.00001  -0.00516   0.04751   0.04234  -0.35119
    D2        2.57569  -0.00019  -0.01597   0.05582   0.03986   2.61555
    D3       -2.49660  -0.00039  -0.01062   0.04852   0.03787  -2.45873
    D4        0.47262  -0.00056  -0.02142   0.05683   0.03539   0.50801
    D5        1.69290   0.00058  -0.00542   0.04524   0.03984   1.73274
    D6       -1.62107   0.00041  -0.01623   0.05355   0.03736  -1.58371
    D7       -0.68103  -0.00073   0.00020  -0.04904  -0.04887  -0.72991
    D8       -2.77012  -0.00050  -0.00135  -0.04706  -0.04841  -2.81853
    D9        1.44786   0.00071   0.00189  -0.03628  -0.03437   1.41349
   D10        2.63972  -0.00090   0.01131  -0.05676  -0.04548   2.59424
   D11        0.55063  -0.00068   0.00975  -0.05478  -0.04502   0.50561
   D12       -1.51458   0.00054   0.01300  -0.04401  -0.03097  -1.54555
   D13        2.75608   0.00225  -0.00494   0.38164   0.37672   3.13280
   D14       -0.55412   0.00269  -0.01519   0.39008   0.37487  -0.17924
         Item               Value     Threshold  Converged?
 Maximum Force            0.009002     0.000450     NO 
 RMS     Force            0.002296     0.000300     NO 
 Maximum Displacement     0.361042     0.001800     NO 
 RMS     Displacement     0.075431     0.001200     NO 
 Predicted change in Energy=-1.540454D-03
 GradGradGradGradGradGradGradGradGradGradGradGradGradGradGradGradGradGrad

                          Input orientation:                          
 ---------------------------------------------------------------------
 Center     Atomic      Atomic             Coordinates (Angstroms)
 Number     Number       Type             X           Y           Z
 ---------------------------------------------------------------------
      1          6           0        1.188288   -0.717622    0.205731
      2          9           0        1.859611    0.208752   -0.487820
      3          9           0        1.493688   -1.919423   -0.282180
      4          6           0       -0.277981   -0.465038    0.133645
      5          9           0       -0.202186    1.855653    0.355915
      6          9           0        1.647965   -0.675256    1.466337
      7          9           0       -2.145701    0.886457    0.189462
      8          9           0       -0.880204    1.100945   -1.542878
      9          6           0       -0.849917    0.856780   -0.223587
     10          8           0       -1.058486   -1.541671    0.205341
     11          1           0       -1.982356   -1.265966    0.157388
 ---------------------------------------------------------------------
                    Distance matrix (angstroms):
                    1          2          3          4          5
     1  C    0.000000
     2  F    1.337855   0.000000
     3  F    1.332537   2.169174   0.000000
     4  C    1.489610   2.325835   2.329583   0.000000
     5  F    2.928773   2.770410   4.187403   2.332542   0.000000
     6  F    1.342469   2.155224   2.151526   2.351495   3.325898
     7  F    3.699839   4.118315   4.619584   2.306085   2.178141
     8  F    3.262434   3.068508   4.043185   2.371857   2.152837
     9  C    2.611002   2.798446   3.633624   1.483889   1.324056
    10  O    2.393126   3.472714   2.625637   1.331716   3.506812
    11  H    3.218073   4.165548   3.564142   1.883333   3.599016
                    6          7          8          9         10
     6  F    0.000000
     7  F    4.296657   0.000000
     8  F    4.312993   2.156036   0.000000
     9  C    3.382661   1.360348   1.342037   0.000000
    10  O    3.108965   2.660468   3.173558   2.445413   0.000000
    11  H    3.904038   2.158850   3.115752   2.435900   0.965322
                   11
    11  H    0.000000
 Stoichiometry    C3HF6O(2)
 Framework group  C1[X(C3HF6O)]
 Deg. of freedom    27
 Full point group                 C1      NOp   1
 Largest Abelian subgroup         C1      NOp   1
 Largest concise Abelian subgroup C1      NOp   1
                         Standard orientation:                         
 ---------------------------------------------------------------------
 Center     Atomic      Atomic             Coordinates (Angstroms)
 Number     Number       Type             X           Y           Z
 ---------------------------------------------------------------------
      1          6           0       -1.322151   -0.114114   -0.000996
      2          9           0       -1.192852   -1.323980   -0.557200
      3          9           0       -2.188647    0.596017   -0.722489
      4          6           0       -0.001085    0.569610    0.078034
      5          9           0        1.265878   -1.281085    0.718725
      6          9           0       -1.872087   -0.294609    1.210291
      7          9           0        2.262278    0.644877    0.513406
      8          9           0        1.676720   -0.473742   -1.234251
      9          6           0        1.288386   -0.161703    0.011900
     10          8           0       -0.028203    1.899022    0.004579
     11          1           0        0.873115    2.237751    0.073394
 ---------------------------------------------------------------------
 Rotational constants (GHZ):           2.1101893           1.0212009           0.9034194
 Standard basis: 6-311+G(2d) (5D, 7F)
 There are   293 symmetry adapted cartesian basis functions of A   symmetry.
 There are   273 symmetry adapted basis functions of A   symmetry.
   273 basis functions,   425 primitive gaussians,   293 cartesian basis functions
    41 alpha electrons       40 beta electrons
       nuclear repulsion energy       640.9799446798 Hartrees.
 NAtoms=   11 NActive=   11 NUniq=   11 SFac= 1.00D+00 NAtFMM=   60 NAOKFM=F Big=F
 Integral buffers will be    131072 words long.
 Raffenetti 2 integral format.
 Two-electron integral symmetry is turned on.
 Nuclear repulsion after empirical dispersion term =      640.9755828677 Hartrees.
 One-electron integrals computed using PRISM.
 NBasis=   273 RedAO= T EigKep=  5.81D-05  NBF=   273
 NBsUse=   273 1.00D-06 EigRej= -1.00D+00 NBFU=   273
 Initial guess from the checkpoint file:  "hfp_2oh_2rad_prod.chk"
 B after Tr=    -0.000000   -0.000000   -0.000000
         Rot=    0.999991    0.004137    0.000191    0.000001 Ang=   0.47 deg.
 Initial guess <Sx>= 0.0000 <Sy>= 0.0000 <Sz>= 0.5000 <S**2>= 0.7541 S= 0.5020
 ExpMin= 4.38D-02 ExpMax= 1.14D+04 ExpMxC= 1.72D+03 IAcc=2 IRadAn=         4 AccDes= 0.00D+00
 Harris functional with IExCor= 4639 and IRadAn=       4 diagonalized for initial guess.
 HarFok:  IExCor= 4639 AccDes= 0.00D+00 IRadAn=         4 IDoV= 1 UseB2=F ITyADJ=14
 ICtDFT=  3500011 ScaDFX=  1.000000  1.000000  1.000000  1.000000
 FoFCou: FMM=F IPFlag=           0 FMFlag=      100000 FMFlg1=           0
         NFxFlg=           0 DoJE=T BraDBF=F KetDBF=T FulRan=T
         wScrn=  0.000000 ICntrl=       500 IOpCl=  0 I1Cent=   200000004 NGrid=           0
         NMat0=    1 NMatS0=      1 NMatT0=    0 NMatD0=    1 NMtDS0=    0 NMtDT0=    0
 Petite list used in FoFCou.
 Keep R1 and R2 ints in memory in canonical form, NReq=2824723821.
 Requested convergence on RMS density matrix=1.00D-08 within 128 cycles.
 Requested convergence on MAX density matrix=1.00D-06.
 Requested convergence on             energy=1.00D-06.
 No special actions if energy rises.
 SCF Done:  E(UwB97XD) =  -789.187911617     A.U. after   14 cycles
            NFock= 14  Conv=0.37D-08     -V/T= 2.0025
 <Sx>= 0.0000 <Sy>= 0.0000 <Sz>= 0.5000 <S**2>= 0.7540 S= 0.5020
 <L.S>= 0.000000000000E+00
 Annihilation of the first spin contaminant:
 S**2 before annihilation     0.7540,   after     0.7500
 Calling FoFJK, ICntrl=      2127 FMM=F ISym2X=0 I1Cent= 0 IOpClX= 1 NMat=1 NMatS=1 NMatT=0.
 ***** Axes restored to original set *****
 -------------------------------------------------------------------
 Center     Atomic                   Forces (Hartrees/Bohr)
 Number     Number              X              Y              Z
 -------------------------------------------------------------------
      1        6           0.000846140    0.001219938   -0.000091581
      2        9           0.000435851   -0.000765978   -0.000205093
      3        9           0.000286435   -0.000065796   -0.000322462
      4        6           0.003431888   -0.001774380   -0.001464956
      5        9           0.000443281    0.002399069    0.000832189
      6        9           0.000427456   -0.000362054    0.001065081
      7        9           0.003320154    0.000343325   -0.001301107
      8        9           0.000916536   -0.000081376   -0.000329329
      9        6          -0.006828705   -0.000318882    0.001136824
     10        8          -0.002536927    0.000730396   -0.000609433
     11        1          -0.000742110   -0.001324262    0.001289867
 -------------------------------------------------------------------
 Cartesian Forces:  Max     0.006828705 RMS     0.001753874

 GradGradGradGradGradGradGradGradGradGradGradGradGradGradGradGradGradGrad
 Berny optimization.
 Using GEDIIS/GDIIS optimizer.
 FormGI is forming the generalized inverse of G from B-inverse, IUseBI=4.
 Internal  Forces:  Max     0.003549142 RMS     0.001268496
 Search for a local minimum.
 Step number   9 out of a maximum of   50
 All quantities printed in internal units (Hartrees-Bohrs-Radians)
 Mixed Optimization -- RFO/linear search
 Update second derivatives using D2CorX and points    8    9
 DE= -8.69D-04 DEPred=-1.54D-03 R= 5.64D-01
 TightC=F SS=  1.41D+00  RLast= 5.52D-01 DXNew= 1.3449D+00 1.6570D+00
 Trust test= 5.64D-01 RLast= 5.52D-01 DXMaxT set to 1.34D+00
 ITU=  1  1  1  0  0  1  1  1  0
 Use linear search instead of GDIIS.
     Eigenvalues ---    0.00218   0.00254   0.00359   0.00946   0.09959
     Eigenvalues ---    0.10560   0.10796   0.11109   0.13268   0.24077
     Eigenvalues ---    0.24830   0.24906   0.24974   0.25013   0.25709
     Eigenvalues ---    0.26875   0.28678   0.29579   0.41030   0.52045
     Eigenvalues ---    0.53713   0.54894   0.54998   0.55042   0.55443
     Eigenvalues ---    0.56824   0.66705
 RFO step:  Lambda=-5.09327748D-04 EMin= 2.18005335D-03
 Quartic linear search produced a step of -0.22727.
 Iteration  1 RMS(Cart)=  0.05725384 RMS(Int)=  0.00217251
 Iteration  2 RMS(Cart)=  0.00223885 RMS(Int)=  0.00017879
 Iteration  3 RMS(Cart)=  0.00000331 RMS(Int)=  0.00017878
 Iteration  4 RMS(Cart)=  0.00000000 RMS(Int)=  0.00017878
 Variable       Old X    -DE/DX   Delta X   Delta X   Delta X     New X
                                 (Linear)    (Quad)   (Total)
    R1        2.52818  -0.00020   0.00056  -0.00362  -0.00306   2.52512
    R2        2.51813   0.00024   0.00059  -0.00143  -0.00083   2.51729
    R3        2.81496   0.00198   0.00343  -0.00423  -0.00080   2.81415
    R4        2.53690   0.00114  -0.00005   0.00188   0.00183   2.53873
    R5        2.80414   0.00283   0.00276   0.00241   0.00517   2.80932
    R6        2.51658   0.00244   0.00453  -0.00343   0.00110   2.51767
    R7        2.50210   0.00239   0.00067   0.00437   0.00504   2.50714
    R8        2.57068  -0.00355  -0.00096  -0.00924  -0.01019   2.56049
    R9        2.53608   0.00029   0.00031  -0.00159  -0.00128   2.53480
   R10        1.82419   0.00027  -0.00044   0.00069   0.00025   1.82444
    A1        1.89619  -0.00091  -0.00061   0.00039  -0.00022   1.89596
    A2        1.92989   0.00114  -0.00016   0.00159   0.00143   1.93132
    A3        1.86829  -0.00008   0.00008   0.00204   0.00212   1.87041
    A4        1.93993  -0.00010  -0.00021  -0.00088  -0.00108   1.93884
    A5        1.86901  -0.00024   0.00001   0.00140   0.00140   1.87040
    A6        1.95750   0.00012   0.00086  -0.00434  -0.00348   1.95402
    A7        2.14371   0.00115  -0.00142   0.00482   0.00280   2.14651
    A8        2.02330   0.00071   0.00175   0.00832   0.00949   2.03278
    A9        2.10275  -0.00180  -0.00025  -0.00337  -0.00425   2.09850
   A10        1.95853   0.00159  -0.00198   0.00357   0.00158   1.96010
   A11        1.88964   0.00089   0.00285   0.00154   0.00439   1.89403
   A12        1.99043  -0.00144  -0.00057  -0.00944  -0.01000   1.98043
   A13        1.89298  -0.00090  -0.00044   0.00184   0.00139   1.89436
   A14        1.87973  -0.00049  -0.00099  -0.00114  -0.00214   1.87759
   A15        1.84733   0.00027   0.00127   0.00414   0.00543   1.85276
   A16        1.90429   0.00287  -0.00842   0.03701   0.02859   1.93288
    D1       -0.35119  -0.00045  -0.00962   0.02128   0.01153  -0.33967
    D2        2.61555  -0.00027  -0.00906   0.08398   0.07505   2.69060
    D3       -2.45873  -0.00000  -0.00861   0.02030   0.01157  -2.44716
    D4        0.50801   0.00018  -0.00804   0.08300   0.07509   0.58311
    D5        1.73274   0.00030  -0.00905   0.02208   0.01289   1.74562
    D6       -1.58371   0.00048  -0.00849   0.08478   0.07641  -1.50729
    D7       -0.72991   0.00011   0.01111  -0.03957  -0.02857  -0.75848
    D8       -2.81853  -0.00032   0.01100  -0.04506  -0.03418  -2.85271
    D9        1.41349  -0.00039   0.00781  -0.04557  -0.03785   1.37564
   D10        2.59424  -0.00033   0.01034  -0.10621  -0.09576   2.49848
   D11        0.50561  -0.00077   0.01023  -0.11169  -0.10137   0.40424
   D12       -1.54555  -0.00084   0.00704  -0.11220  -0.10504  -1.65059
   D13        3.13280  -0.00127  -0.08562  -0.05185  -0.13746   2.99534
   D14       -0.17924  -0.00078  -0.08520   0.01012  -0.07508  -0.25433
         Item               Value     Threshold  Converged?
 Maximum Force            0.003549     0.000450     NO 
 RMS     Force            0.001268     0.000300     NO 
 Maximum Displacement     0.245119     0.001800     NO 
 RMS     Displacement     0.057143     0.001200     NO 
 Predicted change in Energy=-3.516900D-04
 GradGradGradGradGradGradGradGradGradGradGradGradGradGradGradGradGradGrad

                          Input orientation:                          
 ---------------------------------------------------------------------
 Center     Atomic      Atomic             Coordinates (Angstroms)
 Number     Number       Type             X           Y           Z
 ---------------------------------------------------------------------
      1          6           0        1.190557   -0.719164    0.189677
      2          9           0        1.869359    0.225145   -0.468372
      3          9           0        1.505219   -1.906592   -0.325569
      4          6           0       -0.274952   -0.469079    0.103574
      5          9           0       -0.237270    1.851497    0.388080
      6          9           0        1.628015   -0.709577    1.459862
      7          9           0       -2.158277    0.864552    0.114436
      8          9           0       -0.819537    1.128627   -1.554275
      9          6           0       -0.850786    0.857479   -0.240978
     10          8           0       -1.067097   -1.533532    0.223820
     11          1           0       -1.992509   -1.265746    0.287099
 ---------------------------------------------------------------------
                    Distance matrix (angstroms):
                    1          2          3          4          5
     1  C    0.000000
     2  F    1.336233   0.000000
     3  F    1.332095   2.167324   0.000000
     4  C    1.489185   2.325326   2.328007   0.000000
     5  F    2.947261   2.795785   4.203426   2.338255   0.000000
     6  F    1.343440   2.156394   2.153064   2.349178   3.344712
     7  F    3.705200   4.119510   4.614547   2.307727   2.176973
     8  F    3.239780   3.037372   4.015815   2.365946   2.152747
     9  C    2.615023   2.801918   3.632906   1.486626   1.326721
    10  O    2.400283   3.492112   2.656654   1.332296   3.489128
    11  H    3.231123   4.208031   3.608344   1.902200   3.578864
                    6          7          8          9         10
     6  F    0.000000
     7  F    4.315560   0.000000
     8  F    4.295873   2.155587   0.000000
     9  C    3.390129   1.354955   1.341361   0.000000
    10  O    3.077390   2.636938   3.210918   2.445355   0.000000
    11  H    3.846153   2.143702   3.240300   2.467890   0.965454
                   11
    11  H    0.000000
 Stoichiometry    C3HF6O(2)
 Framework group  C1[X(C3HF6O)]
 Deg. of freedom    27
 Full point group                 C1      NOp   1
 Largest Abelian subgroup         C1      NOp   1
 Largest concise Abelian subgroup C1      NOp   1
                         Standard orientation:                         
 ---------------------------------------------------------------------
 Center     Atomic      Atomic             Coordinates (Angstroms)
 Number     Number       Type             X           Y           Z
 ---------------------------------------------------------------------
      1          6           0       -1.323106   -0.115895   -0.004044
      2          9           0       -1.193603   -1.352953   -0.492342
      3          9           0       -2.184572    0.554849   -0.767231
      4          6           0       -0.002575    0.570800    0.044094
      5          9           0        1.286058   -1.230759    0.793259
      6          9           0       -1.876392   -0.226752    1.215143
      7          9           0        2.269981    0.677111    0.431124
      8          9           0        1.646658   -0.560117   -1.220327
      9          6           0        1.291507   -0.160112    0.009759
     10          8           0       -0.022994    1.901780   -0.011476
     11          1           0        0.855821    2.264591    0.156317
 ---------------------------------------------------------------------
 Rotational constants (GHZ):           2.1058699           1.0211613           0.9031795
 Standard basis: 6-311+G(2d) (5D, 7F)
 There are   293 symmetry adapted cartesian basis functions of A   symmetry.
 There are   273 symmetry adapted basis functions of A   symmetry.
   273 basis functions,   425 primitive gaussians,   293 cartesian basis functions
    41 alpha electrons       40 beta electrons
       nuclear repulsion energy       640.7801743137 Hartrees.
 NAtoms=   11 NActive=   11 NUniq=   11 SFac= 1.00D+00 NAtFMM=   60 NAOKFM=F Big=F
 Integral buffers will be    131072 words long.
 Raffenetti 2 integral format.
 Two-electron integral symmetry is turned on.
 Nuclear repulsion after empirical dispersion term =      640.7758223524 Hartrees.
 One-electron integrals computed using PRISM.
 NBasis=   273 RedAO= T EigKep=  5.68D-05  NBF=   273
 NBsUse=   273 1.00D-06 EigRej= -1.00D+00 NBFU=   273
 Initial guess from the checkpoint file:  "hfp_2oh_2rad_prod.chk"
 B after Tr=     0.000000   -0.000000   -0.000000
         Rot=    0.999757    0.021983   -0.001819    0.000113 Ang=   2.53 deg.
 Initial guess <Sx>= 0.0000 <Sy>= 0.0000 <Sz>= 0.5000 <S**2>= 0.7539 S= 0.5020
 ExpMin= 4.38D-02 ExpMax= 1.14D+04 ExpMxC= 1.72D+03 IAcc=2 IRadAn=         4 AccDes= 0.00D+00
 Harris functional with IExCor= 4639 and IRadAn=       4 diagonalized for initial guess.
 HarFok:  IExCor= 4639 AccDes= 0.00D+00 IRadAn=         4 IDoV= 1 UseB2=F ITyADJ=14
 ICtDFT=  3500011 ScaDFX=  1.000000  1.000000  1.000000  1.000000
 FoFCou: FMM=F IPFlag=           0 FMFlag=      100000 FMFlg1=           0
         NFxFlg=           0 DoJE=T BraDBF=F KetDBF=T FulRan=T
         wScrn=  0.000000 ICntrl=       500 IOpCl=  0 I1Cent=   200000004 NGrid=           0
         NMat0=    1 NMatS0=      1 NMatT0=    0 NMatD0=    1 NMtDS0=    0 NMtDT0=    0
 Petite list used in FoFCou.
 Keep R1 and R2 ints in memory in canonical form, NReq=2824723821.
 Requested convergence on RMS density matrix=1.00D-08 within 128 cycles.
 Requested convergence on MAX density matrix=1.00D-06.
 Requested convergence on             energy=1.00D-06.
 No special actions if energy rises.
 SCF Done:  E(UwB97XD) =  -789.188236313     A.U. after   13 cycles
            NFock= 13  Conv=0.53D-08     -V/T= 2.0025
 <Sx>= 0.0000 <Sy>= 0.0000 <Sz>= 0.5000 <S**2>= 0.7540 S= 0.5020
 <L.S>= 0.000000000000E+00
 Annihilation of the first spin contaminant:
 S**2 before annihilation     0.7540,   after     0.7500
 Calling FoFJK, ICntrl=      2127 FMM=F ISym2X=0 I1Cent= 0 IOpClX= 1 NMat=1 NMatS=1 NMatT=0.
 ***** Axes restored to original set *****
 -------------------------------------------------------------------
 Center     Atomic                   Forces (Hartrees/Bohr)
 Number     Number              X              Y              Z
 -------------------------------------------------------------------
      1        6          -0.001032408    0.000754614    0.000090128
      2        9           0.000136891   -0.000207311   -0.000165601
      3        9           0.000862406   -0.001075308   -0.000212510
      4        6          -0.001416065    0.000290886   -0.000744865
      5        9          -0.000241283    0.002108454    0.000695441
      6        9           0.000671754   -0.000714540    0.000626341
      7        9           0.001478720    0.000870543    0.000205917
      8        9           0.000484838    0.000815990   -0.000374727
      9        6          -0.002731288   -0.001788670   -0.000763345
     10        8           0.000705929   -0.002479437    0.001040811
     11        1           0.001080507    0.001424781   -0.000397590
 -------------------------------------------------------------------
 Cartesian Forces:  Max     0.002731288 RMS     0.001087379

 GradGradGradGradGradGradGradGradGradGradGradGradGradGradGradGradGradGrad
 Berny optimization.
 Using GEDIIS/GDIIS optimizer.
 FormGI is forming the generalized inverse of G from B-inverse, IUseBI=4.
 Internal  Forces:  Max     0.003085358 RMS     0.000992694
 Search for a local minimum.
 Step number  10 out of a maximum of   50
 All quantities printed in internal units (Hartrees-Bohrs-Radians)
 Mixed Optimization -- En-DIIS/RFO-DIIS
 Update second derivatives using D2CorX and points    8    9   10
 DE= -3.25D-04 DEPred=-3.52D-04 R= 9.23D-01
 TightC=F SS=  1.41D+00  RLast= 2.78D-01 DXNew= 2.2619D+00 8.3387D-01
 Trust test= 9.23D-01 RLast= 2.78D-01 DXMaxT set to 1.34D+00
 ITU=  1  1  1  1  0  0  1  1  1  0
 Use linear search instead of GDIIS.
     Eigenvalues ---    0.00155   0.00250   0.00320   0.00997   0.10173
     Eigenvalues ---    0.10688   0.11006   0.11284   0.17231   0.23982
     Eigenvalues ---    0.24667   0.24923   0.24998   0.25167   0.26727
     Eigenvalues ---    0.27454   0.29151   0.31372   0.42024   0.50917
     Eigenvalues ---    0.52136   0.54868   0.55008   0.55056   0.55951
     Eigenvalues ---    0.57046   0.64317
 RFO step:  Lambda=-2.48584753D-04 EMin= 1.54822832D-03
 Quartic linear search produced a step of -0.01224.
 Iteration  1 RMS(Cart)=  0.04722416 RMS(Int)=  0.00102656
 Iteration  2 RMS(Cart)=  0.00099039 RMS(Int)=  0.00013002
 Iteration  3 RMS(Cart)=  0.00000043 RMS(Int)=  0.00013002
 Variable       Old X    -DE/DX   Delta X   Delta X   Delta X     New X
                                 (Linear)    (Quad)   (Total)
    R1        2.52512   0.00000   0.00004  -0.00074  -0.00070   2.52442
    R2        2.51729   0.00125   0.00001   0.00187   0.00188   2.51918
    R3        2.81415   0.00086   0.00001  -0.00185  -0.00184   2.81231
    R4        2.53873   0.00081  -0.00002   0.00030   0.00028   2.53901
    R5        2.80932   0.00224  -0.00006   0.00506   0.00500   2.81431
    R6        2.51767  -0.00016  -0.00001  -0.00163  -0.00164   2.51604
    R7        2.50714   0.00180  -0.00006   0.00347   0.00340   2.51054
    R8        2.56049  -0.00137   0.00012  -0.00385  -0.00373   2.55677
    R9        2.53480   0.00054   0.00002   0.00010   0.00011   2.53492
   R10        1.82444  -0.00067  -0.00000  -0.00074  -0.00074   1.82370
    A1        1.89596  -0.00053   0.00000  -0.00017  -0.00017   1.89579
    A2        1.93132   0.00010  -0.00002  -0.00204  -0.00206   1.92927
    A3        1.87041  -0.00009  -0.00003   0.00344   0.00342   1.87383
    A4        1.93884   0.00068   0.00001   0.00027   0.00029   1.93913
    A5        1.87040  -0.00106  -0.00002  -0.00306  -0.00308   1.86733
    A6        1.95402   0.00080   0.00004   0.00160   0.00164   1.95566
    A7        2.14651   0.00122  -0.00003   0.00591   0.00543   2.15194
    A8        2.03278  -0.00177  -0.00012  -0.00479  -0.00536   2.02742
    A9        2.09850   0.00057   0.00005   0.00437   0.00398   2.10248
   A10        1.96010   0.00152  -0.00002   0.00446   0.00444   1.96454
   A11        1.89403   0.00070  -0.00005   0.00112   0.00107   1.89510
   A12        1.98043   0.00046   0.00012  -0.00098  -0.00085   1.97958
   A13        1.89436  -0.00170  -0.00002  -0.00551  -0.00552   1.88884
   A14        1.87759  -0.00119   0.00003  -0.00401  -0.00398   1.87361
   A15        1.85276   0.00001  -0.00007   0.00466   0.00459   1.85735
   A16        1.93288  -0.00309  -0.00035  -0.00975  -0.01010   1.92278
    D1       -0.33967  -0.00021  -0.00014   0.03754   0.03746  -0.30221
    D2        2.69060  -0.00003  -0.00092   0.09424   0.09326   2.78386
    D3       -2.44716  -0.00007  -0.00014   0.03895   0.03886  -2.40830
    D4        0.58311   0.00012  -0.00092   0.09564   0.09467   0.67778
    D5        1.74562   0.00027  -0.00016   0.04158   0.04147   1.78710
    D6       -1.50729   0.00045  -0.00094   0.09827   0.09728  -1.41001
    D7       -0.75848  -0.00033   0.00035  -0.05197  -0.05153  -0.81001
    D8       -2.85271   0.00037   0.00042  -0.04862  -0.04812  -2.90083
    D9        1.37564  -0.00038   0.00046  -0.05459  -0.05404   1.32159
   D10        2.49848  -0.00038   0.00117  -0.11017  -0.10908   2.38940
   D11        0.40424   0.00032   0.00124  -0.10682  -0.10567   0.29857
   D12       -1.65059  -0.00043   0.00129  -0.11279  -0.11159  -1.76218
   D13        2.99534   0.00009   0.00168   0.00694   0.00870   3.00404
   D14       -0.25433   0.00031   0.00092   0.06210   0.06293  -0.19139
         Item               Value     Threshold  Converged?
 Maximum Force            0.003085     0.000450     NO 
 RMS     Force            0.000993     0.000300     NO 
 Maximum Displacement     0.130092     0.001800     NO 
 RMS     Displacement     0.047126     0.001200     NO 
 Predicted change in Energy=-1.349945D-04
 GradGradGradGradGradGradGradGradGradGradGradGradGradGradGradGradGradGrad

                          Input orientation:                          
 ---------------------------------------------------------------------
 Center     Atomic      Atomic             Coordinates (Angstroms)
 Number     Number       Type             X           Y           Z
 ---------------------------------------------------------------------
      1          6           0        1.191201   -0.723997    0.178436
      2          9           0        1.870223    0.239917   -0.449519
      3          9           0        1.506869   -1.895754   -0.373354
      4          6           0       -0.272848   -0.469965    0.096003
      5          9           0       -0.283973    1.854406    0.409363
      6          9           0        1.626432   -0.758461    1.449109
      7          9           0       -2.172347    0.842420    0.049332
      8          9           0       -0.769949    1.145002   -1.562394
      9          6           0       -0.854174    0.855388   -0.255320
     10          8           0       -1.063394   -1.523086    0.292662
     11          1           0       -1.985319   -1.242261    0.343036
 ---------------------------------------------------------------------
                    Distance matrix (angstroms):
                    1          2          3          4          5
     1  C    0.000000
     2  F    1.335863   0.000000
     3  F    1.333092   2.167699   0.000000
     4  C    1.488209   2.322559   2.328210   0.000000
     5  F    2.979535   2.825741   4.228884   2.345425   0.000000
     6  F    1.343586   2.158930   2.151536   2.349764   3.399675
     7  F    3.712652   4.117552   4.605746   2.309248   2.172486
     8  F    3.220211   3.004693   3.980442   2.367595   2.151105
     9  C    2.620336   2.799795   3.627291   1.489271   1.328522
    10  O    2.394742   3.502159   2.681177   1.331429   3.468223
    11  H    3.222727   4.205972   3.624313   1.894736   3.533883
                    6          7          8          9         10
     6  F    0.000000
     7  F    4.353495   0.000000
     8  F    4.293596   2.157762   0.000000
     9  C    3.415112   1.352983   1.341421   0.000000
    10  O    3.026085   2.623853   3.262826   2.449734   0.000000
    11  H    3.808177   2.113560   3.287371   2.457164   0.965063
                   11
    11  H    0.000000
 Stoichiometry    C3HF6O(2)
 Framework group  C1[X(C3HF6O)]
 Deg. of freedom    27
 Full point group                 C1      NOp   1
 Largest Abelian subgroup         C1      NOp   1
 Largest concise Abelian subgroup C1      NOp   1
                         Standard orientation:                         
 ---------------------------------------------------------------------
 Center     Atomic      Atomic             Coordinates (Angstroms)
 Number     Number       Type             X           Y           Z
 ---------------------------------------------------------------------
      1          6           0       -1.324291   -0.120881   -0.005686
      2          9           0       -1.183645   -1.386463   -0.409481
      3          9           0       -2.173735    0.496130   -0.827194
      4          6           0       -0.005857    0.568976    0.018716
      5          9           0        1.325624   -1.163754    0.870669
      6          9           0       -1.901510   -0.148818    1.207270
      7          9           0        2.276133    0.716390    0.340305
      8          9           0        1.620583   -0.648592   -1.196904
      9          6           0        1.295797   -0.154552    0.007193
     10          8           0       -0.038832    1.899593   -0.014055
     11          1           0        0.845712    2.257959    0.129123
 ---------------------------------------------------------------------
 Rotational constants (GHZ):           2.1068009           1.0179729           0.9010136
 Standard basis: 6-311+G(2d) (5D, 7F)
 There are   293 symmetry adapted cartesian basis functions of A   symmetry.
 There are   273 symmetry adapted basis functions of A   symmetry.
   273 basis functions,   425 primitive gaussians,   293 cartesian basis functions
    41 alpha electrons       40 beta electrons
       nuclear repulsion energy       640.4350909223 Hartrees.
 NAtoms=   11 NActive=   11 NUniq=   11 SFac= 1.00D+00 NAtFMM=   60 NAOKFM=F Big=F
 Integral buffers will be    131072 words long.
 Raffenetti 2 integral format.
 Two-electron integral symmetry is turned on.
 Nuclear repulsion after empirical dispersion term =      640.4307510466 Hartrees.
 One-electron integrals computed using PRISM.
 NBasis=   273 RedAO= T EigKep=  5.60D-05  NBF=   273
 NBsUse=   273 1.00D-06 EigRej= -1.00D+00 NBFU=   273
 Initial guess from the checkpoint file:  "hfp_2oh_2rad_prod.chk"
 B after Tr=    -0.000000    0.000000    0.000000
         Rot=    0.999673    0.025493   -0.000886   -0.002040 Ang=   2.93 deg.
 Initial guess <Sx>= 0.0000 <Sy>= 0.0000 <Sz>= 0.5000 <S**2>= 0.7540 S= 0.5020
 ExpMin= 4.38D-02 ExpMax= 1.14D+04 ExpMxC= 1.72D+03 IAcc=2 IRadAn=         4 AccDes= 0.00D+00
 Harris functional with IExCor= 4639 and IRadAn=       4 diagonalized for initial guess.
 HarFok:  IExCor= 4639 AccDes= 0.00D+00 IRadAn=         4 IDoV= 1 UseB2=F ITyADJ=14
 ICtDFT=  3500011 ScaDFX=  1.000000  1.000000  1.000000  1.000000
 FoFCou: FMM=F IPFlag=           0 FMFlag=      100000 FMFlg1=           0
         NFxFlg=           0 DoJE=T BraDBF=F KetDBF=T FulRan=T
         wScrn=  0.000000 ICntrl=       500 IOpCl=  0 I1Cent=   200000004 NGrid=           0
         NMat0=    1 NMatS0=      1 NMatT0=    0 NMatD0=    1 NMtDS0=    0 NMtDT0=    0
 Petite list used in FoFCou.
 Keep R1 and R2 ints in memory in canonical form, NReq=2824723821.
 Requested convergence on RMS density matrix=1.00D-08 within 128 cycles.
 Requested convergence on MAX density matrix=1.00D-06.
 Requested convergence on             energy=1.00D-06.
 No special actions if energy rises.
 SCF Done:  E(UwB97XD) =  -789.188441001     A.U. after   12 cycles
            NFock= 12  Conv=0.61D-08     -V/T= 2.0025
 <Sx>= 0.0000 <Sy>= 0.0000 <Sz>= 0.5000 <S**2>= 0.7540 S= 0.5020
 <L.S>= 0.000000000000E+00
 Annihilation of the first spin contaminant:
 S**2 before annihilation     0.7540,   after     0.7500
 Calling FoFJK, ICntrl=      2127 FMM=F ISym2X=0 I1Cent= 0 IOpClX= 1 NMat=1 NMatS=1 NMatT=0.
 ***** Axes restored to original set *****
 -------------------------------------------------------------------
 Center     Atomic                   Forces (Hartrees/Bohr)
 Number     Number              X              Y              Z
 -------------------------------------------------------------------
      1        6          -0.000911166    0.001148769    0.000059929
      2        9           0.000035203   -0.000233377    0.000116108
      3        9           0.000898769   -0.001121115   -0.000412146
      4        6          -0.000587585    0.001411252   -0.000786677
      5        9           0.000254702    0.001606945    0.000704579
      6        9           0.000440835   -0.000449560    0.000348356
      7        9           0.000650214    0.000284614    0.000294113
      8        9           0.000318578    0.000321828    0.000420482
      9        6          -0.001182204   -0.001505657   -0.001517257
     10        8          -0.000062741   -0.001880933    0.001061076
     11        1           0.000145395    0.000417235   -0.000288563
 -------------------------------------------------------------------
 Cartesian Forces:  Max     0.001880933 RMS     0.000834110

 GradGradGradGradGradGradGradGradGradGradGradGradGradGradGradGradGradGrad
 Berny optimization.
 Using GEDIIS/GDIIS optimizer.
 FormGI is forming the generalized inverse of G from B-inverse, IUseBI=4.
 Internal  Forces:  Max     0.001672163 RMS     0.000583819
 Search for a local minimum.
 Step number  11 out of a maximum of   50
 All quantities printed in internal units (Hartrees-Bohrs-Radians)
 Mixed Optimization -- En-DIIS/RFO-DIIS
 Swapping is turned off.
 Update second derivatives using D2CorX and points    9   10   11
 DE= -2.05D-04 DEPred=-1.35D-04 R= 1.52D+00
 TightC=F SS=  1.41D+00  RLast= 2.82D-01 DXNew= 2.2619D+00 8.4616D-01
 Trust test= 1.52D+00 RLast= 2.82D-01 DXMaxT set to 1.34D+00
 ITU=  1  1  1  1  1  0  0  1  1  1  0
     Eigenvalues ---    0.00049   0.00267   0.00323   0.01085   0.10066
     Eigenvalues ---    0.10743   0.10939   0.11247   0.17195   0.23539
     Eigenvalues ---    0.24710   0.24957   0.25074   0.25815   0.26720
     Eigenvalues ---    0.27440   0.29668   0.30070   0.45447   0.47962
     Eigenvalues ---    0.52099   0.54844   0.55029   0.55561   0.56261
     Eigenvalues ---    0.58010   0.63483
 En-DIIS/RFO-DIIS/Sim-DIIS IScMMF=       -3 using points:    11   10
 RFO step:  Lambda=-3.78003237D-04.
 DidBck=F Rises=F RFO-DIIS coefs:    3.00000   -2.00000
 Iteration  1 RMS(Cart)=  0.10220534 RMS(Int)=  0.04419679
 Iteration  2 RMS(Cart)=  0.04364516 RMS(Int)=  0.00201359
 Iteration  3 RMS(Cart)=  0.00146927 RMS(Int)=  0.00168231
 Iteration  4 RMS(Cart)=  0.00000100 RMS(Int)=  0.00168231
 Iteration  5 RMS(Cart)=  0.00000000 RMS(Int)=  0.00168231
 Variable       Old X    -DE/DX   Delta X   Delta X   Delta X     New X
                                 (Linear)    (Quad)   (Total)
    R1        2.52442  -0.00021  -0.00140  -0.00173  -0.00313   2.52129
    R2        2.51918   0.00137   0.00377   0.00418   0.00795   2.52713
    R3        2.81231   0.00057  -0.00369   0.00326  -0.00043   2.81188
    R4        2.53901   0.00048   0.00055   0.00340   0.00395   2.54296
    R5        2.81431   0.00064   0.01000   0.00141   0.01140   2.82572
    R6        2.51604   0.00122  -0.00328   0.00548   0.00220   2.51823
    R7        2.51054   0.00167   0.00681   0.00628   0.01309   2.52363
    R8        2.55677  -0.00057  -0.00745  -0.00142  -0.00888   2.54789
    R9        2.53492  -0.00032   0.00023  -0.00171  -0.00148   2.53344
   R10        1.82370  -0.00003  -0.00148   0.00116  -0.00032   1.82339
    A1        1.89579  -0.00047  -0.00034  -0.00472  -0.00506   1.89073
    A2        1.92927   0.00007  -0.00411   0.00359  -0.00054   1.92873
    A3        1.87383  -0.00018   0.00684  -0.00173   0.00510   1.87893
    A4        1.93913   0.00083   0.00058   0.00695   0.00752   1.94665
    A5        1.86733  -0.00078  -0.00615  -0.00620  -0.01235   1.85498
    A6        1.95566   0.00044   0.00328   0.00134   0.00462   1.96028
    A7        2.15194   0.00016   0.01085   0.00148   0.00640   2.15834
    A8        2.02742  -0.00092  -0.01072  -0.00252  -0.01897   2.00845
    A9        2.10248   0.00076   0.00796   0.00465   0.00657   2.10905
   A10        1.96454   0.00070   0.00887   0.00570   0.01459   1.97913
   A11        1.89510   0.00005   0.00214  -0.00152   0.00061   1.89572
   A12        1.97958   0.00028  -0.00171   0.00072  -0.00098   1.97859
   A13        1.88884  -0.00070  -0.01105  -0.00354  -0.01458   1.87426
   A14        1.87361  -0.00063  -0.00795  -0.00437  -0.01232   1.86129
   A15        1.85735   0.00022   0.00917   0.00266   0.01182   1.86917
   A16        1.92278  -0.00087  -0.02019   0.02107   0.00087   1.92366
    D1       -0.30221   0.00002   0.07492   0.07817   0.15385  -0.14836
    D2        2.78386   0.00016   0.18652   0.15296   0.33871   3.12257
    D3       -2.40830   0.00002   0.07773   0.07709   0.15559  -2.25271
    D4        0.67778   0.00016   0.18934   0.15188   0.34045   1.01823
    D5        1.78710   0.00014   0.08295   0.07931   0.16303   1.95013
    D6       -1.41001   0.00028   0.19456   0.15410   0.34789  -1.06212
    D7       -0.81001  -0.00011  -0.10307   0.00941  -0.09288  -0.90289
    D8       -2.90083   0.00029  -0.09624   0.01130  -0.08416  -2.98499
    D9        1.32159  -0.00020  -0.10808   0.00855  -0.09877   1.22282
   D10        2.38940  -0.00021  -0.21816  -0.06825  -0.28718   2.10221
   D11        0.29857   0.00019  -0.21133  -0.06636  -0.27846   0.02012
   D12       -1.76218  -0.00029  -0.22318  -0.06911  -0.29307  -2.05525
   D13        3.00404   0.00013   0.01740  -0.00631   0.01194   3.01598
   D14       -0.19139   0.00025   0.12587   0.06611   0.19113  -0.00026
         Item               Value     Threshold  Converged?
 Maximum Force            0.001672     0.000450     NO 
 RMS     Force            0.000584     0.000300     NO 
 Maximum Displacement     0.385285     0.001800     NO 
 RMS     Displacement     0.140818     0.001200     NO 
 Predicted change in Energy=-2.901731D-04
 GradGradGradGradGradGradGradGradGradGradGradGradGradGradGradGradGradGrad

                          Input orientation:                          
 ---------------------------------------------------------------------
 Center     Atomic      Atomic             Coordinates (Angstroms)
 Number     Number       Type             X           Y           Z
 ---------------------------------------------------------------------
      1          6           0        1.188838   -0.735711    0.152432
      2          9           0        1.875972    0.304551   -0.322767
      3          9           0        1.537859   -1.823351   -0.542973
      4          6           0       -0.274038   -0.477849    0.065267
      5          9           0       -0.381572    1.862005    0.409853
      6          9           0        1.595449   -0.949985    1.417184
      7          9           0       -2.193233    0.798479   -0.104140
      8          9           0       -0.673097    1.163937   -1.598643
      9          6           0       -0.861602    0.844916   -0.310232
     10          8           0       -1.049454   -1.472097    0.496546
     11          1           0       -1.972401   -1.191284    0.514827
 ---------------------------------------------------------------------
                    Distance matrix (angstroms):
                    1          2          3          4          5
     1  C    0.000000
     2  F    1.334209   0.000000
     3  F    1.337297   2.165820   0.000000
     4  C    1.487984   2.320617   2.337371   0.000000
     5  F    3.046405   2.838820   4.263091   2.367535   0.000000
     6  F    1.345676   2.163327   2.146695   2.354904   3.581985
     7  F    3.722629   4.104898   4.581224   2.311065   2.162728
     8  F    3.184608   2.977273   3.863504   2.371351   2.146239
     9  C    2.629970   2.790423   3.596002   1.495306   1.335447
    10  O    2.381308   3.519356   2.810368   1.332592   3.401444
    11  H    3.214391   4.212964   3.720266   1.896188   3.444464
                    6          7          8          9         10
     6  F    0.000000
     7  F    4.441358   0.000000
     8  F    4.325527   2.162848   0.000000
     9  C    3.498962   1.348285   1.340639   0.000000
    10  O    2.848805   2.612388   3.388235   2.460636   0.000000
    11  H    3.688093   2.095481   3.420821   2.461851   0.964895
                   11
    11  H    0.000000
 Stoichiometry    C3HF6O(2)
 Framework group  C1[X(C3HF6O)]
 Deg. of freedom    27
 Full point group                 C1      NOp   1
 Largest Abelian subgroup         C1      NOp   1
 Largest concise Abelian subgroup C1      NOp   1
                         Standard orientation:                         
 ---------------------------------------------------------------------
 Center     Atomic      Atomic             Coordinates (Angstroms)
 Number     Number       Type             X           Y           Z
 ---------------------------------------------------------------------
      1          6           0       -1.324395   -0.131035   -0.011024
      2          9           0       -1.156838   -1.452702   -0.083356
      3          9           0       -2.124049    0.247056   -1.014002
      4          6           0       -0.010431    0.564915   -0.068017
      5          9           0        1.410044   -0.977055    1.031892
      6          9           0       -1.994027    0.133847    1.125759
      7          9           0        2.283277    0.777829    0.117978
      8          9           0        1.576280   -0.860192   -1.104706
      9          6           0        1.305544   -0.142343   -0.005294
     10          8           0       -0.073675    1.895323   -0.025390
     11          1           0        0.812909    2.269147    0.047039
 ---------------------------------------------------------------------
 Rotational constants (GHZ):           2.1095232           1.0098297           0.8944047
 Standard basis: 6-311+G(2d) (5D, 7F)
 There are   293 symmetry adapted cartesian basis functions of A   symmetry.
 There are   273 symmetry adapted basis functions of A   symmetry.
   273 basis functions,   425 primitive gaussians,   293 cartesian basis functions
    41 alpha electrons       40 beta electrons
       nuclear repulsion energy       639.3337529379 Hartrees.
 NAtoms=   11 NActive=   11 NUniq=   11 SFac= 1.00D+00 NAtFMM=   60 NAOKFM=F Big=F
 Integral buffers will be    131072 words long.
 Raffenetti 2 integral format.
 Two-electron integral symmetry is turned on.
 Nuclear repulsion after empirical dispersion term =      639.3294430399 Hartrees.
 One-electron integrals computed using PRISM.
 NBasis=   273 RedAO= T EigKep=  5.70D-05  NBF=   273
 NBsUse=   273 1.00D-06 EigRej= -1.00D+00 NBFU=   273
 Initial guess from the checkpoint file:  "hfp_2oh_2rad_prod.chk"
 B after Tr=    -0.000000   -0.000000    0.000000
         Rot=    0.996956    0.077821    0.001042   -0.004644 Ang=   8.94 deg.
 Initial guess <Sx>= 0.0000 <Sy>= 0.0000 <Sz>= 0.5000 <S**2>= 0.7541 S= 0.5020
 ExpMin= 4.38D-02 ExpMax= 1.14D+04 ExpMxC= 1.72D+03 IAcc=2 IRadAn=         4 AccDes= 0.00D+00
 Harris functional with IExCor= 4639 and IRadAn=       4 diagonalized for initial guess.
 HarFok:  IExCor= 4639 AccDes= 0.00D+00 IRadAn=         4 IDoV= 1 UseB2=F ITyADJ=14
 ICtDFT=  3500011 ScaDFX=  1.000000  1.000000  1.000000  1.000000
 FoFCou: FMM=F IPFlag=           0 FMFlag=      100000 FMFlg1=           0
         NFxFlg=           0 DoJE=T BraDBF=F KetDBF=T FulRan=T
         wScrn=  0.000000 ICntrl=       500 IOpCl=  0 I1Cent=   200000004 NGrid=           0
         NMat0=    1 NMatS0=      1 NMatT0=    0 NMatD0=    1 NMtDS0=    0 NMtDT0=    0
 Petite list used in FoFCou.
 Keep R1 and R2 ints in memory in canonical form, NReq=2824723821.
 Requested convergence on RMS density matrix=1.00D-08 within 128 cycles.
 Requested convergence on MAX density matrix=1.00D-06.
 Requested convergence on             energy=1.00D-06.
 No special actions if energy rises.
 SCF Done:  E(UwB97XD) =  -789.188582993     A.U. after   14 cycles
            NFock= 14  Conv=0.71D-08     -V/T= 2.0026
 <Sx>= 0.0000 <Sy>= 0.0000 <Sz>= 0.5000 <S**2>= 0.7540 S= 0.5020
 <L.S>= 0.000000000000E+00
 Annihilation of the first spin contaminant:
 S**2 before annihilation     0.7540,   after     0.7500
 Calling FoFJK, ICntrl=      2127 FMM=F ISym2X=0 I1Cent= 0 IOpClX= 1 NMat=1 NMatS=1 NMatT=0.
 ***** Axes restored to original set *****
 -------------------------------------------------------------------
 Center     Atomic                   Forces (Hartrees/Bohr)
 Number     Number              X              Y              Z
 -------------------------------------------------------------------
      1        6           0.002761170    0.000423459    0.001971363
      2        9          -0.000671592   -0.000183048   -0.000755934
      3        9          -0.000258317   -0.000690698   -0.001117651
      4        6          -0.000347732    0.001845281    0.000681570
      5        9           0.000461963   -0.000955377    0.000983749
      6        9          -0.002383180    0.000952794   -0.001736522
      7        9          -0.001279225   -0.001101812    0.000172204
      8        9           0.000262071   -0.002183370    0.002276510
      9        6           0.001699661    0.001705320   -0.002167284
     10        8          -0.000079226    0.000050955    0.000255722
     11        1          -0.000165593    0.000136496   -0.000563728
 -------------------------------------------------------------------
 Cartesian Forces:  Max     0.002761170 RMS     0.001279872

 GradGradGradGradGradGradGradGradGradGradGradGradGradGradGradGradGradGrad
 Berny optimization.
 Using GEDIIS/GDIIS optimizer.
 FormGI is forming the generalized inverse of G from B-inverse, IUseBI=4.
 Internal  Forces:  Max     0.003010176 RMS     0.001235167
 Search for a local minimum.
 Step number  12 out of a maximum of   50
 All quantities printed in internal units (Hartrees-Bohrs-Radians)
 Mixed Optimization -- RFO/linear search
 Update second derivatives using D2CorX and points   11   12
 DE= -1.42D-04 DEPred=-2.90D-04 R= 4.89D-01
 Trust test= 4.89D-01 RLast= 8.58D-01 DXMaxT set to 1.34D+00
 ITU=  0  1  1  1  1  1  0  0  1  1  1  0
 Use linear search instead of GDIIS.
     Eigenvalues ---    0.00049   0.00314   0.00513   0.01086   0.10111
     Eigenvalues ---    0.10686   0.10886   0.11260   0.17167   0.23171
     Eigenvalues ---    0.24793   0.24945   0.25047   0.25801   0.26863
     Eigenvalues ---    0.27682   0.29841   0.32331   0.45749   0.47917
     Eigenvalues ---    0.52386   0.54904   0.55023   0.55539   0.56114
     Eigenvalues ---    0.58047   0.67901
 RFO step:  Lambda=-2.79800726D-04 EMin= 4.85041680D-04
 Quartic linear search produced a step of -0.30969.
 Iteration  1 RMS(Cart)=  0.05769069 RMS(Int)=  0.00181380
 Iteration  2 RMS(Cart)=  0.00188145 RMS(Int)=  0.00043243
 Iteration  3 RMS(Cart)=  0.00000162 RMS(Int)=  0.00043243
 Iteration  4 RMS(Cart)=  0.00000000 RMS(Int)=  0.00043243
 Variable       Old X    -DE/DX   Delta X   Delta X   Delta X     New X
                                 (Linear)    (Quad)   (Total)
    R1        2.52129  -0.00022   0.00097  -0.00149  -0.00053   2.52076
    R2        2.52713   0.00108  -0.00246   0.00535   0.00289   2.53001
    R3        2.81188  -0.00073   0.00013  -0.00468  -0.00455   2.80733
    R4        2.54296  -0.00251  -0.00122  -0.00442  -0.00565   2.53731
    R5        2.82572  -0.00301  -0.00353  -0.00571  -0.00924   2.81648
    R6        2.51823  -0.00010  -0.00068   0.00423   0.00355   2.52178
    R7        2.52363  -0.00003  -0.00405   0.00496   0.00090   2.52453
    R8        2.54789   0.00133   0.00275  -0.00232   0.00043   2.54832
    R9        2.53344  -0.00267   0.00046  -0.00531  -0.00485   2.52859
   R10        1.82339   0.00019   0.00010   0.00036   0.00046   1.82385
    A1        1.89073   0.00028   0.00157  -0.00029   0.00127   1.89200
    A2        1.92873  -0.00052   0.00017  -0.00616  -0.00600   1.92273
    A3        1.87893   0.00171  -0.00158   0.00661   0.00502   1.88395
    A4        1.94665  -0.00046  -0.00233   0.00264   0.00031   1.94697
    A5        1.85498   0.00188   0.00383   0.00086   0.00468   1.85966
    A6        1.96028  -0.00265  -0.00143  -0.00316  -0.00460   1.95569
    A7        2.15834  -0.00071  -0.00198  -0.00271  -0.00316   2.15518
    A8        2.00845   0.00113   0.00588  -0.00692   0.00044   2.00888
    A9        2.10905  -0.00039  -0.00203   0.00459   0.00411   2.11316
   A10        1.97913  -0.00143  -0.00452  -0.00013  -0.00466   1.97447
   A11        1.89572  -0.00101  -0.00019  -0.00283  -0.00302   1.89269
   A12        1.97859  -0.00226   0.00030  -0.00619  -0.00590   1.97270
   A13        1.87426   0.00142   0.00452  -0.00085   0.00366   1.87792
   A14        1.86129   0.00228   0.00381   0.00082   0.00462   1.86591
   A15        1.86917   0.00137  -0.00366   0.01010   0.00644   1.87561
   A16        1.92366  -0.00049  -0.00027  -0.01587  -0.01615   1.90751
    D1       -0.14836  -0.00028  -0.04765   0.03120  -0.01665  -0.16501
    D2        3.12257  -0.00045  -0.10490   0.07497  -0.02973   3.09284
    D3       -2.25271   0.00002  -0.04819   0.03399  -0.01440  -2.26711
    D4        1.01823  -0.00015  -0.10544   0.07776  -0.02748   0.99075
    D5        1.95013  -0.00025  -0.05049   0.03322  -0.01747   1.93267
    D6       -1.06212  -0.00042  -0.10774   0.07699  -0.03055  -1.09267
    D7       -0.90289  -0.00037   0.02877  -0.13101  -0.10244  -1.00534
    D8       -2.98499  -0.00056   0.02606  -0.12792  -0.10206  -3.08705
    D9        1.22282  -0.00019   0.03059  -0.13482  -0.10442   1.11841
   D10        2.10221  -0.00009   0.08894  -0.17805  -0.08891   2.01330
   D11        0.02012  -0.00028   0.08624  -0.17496  -0.08853  -0.06841
   D12       -2.05525   0.00009   0.09076  -0.18185  -0.09089  -2.14614
   D13        3.01598   0.00050  -0.00370   0.06647   0.06259   3.07856
   D14       -0.00026   0.00036  -0.05919   0.10945   0.05043   0.05017
         Item               Value     Threshold  Converged?
 Maximum Force            0.003010     0.000450     NO 
 RMS     Force            0.001235     0.000300     NO 
 Maximum Displacement     0.164935     0.001800     NO 
 RMS     Displacement     0.057705     0.001200     NO 
 Predicted change in Energy=-1.988454D-04
 GradGradGradGradGradGradGradGradGradGradGradGradGradGradGradGradGradGrad

                          Input orientation:                          
 ---------------------------------------------------------------------
 Center     Atomic      Atomic             Coordinates (Angstroms)
 Number     Number       Type             X           Y           Z
 ---------------------------------------------------------------------
      1          6           0        1.185352   -0.737353    0.137474
      2          9           0        1.858080    0.285337   -0.392540
      3          9           0        1.509029   -1.849533   -0.533900
      4          6           0       -0.275433   -0.472632    0.082981
      5          9           0       -0.441820    1.848300    0.477709
      6          9           0        1.619737   -0.910304    1.396127
      7          9           0       -2.199809    0.767721   -0.181271
      8          9           0       -0.585817    1.191131   -1.562474
      9          6           0       -0.858662    0.844615   -0.299180
     10          8           0       -1.047382   -1.462218    0.536441
     11          1           0       -1.970554   -1.181452    0.515985
 ---------------------------------------------------------------------
                    Distance matrix (angstroms):
                    1          2          3          4          5
     1  C    0.000000
     2  F    1.333931   0.000000
     3  F    1.338825   2.167830   0.000000
     4  C    1.485578   2.313550   2.336814   0.000000
     5  F    3.073932   2.913714   4.301527   2.360132   0.000000
     6  F    1.342688   2.164646   2.149282   2.346823   3.564184
     7  F    3.718355   4.091917   4.553003   2.304675   2.166202
     8  F    3.121845   2.856894   3.833012   2.360502   2.148245
     9  C    2.621314   2.775283   3.594369   1.490417   1.335925
    10  O    2.381115   3.515489   2.798371   1.334471   3.365960
    11  H    3.209398   4.199442   3.695414   1.887684   3.393801
                    6          7          8          9         10
     6  F    0.000000
     7  F    4.460144   0.000000
     8  F    4.246624   2.166095   0.000000
     9  C    3.477969   1.348514   1.338070   0.000000
    10  O    2.856080   2.610714   3.414491   2.460764   0.000000
    11  H    3.706529   2.082786   3.444799   2.450662   0.965139
                   11
    11  H    0.000000
 Stoichiometry    C3HF6O(2)
 Framework group  C1[X(C3HF6O)]
 Deg. of freedom    27
 Full point group                 C1      NOp   1
 Largest Abelian subgroup         C1      NOp   1
 Largest concise Abelian subgroup C1      NOp   1
                         Standard orientation:                         
 ---------------------------------------------------------------------
 Center     Atomic      Atomic             Coordinates (Angstroms)
 Number     Number       Type             X           Y           Z
 ---------------------------------------------------------------------
      1          6           0       -1.319992   -0.130469   -0.008646
      2          9           0       -1.145592   -1.448345   -0.118916
      3          9           0       -2.128086    0.273112   -0.996856
      4          6           0       -0.008446    0.565518   -0.057533
      5          9           0        1.446940   -0.895336    1.090499
      6          9           0       -1.973450    0.105591    1.140301
      7          9           0        2.285710    0.777825   -0.000110
      8          9           0        1.505750   -0.944948   -1.056368
      9          6           0        1.301284   -0.143791   -0.004335
     10          8           0       -0.072562    1.897731   -0.013844
     11          1           0        0.821965    2.259513    0.006885
 ---------------------------------------------------------------------
 Rotational constants (GHZ):           2.1077822           1.0173462           0.9006071
 Standard basis: 6-311+G(2d) (5D, 7F)
 There are   293 symmetry adapted cartesian basis functions of A   symmetry.
 There are   273 symmetry adapted basis functions of A   symmetry.
   273 basis functions,   425 primitive gaussians,   293 cartesian basis functions
    41 alpha electrons       40 beta electrons
       nuclear repulsion energy       640.3726439094 Hartrees.
 NAtoms=   11 NActive=   11 NUniq=   11 SFac= 1.00D+00 NAtFMM=   60 NAOKFM=F Big=F
 Integral buffers will be    131072 words long.
 Raffenetti 2 integral format.
 Two-electron integral symmetry is turned on.
 Nuclear repulsion after empirical dispersion term =      640.3683282203 Hartrees.
 One-electron integrals computed using PRISM.
 NBasis=   273 RedAO= T EigKep=  5.63D-05  NBF=   273
 NBsUse=   273 1.00D-06 EigRej= -1.00D+00 NBFU=   273
 Initial guess from the checkpoint file:  "hfp_2oh_2rad_prod.chk"
 B after Tr=     0.000000   -0.000000    0.000000
         Rot=    0.999944    0.009138   -0.005368    0.000695 Ang=   1.22 deg.
 Initial guess <Sx>= 0.0000 <Sy>= 0.0000 <Sz>= 0.5000 <S**2>= 0.7540 S= 0.5020
 ExpMin= 4.38D-02 ExpMax= 1.14D+04 ExpMxC= 1.72D+03 IAcc=2 IRadAn=         4 AccDes= 0.00D+00
 Harris functional with IExCor= 4639 and IRadAn=       4 diagonalized for initial guess.
 HarFok:  IExCor= 4639 AccDes= 0.00D+00 IRadAn=         4 IDoV= 1 UseB2=F ITyADJ=14
 ICtDFT=  3500011 ScaDFX=  1.000000  1.000000  1.000000  1.000000
 FoFCou: FMM=F IPFlag=           0 FMFlag=      100000 FMFlg1=           0
         NFxFlg=           0 DoJE=T BraDBF=F KetDBF=T FulRan=T
         wScrn=  0.000000 ICntrl=       500 IOpCl=  0 I1Cent=   200000004 NGrid=           0
         NMat0=    1 NMatS0=      1 NMatT0=    0 NMatD0=    1 NMtDS0=    0 NMtDT0=    0
 Petite list used in FoFCou.
 Keep R1 and R2 ints in memory in canonical form, NReq=2824723821.
 Requested convergence on RMS density matrix=1.00D-08 within 128 cycles.
 Requested convergence on MAX density matrix=1.00D-06.
 Requested convergence on             energy=1.00D-06.
 No special actions if energy rises.
 SCF Done:  E(UwB97XD) =  -789.188746054     A.U. after   12 cycles
            NFock= 12  Conv=0.95D-08     -V/T= 2.0026
 <Sx>= 0.0000 <Sy>= 0.0000 <Sz>= 0.5000 <S**2>= 0.7540 S= 0.5020
 <L.S>= 0.000000000000E+00
 Annihilation of the first spin contaminant:
 S**2 before annihilation     0.7540,   after     0.7500
 Calling FoFJK, ICntrl=      2127 FMM=F ISym2X=0 I1Cent= 0 IOpClX= 1 NMat=1 NMatS=1 NMatT=0.
 ***** Axes restored to original set *****
 -------------------------------------------------------------------
 Center     Atomic                   Forces (Hartrees/Bohr)
 Number     Number              X              Y              Z
 -------------------------------------------------------------------
      1        6           0.001069231    0.000283705    0.000157698
      2        9           0.000946507   -0.000162519   -0.000010906
      3        9          -0.000096487    0.000372204   -0.000043614
      4        6          -0.000114168   -0.002729542    0.000132753
      5        9          -0.000422954    0.000708190    0.000689836
      6        9          -0.000296011    0.000274117   -0.000396707
      7        9          -0.001201629    0.000512566    0.000282718
      8        9          -0.000743371   -0.000725782    0.001754941
      9        6           0.001843372   -0.000074803   -0.002305914
     10        8          -0.000360837    0.002686822   -0.000450147
     11        1          -0.000623651   -0.001144957    0.000189342
 -------------------------------------------------------------------
 Cartesian Forces:  Max     0.002729542 RMS     0.001033271

 GradGradGradGradGradGradGradGradGradGradGradGradGradGradGradGradGradGrad
 Berny optimization.
 Using GEDIIS/GDIIS optimizer.
 FormGI is forming the generalized inverse of G from B-inverse, IUseBI=4.
 Internal  Forces:  Max     0.002292758 RMS     0.000754138
 Search for a local minimum.
 Step number  13 out of a maximum of   50
 All quantities printed in internal units (Hartrees-Bohrs-Radians)
 Mixed Optimization -- En-DIIS/RFO-DIIS
 Update second derivatives using D2CorX and points   12   13
 DE= -1.63D-04 DEPred=-1.99D-04 R= 8.20D-01
 TightC=F SS=  1.41D+00  RLast= 2.58D-01 DXNew= 2.2619D+00 7.7281D-01
 Trust test= 8.20D-01 RLast= 2.58D-01 DXMaxT set to 1.34D+00
 ITU=  1  0  1  1  1  1  1  0  0  1  1  1  0
 Use linear search instead of GDIIS.
     Eigenvalues ---    0.00050   0.00314   0.00624   0.01047   0.10148
     Eigenvalues ---    0.10733   0.11007   0.11501   0.18447   0.23571
     Eigenvalues ---    0.24520   0.24936   0.25409   0.25906   0.26385
     Eigenvalues ---    0.27455   0.29503   0.30233   0.46311   0.48076
     Eigenvalues ---    0.51694   0.54720   0.55017   0.55324   0.56079
     Eigenvalues ---    0.57233   0.70389
 RFO step:  Lambda=-7.90022760D-05 EMin= 4.96584377D-04
 Quartic linear search produced a step of -0.14481.
 Iteration  1 RMS(Cart)=  0.00884503 RMS(Int)=  0.00012266
 Iteration  2 RMS(Cart)=  0.00013890 RMS(Int)=  0.00004472
 Iteration  3 RMS(Cart)=  0.00000004 RMS(Int)=  0.00004472
 Variable       Old X    -DE/DX   Delta X   Delta X   Delta X     New X
                                 (Linear)    (Quad)   (Total)
    R1        2.52076   0.00036   0.00008  -0.00007   0.00001   2.52077
    R2        2.53001  -0.00031  -0.00042   0.00030  -0.00011   2.52990
    R3        2.80733   0.00145   0.00066   0.00151   0.00217   2.80951
    R4        2.53731  -0.00050   0.00082  -0.00221  -0.00139   2.53592
    R5        2.81648   0.00047   0.00134  -0.00191  -0.00057   2.81591
    R6        2.52178  -0.00066  -0.00051  -0.00295  -0.00346   2.51832
    R7        2.52453   0.00080  -0.00013   0.00119   0.00106   2.52559
    R8        2.54832   0.00119  -0.00006   0.00223   0.00217   2.55049
    R9        2.52859  -0.00200   0.00070  -0.00445  -0.00375   2.52484
   R10        1.82385   0.00026  -0.00007  -0.00018  -0.00024   1.82360
    A1        1.89200  -0.00063  -0.00018  -0.00079  -0.00097   1.89103
    A2        1.92273   0.00164   0.00087   0.00258   0.00345   1.92618
    A3        1.88395  -0.00051  -0.00073   0.00087   0.00014   1.88410
    A4        1.94697  -0.00031  -0.00005  -0.00096  -0.00101   1.94596
    A5        1.85966   0.00030  -0.00068   0.00256   0.00188   1.86154
    A6        1.95569  -0.00056   0.00067  -0.00416  -0.00349   1.95220
    A7        2.15518   0.00006   0.00046  -0.00220  -0.00190   2.15328
    A8        2.00888   0.00098  -0.00006   0.00165   0.00143   2.01031
    A9        2.11316  -0.00105  -0.00060  -0.00265  -0.00339   2.10976
   A10        1.97447   0.00048   0.00068   0.00011   0.00079   1.97525
   A11        1.89269   0.00060   0.00044   0.00078   0.00122   1.89391
   A12        1.97270  -0.00010   0.00085  -0.00207  -0.00121   1.97148
   A13        1.87792  -0.00093  -0.00053  -0.00308  -0.00361   1.87431
   A14        1.86591   0.00021  -0.00067   0.00328   0.00261   1.86852
   A15        1.87561  -0.00034  -0.00093   0.00093  -0.00000   1.87560
   A16        1.90751   0.00229   0.00234   0.00587   0.00821   1.91572
    D1       -0.16501  -0.00011   0.00241  -0.01724  -0.01484  -0.17986
    D2        3.09284   0.00011   0.00431   0.01391   0.01823   3.11107
    D3       -2.26711  -0.00022   0.00209  -0.01735  -0.01528  -2.28239
    D4        0.99075   0.00000   0.00398   0.01379   0.01779   1.00854
    D5        1.93267  -0.00001   0.00253  -0.01713  -0.01462   1.91805
    D6       -1.09267   0.00021   0.00442   0.01402   0.01845  -1.07421
    D7       -1.00534  -0.00024   0.01483   0.00225   0.01706  -0.98827
    D8       -3.08705   0.00023   0.01478   0.00552   0.02027  -3.06678
    D9        1.11841   0.00032   0.01512   0.00512   0.02021   1.13862
   D10        2.01330  -0.00033   0.01288  -0.03041  -0.01751   1.99579
   D11       -0.06841   0.00014   0.01282  -0.02715  -0.01430  -0.08272
   D12       -2.14614   0.00022   0.01316  -0.02755  -0.01436  -2.16051
   D13        3.07856   0.00018  -0.00906   0.02028   0.01121   3.08977
   D14        0.05017   0.00031  -0.00730   0.05058   0.04328   0.09346
         Item               Value     Threshold  Converged?
 Maximum Force            0.002293     0.000450     NO 
 RMS     Force            0.000754     0.000300     NO 
 Maximum Displacement     0.020988     0.001800     NO 
 RMS     Displacement     0.008846     0.001200     NO 
 Predicted change in Energy=-4.439190D-05
 GradGradGradGradGradGradGradGradGradGradGradGradGradGradGradGradGradGrad

                          Input orientation:                          
 ---------------------------------------------------------------------
 Center     Atomic      Atomic             Coordinates (Angstroms)
 Number     Number       Type             X           Y           Z
 ---------------------------------------------------------------------
      1          6           0        1.186560   -0.736968    0.135593
      2          9           0        1.863212    0.283920   -0.392906
      3          9           0        1.516018   -1.850697   -0.530259
      4          6           0       -0.275806   -0.476623    0.071875
      5          9           0       -0.434087    1.843642    0.478518
      6          9           0        1.609603   -0.904199    1.398090
      7          9           0       -2.199457    0.772307   -0.170864
      8          9           0       -0.594866    1.191825   -1.563112
      9          6           0       -0.857912    0.843636   -0.300297
     10          8           0       -1.047154   -1.455843    0.543122
     11          1           0       -1.973390   -1.187389    0.507595
 ---------------------------------------------------------------------
                    Distance matrix (angstroms):
                    1          2          3          4          5
     1  C    0.000000
     2  F    1.333935   0.000000
     3  F    1.338765   2.167025   0.000000
     4  C    1.486726   2.317293   2.336937   0.000000
     5  F    3.066537   2.910275   4.297520   2.360941   0.000000
     6  F    1.341950   2.164165   2.150150   2.344447   3.545830
     7  F    3.719805   4.097940   4.562244   2.306336   2.164714
     8  F    3.127191   2.869812   3.844418   2.357690   2.149178
     9  C    2.620721   2.779636   3.598313   1.490116   1.336485
    10  O    2.381667   3.517549   2.806761   1.332637   3.356580
    11  H    3.213495   4.206563   3.700418   1.891251   3.399625
                    6          7          8          9         10
     6  F    0.000000
     7  F    4.447609   0.000000
     8  F    4.245199   2.165424   0.000000
     9  C    3.468151   1.349661   1.336088   0.000000
    10  O    2.844932   2.608110   3.413346   2.456578   0.000000
    11  H    3.702839   2.086102   3.442211   2.453985   0.965010
                   11
    11  H    0.000000
 Stoichiometry    C3HF6O(2)
 Framework group  C1[X(C3HF6O)]
 Deg. of freedom    27
 Full point group                 C1      NOp   1
 Largest Abelian subgroup         C1      NOp   1
 Largest concise Abelian subgroup C1      NOp   1
                         Standard orientation:                         
 ---------------------------------------------------------------------
 Center     Atomic      Atomic             Coordinates (Angstroms)
 Number     Number       Type             X           Y           Z
 ---------------------------------------------------------------------
      1          6           0       -1.320639   -0.129709   -0.010089
      2          9           0       -1.152879   -1.449038   -0.113092
      3          9           0       -2.135140    0.269686   -0.994652
      4          6           0       -0.007844    0.565204   -0.073482
      5          9           0        1.437234   -0.893372    1.092002
      6          9           0       -1.961222    0.116980    1.143006
      7          9           0        2.287703    0.773953    0.004473
      8          9           0        1.511049   -0.947355   -1.055230
      9          6           0        1.300031   -0.145803   -0.007320
     10          8           0       -0.066960    1.895284   -0.015892
     11          1           0        0.825701    2.261889   -0.016063
 ---------------------------------------------------------------------
 Rotational constants (GHZ):           2.1089139           1.0174532           0.9010653
 Standard basis: 6-311+G(2d) (5D, 7F)
 There are   293 symmetry adapted cartesian basis functions of A   symmetry.
 There are   273 symmetry adapted basis functions of A   symmetry.
   273 basis functions,   425 primitive gaussians,   293 cartesian basis functions
    41 alpha electrons       40 beta electrons
       nuclear repulsion energy       640.4620213901 Hartrees.
 NAtoms=   11 NActive=   11 NUniq=   11 SFac= 1.00D+00 NAtFMM=   60 NAOKFM=F Big=F
 Integral buffers will be    131072 words long.
 Raffenetti 2 integral format.
 Two-electron integral symmetry is turned on.
 Nuclear repulsion after empirical dispersion term =      640.4577017224 Hartrees.
 One-electron integrals computed using PRISM.
 NBasis=   273 RedAO= T EigKep=  5.71D-05  NBF=   273
 NBsUse=   273 1.00D-06 EigRej= -1.00D+00 NBFU=   273
 Initial guess from the checkpoint file:  "hfp_2oh_2rad_prod.chk"
 B after Tr=    -0.000000    0.000000   -0.000000
         Rot=    0.999998    0.001619   -0.000211    0.000862 Ang=   0.21 deg.
 Initial guess <Sx>= 0.0000 <Sy>= 0.0000 <Sz>= 0.5000 <S**2>= 0.7540 S= 0.5020
 ExpMin= 4.38D-02 ExpMax= 1.14D+04 ExpMxC= 1.72D+03 IAcc=2 IRadAn=         4 AccDes= 0.00D+00
 Harris functional with IExCor= 4639 and IRadAn=       4 diagonalized for initial guess.
 HarFok:  IExCor= 4639 AccDes= 0.00D+00 IRadAn=         4 IDoV= 1 UseB2=F ITyADJ=14
 ICtDFT=  3500011 ScaDFX=  1.000000  1.000000  1.000000  1.000000
 FoFCou: FMM=F IPFlag=           0 FMFlag=      100000 FMFlg1=           0
         NFxFlg=           0 DoJE=T BraDBF=F KetDBF=T FulRan=T
         wScrn=  0.000000 ICntrl=       500 IOpCl=  0 I1Cent=   200000004 NGrid=           0
         NMat0=    1 NMatS0=      1 NMatT0=    0 NMatD0=    1 NMtDS0=    0 NMtDT0=    0
 Petite list used in FoFCou.
 Keep R1 and R2 ints in memory in canonical form, NReq=2824723821.
 Requested convergence on RMS density matrix=1.00D-08 within 128 cycles.
 Requested convergence on MAX density matrix=1.00D-06.
 Requested convergence on             energy=1.00D-06.
 No special actions if energy rises.
 SCF Done:  E(UwB97XD) =  -789.188806365     A.U. after   12 cycles
            NFock= 12  Conv=0.30D-08     -V/T= 2.0025
 <Sx>= 0.0000 <Sy>= 0.0000 <Sz>= 0.5000 <S**2>= 0.7540 S= 0.5020
 <L.S>= 0.000000000000E+00
 Annihilation of the first spin contaminant:
 S**2 before annihilation     0.7540,   after     0.7500
 Calling FoFJK, ICntrl=      2127 FMM=F ISym2X=0 I1Cent= 0 IOpClX= 1 NMat=1 NMatS=1 NMatT=0.
 ***** Axes restored to original set *****
 -------------------------------------------------------------------
 Center     Atomic                   Forces (Hartrees/Bohr)
 Number     Number              X              Y              Z
 -------------------------------------------------------------------
      1        6           0.000288860    0.000139787    0.000126371
      2        9           0.000413170   -0.000162612   -0.000063682
      3        9          -0.000020292    0.000270645    0.000123045
      4        6           0.000119825   -0.001163536   -0.000589351
      5        9          -0.000087449    0.000678652    0.000351465
      6        9           0.000272878    0.000011454    0.000001610
      7        9          -0.000691981    0.000109990    0.000009347
      8        9          -0.000302044   -0.000095039    0.000818986
      9        6           0.000754305    0.000262914   -0.001080242
     10        8          -0.000475199    0.000315063    0.000191694
     11        1          -0.000272073   -0.000367317    0.000110758
 -------------------------------------------------------------------
 Cartesian Forces:  Max     0.001163536 RMS     0.000441790

 GradGradGradGradGradGradGradGradGradGradGradGradGradGradGradGradGradGrad
 Berny optimization.
 Using GEDIIS/GDIIS optimizer.
 FormGI is forming the generalized inverse of G from B-inverse, IUseBI=4.
 Internal  Forces:  Max     0.000952317 RMS     0.000393625
 Search for a local minimum.
 Step number  14 out of a maximum of   50
 All quantities printed in internal units (Hartrees-Bohrs-Radians)
 Mixed Optimization -- En-DIIS/RFO-DIIS
 Swapping is turned off.
 Update second derivatives using D2CorX and points   12   13   14
 DE= -6.03D-05 DEPred=-4.44D-05 R= 1.36D+00
 TightC=F SS=  1.41D+00  RLast= 7.52D-02 DXNew= 2.2619D+00 2.2572D-01
 Trust test= 1.36D+00 RLast= 7.52D-02 DXMaxT set to 1.34D+00
 ITU=  1  1  0  1  1  1  1  1  0  0  1  1  1  0
     Eigenvalues ---    0.00042   0.00233   0.00623   0.01116   0.10181
     Eigenvalues ---    0.10691   0.11105   0.11552   0.17620   0.22958
     Eigenvalues ---    0.24202   0.24918   0.25044   0.25653   0.26893
     Eigenvalues ---    0.27891   0.29921   0.31798   0.46688   0.47592
     Eigenvalues ---    0.48677   0.53893   0.55154   0.55332   0.55859
     Eigenvalues ---    0.56989   0.72296
 En-DIIS/RFO-DIIS/Sim-DIIS IScMMF=       -3 using points:    14   13
 RFO step:  Lambda=-8.32477066D-05.
 DidBck=F Rises=F RFO-DIIS coefs:    3.00000   -2.00000
 Iteration  1 RMS(Cart)=  0.04058850 RMS(Int)=  0.00168148
 Iteration  2 RMS(Cart)=  0.00172961 RMS(Int)=  0.00057466
 Iteration  3 RMS(Cart)=  0.00000342 RMS(Int)=  0.00057465
 Iteration  4 RMS(Cart)=  0.00000000 RMS(Int)=  0.00057465
 Variable       Old X    -DE/DX   Delta X   Delta X   Delta X     New X
                                 (Linear)    (Quad)   (Total)
    R1        2.52077   0.00011   0.00002  -0.00113  -0.00112   2.51965
    R2        2.52990  -0.00029  -0.00023   0.00189   0.00167   2.53157
    R3        2.80951   0.00090   0.00434  -0.00364   0.00070   2.81021
    R4        2.53592   0.00008  -0.00279  -0.00047  -0.00326   2.53266
    R5        2.81591   0.00095  -0.00114   0.00156   0.00042   2.81633
    R6        2.51832   0.00058  -0.00693   0.00524  -0.00169   2.51663
    R7        2.52559   0.00069   0.00212   0.00336   0.00548   2.53107
    R8        2.55049   0.00068   0.00434  -0.00219   0.00215   2.55264
    R9        2.52484  -0.00086  -0.00749  -0.00106  -0.00855   2.51629
   R10        1.82360   0.00016  -0.00049   0.00049  -0.00000   1.82360
    A1        1.89103  -0.00036  -0.00194   0.00055  -0.00140   1.88964
    A2        1.92618   0.00066   0.00691  -0.00596   0.00095   1.92713
    A3        1.88410  -0.00040   0.00029   0.00227   0.00256   1.88666
    A4        1.94596  -0.00016  -0.00202   0.00135  -0.00067   1.94528
    A5        1.86154  -0.00015   0.00377  -0.00236   0.00140   1.86295
    A6        1.95220   0.00035  -0.00698   0.00425  -0.00272   1.94947
    A7        2.15328  -0.00001  -0.00380  -0.00312  -0.00897   2.14431
    A8        2.01031   0.00029   0.00285  -0.00632  -0.00558   2.00473
    A9        2.10976  -0.00029  -0.00679   0.00381  -0.00507   2.10469
   A10        1.97525   0.00046   0.00158   0.00093   0.00251   1.97777
   A11        1.89391   0.00009   0.00243  -0.00235   0.00008   1.89399
   A12        1.97148   0.00020  -0.00242  -0.00091  -0.00333   1.96815
   A13        1.87431  -0.00035  -0.00722   0.00187  -0.00534   1.86896
   A14        1.86852  -0.00023   0.00522  -0.00396   0.00126   1.86979
   A15        1.87560  -0.00023  -0.00001   0.00484   0.00483   1.88044
   A16        1.91572   0.00080   0.01642  -0.01076   0.00566   1.92138
    D1       -0.17986  -0.00023  -0.02969   0.00669  -0.02295  -0.20280
    D2        3.11107  -0.00008   0.03646   0.04883   0.08524  -3.08688
    D3       -2.28239  -0.00011  -0.03056   0.00912  -0.02138  -2.30377
    D4        1.00854   0.00004   0.03558   0.05127   0.08681   1.09534
    D5        1.91805  -0.00004  -0.02924   0.00832  -0.02087   1.89718
    D6       -1.07421   0.00010   0.03691   0.05046   0.08732  -0.98690
    D7       -0.98827  -0.00009   0.03413  -0.06357  -0.02955  -1.01783
    D8       -3.06678  -0.00000   0.04055  -0.06491  -0.02448  -3.09126
    D9        1.13862   0.00010   0.04042  -0.06882  -0.02851   1.11010
   D10        1.99579  -0.00020  -0.03502  -0.10890  -0.14380   1.85199
   D11       -0.08272  -0.00011  -0.02860  -0.11023  -0.13872  -0.22144
   D12       -2.16051  -0.00000  -0.02873  -0.11415  -0.14275  -2.30326
   D13        3.08977  -0.00001   0.02242   0.00333   0.02569   3.11546
   D14        0.09346   0.00010   0.08657   0.04495   0.13157   0.22502
         Item               Value     Threshold  Converged?
 Maximum Force            0.000952     0.000450     NO 
 RMS     Force            0.000394     0.000300     NO 
 Maximum Displacement     0.121444     0.001800     NO 
 RMS     Displacement     0.040739     0.001200     NO 
 Predicted change in Energy=-4.163554D-05
 GradGradGradGradGradGradGradGradGradGradGradGradGradGradGradGradGradGrad

                          Input orientation:                          
 ---------------------------------------------------------------------
 Center     Atomic      Atomic             Coordinates (Angstroms)
 Number     Number       Type             X           Y           Z
 ---------------------------------------------------------------------
      1          6           0        1.183019   -0.740583    0.118765
      2          9           0        1.857789    0.281596   -0.408152
      3          9           0        1.522912   -1.854233   -0.543737
      4          6           0       -0.280787   -0.489035    0.044894
      5          9           0       -0.470034    1.821228    0.516261
      6          9           0        1.594588   -0.903209    1.383823
      7          9           0       -2.202132    0.759359   -0.227961
      8          9           0       -0.546163    1.222267   -1.546049
      9          6           0       -0.856145    0.839448   -0.308949
     10          8           0       -1.039363   -1.428026    0.607387
     11          1           0       -1.970965   -1.185201    0.541073
 ---------------------------------------------------------------------
                    Distance matrix (angstroms):
                    1          2          3          4          5
     1  C    0.000000
     2  F    1.333344   0.000000
     3  F    1.339647   2.166170   0.000000
     4  C    1.487098   2.317894   2.337431   0.000000
     5  F    3.074648   2.940028   4.313287   2.365442   0.000000
     6  F    1.340227   2.164304   2.150598   2.341218   3.526738
     7  F    3.718776   4.091905   4.561418   2.307489   2.163700
     8  F    3.100719   2.821109   3.840645   2.351613   2.148877
     9  C    2.614886   2.772451   3.601522   1.490339   1.339383
    10  O    2.377038   3.513917   2.841125   1.331743   3.300013
    11  H    3.213043   4.208548   3.719085   1.894080   3.360360
                    6          7          8          9         10
     6  F    0.000000
     7  F    4.447141   0.000000
     8  F    4.205308   2.166536   0.000000
     9  C    3.450859   1.350797   1.331561   0.000000
    10  O    2.795708   2.614285   3.450302   2.452484   0.000000
    11  H    3.674631   2.103845   3.490278   2.462633   0.965010
                   11
    11  H    0.000000
 Stoichiometry    C3HF6O(2)
 Framework group  C1[X(C3HF6O)]
 Deg. of freedom    27
 Full point group                 C1      NOp   1
 Largest Abelian subgroup         C1      NOp   1
 Largest concise Abelian subgroup C1      NOp   1
                         Standard orientation:                         
 ---------------------------------------------------------------------
 Center     Atomic      Atomic             Coordinates (Angstroms)
 Number     Number       Type             X           Y           Z
 ---------------------------------------------------------------------
      1          6           0       -1.317895   -0.129871   -0.013847
      2          9           0       -1.148738   -1.451520   -0.063202
      3          9           0       -2.145772    0.224853   -1.005535
      4          6           0       -0.007884    0.565258   -0.123977
      5          9           0        1.450537   -0.797711    1.145133
      6          9           0       -1.941554    0.167426    1.134575
      7          9           0        2.290743    0.764955   -0.093305
      8          9           0        1.482695   -1.033938   -0.990479
      9          6           0        1.296937   -0.146586   -0.015207
     10          8           0       -0.067180    1.891514   -0.018779
     11          1           0        0.819281    2.268508   -0.076274
 ---------------------------------------------------------------------
 Rotational constants (GHZ):           2.1121337           1.0208844           0.9040779
 Standard basis: 6-311+G(2d) (5D, 7F)
 There are   293 symmetry adapted cartesian basis functions of A   symmetry.
 There are   273 symmetry adapted basis functions of A   symmetry.
   273 basis functions,   425 primitive gaussians,   293 cartesian basis functions
    41 alpha electrons       40 beta electrons
       nuclear repulsion energy       641.0492646772 Hartrees.
 NAtoms=   11 NActive=   11 NUniq=   11 SFac= 1.00D+00 NAtFMM=   60 NAOKFM=F Big=F
 Integral buffers will be    131072 words long.
 Raffenetti 2 integral format.
 Two-electron integral symmetry is turned on.
 Nuclear repulsion after empirical dispersion term =      641.0449383796 Hartrees.
 One-electron integrals computed using PRISM.
 NBasis=   273 RedAO= T EigKep=  6.17D-05  NBF=   273
 NBsUse=   273 1.00D-06 EigRej= -1.00D+00 NBFU=   273
 Initial guess from the checkpoint file:  "hfp_2oh_2rad_prod.chk"
 B after Tr=     0.000000   -0.000000    0.000000
         Rot=    0.999735    0.022822   -0.002913    0.000379 Ang=   2.64 deg.
 Initial guess <Sx>= 0.0000 <Sy>= 0.0000 <Sz>= 0.5000 <S**2>= 0.7540 S= 0.5020
 ExpMin= 4.38D-02 ExpMax= 1.14D+04 ExpMxC= 1.72D+03 IAcc=2 IRadAn=         4 AccDes= 0.00D+00
 Harris functional with IExCor= 4639 and IRadAn=       4 diagonalized for initial guess.
 HarFok:  IExCor= 4639 AccDes= 0.00D+00 IRadAn=         4 IDoV= 1 UseB2=F ITyADJ=14
 ICtDFT=  3500011 ScaDFX=  1.000000  1.000000  1.000000  1.000000
 FoFCou: FMM=F IPFlag=           0 FMFlag=      100000 FMFlg1=           0
         NFxFlg=           0 DoJE=T BraDBF=F KetDBF=T FulRan=T
         wScrn=  0.000000 ICntrl=       500 IOpCl=  0 I1Cent=   200000004 NGrid=           0
         NMat0=    1 NMatS0=      1 NMatT0=    0 NMatD0=    1 NMtDS0=    0 NMtDT0=    0
 Petite list used in FoFCou.
 Keep R1 and R2 ints in memory in canonical form, NReq=2824723821.
 Requested convergence on RMS density matrix=1.00D-08 within 128 cycles.
 Requested convergence on MAX density matrix=1.00D-06.
 Requested convergence on             energy=1.00D-06.
 No special actions if energy rises.
 SCF Done:  E(UwB97XD) =  -789.188847680     A.U. after   13 cycles
            NFock= 13  Conv=0.26D-08     -V/T= 2.0025
 <Sx>= 0.0000 <Sy>= 0.0000 <Sz>= 0.5000 <S**2>= 0.7539 S= 0.5020
 <L.S>= 0.000000000000E+00
 Annihilation of the first spin contaminant:
 S**2 before annihilation     0.7539,   after     0.7500
 Calling FoFJK, ICntrl=      2127 FMM=F ISym2X=0 I1Cent= 0 IOpClX= 1 NMat=1 NMatS=1 NMatT=0.
 ***** Axes restored to original set *****
 -------------------------------------------------------------------
 Center     Atomic                   Forces (Hartrees/Bohr)
 Number     Number              X              Y              Z
 -------------------------------------------------------------------
      1        6           0.000355053   -0.000548319   -0.000393426
      2        9           0.000701780   -0.000026393   -0.000158715
      3        9          -0.000082454    0.000513700    0.000405406
      4        6          -0.000120997   -0.000462455   -0.000808662
      5        9          -0.000226359    0.000224981    0.000166010
      6        9           0.000919642   -0.000032385    0.000614558
      7        9          -0.000001769   -0.000027108   -0.000042972
      8        9          -0.000092967    0.000253479   -0.000535366
      9        6          -0.000454748    0.000898628    0.000301484
     10        8          -0.001017092   -0.000998214    0.000392061
     11        1           0.000019911    0.000204087    0.000059621
 -------------------------------------------------------------------
 Cartesian Forces:  Max     0.001017092 RMS     0.000475738

 GradGradGradGradGradGradGradGradGradGradGradGradGradGradGradGradGradGrad
 Berny optimization.
 Using GEDIIS/GDIIS optimizer.
 FormGI is forming the generalized inverse of G from B-inverse, IUseBI=4.
 Internal  Forces:  Max     0.001903047 RMS     0.000592456
 Search for a local minimum.
 Step number  15 out of a maximum of   50
 All quantities printed in internal units (Hartrees-Bohrs-Radians)
 Mixed Optimization -- En-DIIS/RFO-DIIS
 Swapping is turned off.
 Update second derivatives using D2CorX and points   12   13   14   15
 DE= -4.13D-05 DEPred=-4.16D-05 R= 9.92D-01
 TightC=F SS=  1.41D+00  RLast= 3.24D-01 DXNew= 2.2619D+00 9.7111D-01
 Trust test= 9.92D-01 RLast= 3.24D-01 DXMaxT set to 1.34D+00
 ITU=  1  1  1  0  1  1  1  1  1  0  0  1  1  1  0
     Eigenvalues ---    0.00086   0.00151   0.00601   0.01168   0.10149
     Eigenvalues ---    0.10651   0.11086   0.11522   0.17689   0.21704
     Eigenvalues ---    0.23982   0.24782   0.25387   0.25611   0.26966
     Eigenvalues ---    0.28214   0.29228   0.31569   0.46609   0.46924
     Eigenvalues ---    0.48759   0.53826   0.55146   0.55344   0.55906
     Eigenvalues ---    0.56955   0.87971
 En-DIIS/RFO-DIIS/Sim-DIIS IScMMF=       -3 using points:    15   14   13
 RFO step:  Lambda=-5.30078573D-05.
 DidBck=T Rises=F RFO-DIIS coefs:    0.74044    1.30693   -1.04737
 Iteration  1 RMS(Cart)=  0.01354359 RMS(Int)=  0.00025172
 Iteration  2 RMS(Cart)=  0.00010024 RMS(Int)=  0.00023566
 Iteration  3 RMS(Cart)=  0.00000000 RMS(Int)=  0.00023566
 Variable       Old X    -DE/DX   Delta X   Delta X   Delta X     New X
                                 (Linear)    (Quad)   (Total)
    R1        2.51965   0.00040   0.00030   0.00001   0.00031   2.51996
    R2        2.53157  -0.00065  -0.00055  -0.00025  -0.00081   2.53076
    R3        2.81021   0.00190   0.00209  -0.00037   0.00172   2.81193
    R4        2.53266   0.00087  -0.00061   0.00028  -0.00034   2.53232
    R5        2.81633   0.00153  -0.00071   0.00087   0.00016   2.81650
    R6        2.51663   0.00132  -0.00319   0.00370   0.00051   2.51714
    R7        2.53107   0.00020  -0.00031   0.00025  -0.00006   2.53101
    R8        2.55264   0.00000   0.00171  -0.00061   0.00110   2.55374
    R9        2.51629   0.00055  -0.00170   0.00073  -0.00098   2.51531
   R10        1.82360   0.00003  -0.00026   0.00039   0.00013   1.82374
    A1        1.88964  -0.00046  -0.00066   0.00075   0.00009   1.88973
    A2        1.92713   0.00081   0.00337  -0.00279   0.00058   1.92771
    A3        1.88666  -0.00079  -0.00051  -0.00059  -0.00110   1.88556
    A4        1.94528  -0.00023  -0.00088  -0.00013  -0.00101   1.94427
    A5        1.86295  -0.00045   0.00161  -0.00074   0.00087   1.86381
    A6        1.94947   0.00103  -0.00295   0.00351   0.00056   1.95004
    A7        2.14431   0.00056   0.00034  -0.00080  -0.00129   2.14302
    A8        2.00473   0.00025   0.00294   0.00029   0.00236   2.00708
    A9        2.10469  -0.00081  -0.00224   0.00162  -0.00142   2.10327
   A10        1.97777   0.00032   0.00017  -0.00140  -0.00122   1.97654
   A11        1.89399  -0.00023   0.00125  -0.00184  -0.00059   1.89340
   A12        1.96815   0.00033  -0.00040   0.00064   0.00024   1.96839
   A13        1.86896  -0.00018  -0.00239   0.00276   0.00036   1.86933
   A14        1.86979  -0.00010   0.00241  -0.00083   0.00158   1.87137
   A15        1.88044  -0.00019  -0.00126   0.00094  -0.00032   1.88012
   A16        1.92138  -0.00027   0.00713  -0.00706   0.00007   1.92145
    D1       -0.20280  -0.00035  -0.00959  -0.01515  -0.02480  -0.22761
    D2       -3.08688  -0.00022  -0.00303  -0.02015  -0.02312  -3.10999
    D3       -2.30377  -0.00016  -0.01045  -0.01412  -0.02464  -2.32841
    D4        1.09534  -0.00003  -0.00390  -0.01912  -0.02295   1.07239
    D5        1.89718  -0.00012  -0.00989  -0.01547  -0.02543   1.87174
    D6       -0.98690   0.00001  -0.00334  -0.02047  -0.02374  -1.01064
    D7       -1.01783  -0.00025   0.02554  -0.01539   0.01002  -1.00780
    D8       -3.09126  -0.00007   0.02759  -0.01674   0.01072  -3.08053
    D9        1.11010   0.00012   0.02857  -0.01707   0.01137   1.12148
   D10        1.85199  -0.00022   0.01899  -0.01033   0.00878   1.86078
   D11       -0.22144  -0.00004   0.02103  -0.01167   0.00948  -0.21195
   D12       -2.30326   0.00015   0.02201  -0.01201   0.01013  -2.29313
   D13        3.11546  -0.00008   0.00507  -0.00843  -0.00337   3.11210
   D14        0.22502  -0.00017   0.01119  -0.01292  -0.00172   0.22330
         Item               Value     Threshold  Converged?
 Maximum Force            0.001903     0.000450     NO 
 RMS     Force            0.000592     0.000300     NO 
 Maximum Displacement     0.042541     0.001800     NO 
 RMS     Displacement     0.013545     0.001200     NO 
 Predicted change in Energy=-1.929065D-05
 GradGradGradGradGradGradGradGradGradGradGradGradGradGradGradGradGradGrad

                          Input orientation:                          
 ---------------------------------------------------------------------
 Center     Atomic      Atomic             Coordinates (Angstroms)
 Number     Number       Type             X           Y           Z
 ---------------------------------------------------------------------
      1          6           0        1.184010   -0.740007    0.119089
      2          9           0        1.858860    0.273497   -0.424624
      3          9           0        1.523223   -1.864004   -0.525176
      4          6           0       -0.280857   -0.490507    0.041058
      5          9           0       -0.463220    1.817148    0.523267
      6          9           0        1.596487   -0.880697    1.386290
      7          9           0       -2.201792    0.761710   -0.217140
      8          9           0       -0.552105    1.227026   -1.541923
      9          6           0       -0.855565    0.840419   -0.304940
     10          8           0       -1.042604   -1.432912    0.594121
     11          1           0       -1.973716   -1.188062    0.527332
 ---------------------------------------------------------------------
                    Distance matrix (angstroms):
                    1          2          3          4          5
     1  C    0.000000
     2  F    1.333506   0.000000
     3  F    1.339220   2.166027   0.000000
     4  C    1.488010   2.319257   2.337053   0.000000
     5  F    3.068513   2.945065   4.312316   2.364542   0.000000
     6  F    1.340048   2.163426   2.150805   2.342290   3.502224
     7  F    3.719121   4.095156   4.567822   2.307533   2.164437
     8  F    3.105201   2.823177   3.859433   2.351451   2.149687
     9  C    2.614844   2.775577   3.608467   1.490425   1.339351
    10  O    2.379828   3.516841   2.832338   1.332015   3.302059
    11  H    3.215377   4.210821   3.713927   1.894417   3.363466
                    6          7          8          9         10
     6  F    0.000000
     7  F    4.437952   0.000000
     8  F    4.199211   2.166342   0.000000
     9  C    3.440212   1.351382   1.331045   0.000000
    10  O    2.810209   2.611174   3.446526   2.451801   0.000000
    11  H    3.684919   2.099493   3.483596   2.461234   0.965081
                   11
    11  H    0.000000
 Stoichiometry    C3HF6O(2)
 Framework group  C1[X(C3HF6O)]
 Deg. of freedom    27
 Full point group                 C1      NOp   1
 Largest Abelian subgroup         C1      NOp   1
 Largest concise Abelian subgroup C1      NOp   1
                         Standard orientation:                         
 ---------------------------------------------------------------------
 Center     Atomic      Atomic             Coordinates (Angstroms)
 Number     Number       Type             X           Y           Z
 ---------------------------------------------------------------------
      1          6           0       -1.318360   -0.128711   -0.014341
      2          9           0       -1.153918   -1.449663   -0.093606
      3          9           0       -2.155388    0.249480   -0.988952
      4          6           0       -0.007119    0.565982   -0.124900
      5          9           0        1.441927   -0.808493    1.140857
      6          9           0       -1.928142    0.144483    1.147235
      7          9           0        2.291487    0.763775   -0.080212
      8          9           0        1.487026   -1.026440   -0.997278
      9          6           0        1.296411   -0.148283   -0.015348
     10          8           0       -0.062269    1.892624   -0.018867
     11          1           0        0.825621    2.266794   -0.073919
 ---------------------------------------------------------------------
 Rotational constants (GHZ):           2.1112704           1.0210848           0.9042116
 Standard basis: 6-311+G(2d) (5D, 7F)
 There are   293 symmetry adapted cartesian basis functions of A   symmetry.
 There are   273 symmetry adapted basis functions of A   symmetry.
   273 basis functions,   425 primitive gaussians,   293 cartesian basis functions
    41 alpha electrons       40 beta electrons
       nuclear repulsion energy       641.0242402097 Hartrees.
 NAtoms=   11 NActive=   11 NUniq=   11 SFac= 1.00D+00 NAtFMM=   60 NAOKFM=F Big=F
 Integral buffers will be    131072 words long.
 Raffenetti 2 integral format.
 Two-electron integral symmetry is turned on.
 Nuclear repulsion after empirical dispersion term =      641.0199112808 Hartrees.
 One-electron integrals computed using PRISM.
 NBasis=   273 RedAO= T EigKep=  6.17D-05  NBF=   273
 NBsUse=   273 1.00D-06 EigRej= -1.00D+00 NBFU=   273
 Initial guess from the checkpoint file:  "hfp_2oh_2rad_prod.chk"
 B after Tr=     0.000000   -0.000000   -0.000000
         Rot=    0.999985   -0.005397   -0.000416    0.000685 Ang=  -0.63 deg.
 Initial guess <Sx>= 0.0000 <Sy>= 0.0000 <Sz>= 0.5000 <S**2>= 0.7539 S= 0.5020
 ExpMin= 4.38D-02 ExpMax= 1.14D+04 ExpMxC= 1.72D+03 IAcc=2 IRadAn=         4 AccDes= 0.00D+00
 Harris functional with IExCor= 4639 and IRadAn=       4 diagonalized for initial guess.
 HarFok:  IExCor= 4639 AccDes= 0.00D+00 IRadAn=         4 IDoV= 1 UseB2=F ITyADJ=14
 ICtDFT=  3500011 ScaDFX=  1.000000  1.000000  1.000000  1.000000
 FoFCou: FMM=F IPFlag=           0 FMFlag=      100000 FMFlg1=           0
         NFxFlg=           0 DoJE=T BraDBF=F KetDBF=T FulRan=T
         wScrn=  0.000000 ICntrl=       500 IOpCl=  0 I1Cent=   200000004 NGrid=           0
         NMat0=    1 NMatS0=      1 NMatT0=    0 NMatD0=    1 NMtDS0=    0 NMtDT0=    0
 Petite list used in FoFCou.
 Keep R1 and R2 ints in memory in canonical form, NReq=2824723821.
 Requested convergence on RMS density matrix=1.00D-08 within 128 cycles.
 Requested convergence on MAX density matrix=1.00D-06.
 Requested convergence on             energy=1.00D-06.
 No special actions if energy rises.
 SCF Done:  E(UwB97XD) =  -789.188868121     A.U. after   11 cycles
            NFock= 11  Conv=0.40D-08     -V/T= 2.0025
 <Sx>= 0.0000 <Sy>= 0.0000 <Sz>= 0.5000 <S**2>= 0.7539 S= 0.5020
 <L.S>= 0.000000000000E+00
 Annihilation of the first spin contaminant:
 S**2 before annihilation     0.7539,   after     0.7500
 Calling FoFJK, ICntrl=      2127 FMM=F ISym2X=0 I1Cent= 0 IOpClX= 1 NMat=1 NMatS=1 NMatT=0.
 ***** Axes restored to original set *****
 -------------------------------------------------------------------
 Center     Atomic                   Forces (Hartrees/Bohr)
 Number     Number              X              Y              Z
 -------------------------------------------------------------------
      1        6          -0.000187658   -0.000532504   -0.000558921
      2        9           0.000454190    0.000016178   -0.000115768
      3        9          -0.000080714    0.000414932    0.000446936
      4        6          -0.000023034   -0.000510932   -0.000996325
      5        9          -0.000262233    0.000326258   -0.000107296
      6        9           0.000996693   -0.000166712    0.000897418
      7        9           0.000267806    0.000151114   -0.000123650
      8        9          -0.000018014    0.000583682   -0.000707415
      9        6          -0.000745838    0.000492775    0.000782330
     10        8          -0.000542351   -0.001019605    0.000407854
     11        1           0.000141152    0.000244812    0.000074839
 -------------------------------------------------------------------
 Cartesian Forces:  Max     0.001019605 RMS     0.000505876

 GradGradGradGradGradGradGradGradGradGradGradGradGradGradGradGradGradGrad
 Berny optimization.
 Using GEDIIS/GDIIS optimizer.
 FormGI is forming the generalized inverse of G from B-inverse, IUseBI=4.
 Internal  Forces:  Max     0.001717213 RMS     0.000554951
 Search for a local minimum.
 Step number  16 out of a maximum of   50
 All quantities printed in internal units (Hartrees-Bohrs-Radians)
 Mixed Optimization -- En-DIIS/RFO-DIIS
 Swapping is turned off.
 Update second derivatives using D2CorX and points   12   13   14   15   16
 DE= -2.04D-05 DEPred=-1.93D-05 R= 1.06D+00
 TightC=F SS=  1.41D+00  RLast= 6.44D-02 DXNew= 2.2619D+00 1.9318D-01
 Trust test= 1.06D+00 RLast= 6.44D-02 DXMaxT set to 1.34D+00
 ITU=  1  1  1  1  0  1  1  1  1  1  0  0  1  1  1  0
     Eigenvalues ---    0.00085   0.00097   0.00550   0.01187   0.10331
     Eigenvalues ---    0.10746   0.11207   0.11484   0.17558   0.23416
     Eigenvalues ---    0.24291   0.24779   0.25177   0.26790   0.27192
     Eigenvalues ---    0.28149   0.29233   0.38852   0.46303   0.47950
     Eigenvalues ---    0.50459   0.53913   0.55254   0.55429   0.55870
     Eigenvalues ---    0.57362   0.81588
 En-DIIS/RFO-DIIS/Sim-DIIS IScMMF=       -3 using points:    16   15   14   13
 RFO step:  Lambda=-7.70880562D-05.
 DidBck=F Rises=F RFO-DIIS coefs:    3.00000   -1.69388   -0.18288   -0.12324
 Iteration  1 RMS(Cart)=  0.05146515 RMS(Int)=  0.00158580
 Iteration  2 RMS(Cart)=  0.00174356 RMS(Int)=  0.00044180
 Iteration  3 RMS(Cart)=  0.00000154 RMS(Int)=  0.00044180
 Iteration  4 RMS(Cart)=  0.00000000 RMS(Int)=  0.00044180
 Variable       Old X    -DE/DX   Delta X   Delta X   Delta X     New X
                                 (Linear)    (Quad)   (Total)
    R1        2.51996   0.00029   0.00027   0.00025   0.00052   2.52048
    R2        2.53076  -0.00058  -0.00112  -0.00127  -0.00239   2.52837
    R3        2.81193   0.00124   0.00393   0.00083   0.00476   2.81669
    R4        2.53232   0.00117  -0.00184   0.00103  -0.00082   2.53151
    R5        2.81650   0.00172   0.00038   0.00264   0.00302   2.81952
    R6        2.51714   0.00098   0.00008   0.00063   0.00071   2.51785
    R7        2.53101   0.00009   0.00169   0.00015   0.00184   2.53284
    R8        2.55374  -0.00028   0.00313   0.00019   0.00333   2.55707
    R9        2.51531   0.00082  -0.00503  -0.00089  -0.00592   2.50939
   R10        1.82374  -0.00008   0.00024  -0.00006   0.00018   1.82392
    A1        1.88973  -0.00026  -0.00036   0.00190   0.00154   1.89127
    A2        1.92771   0.00044   0.00188  -0.00123   0.00064   1.92835
    A3        1.88556  -0.00063  -0.00140  -0.00107  -0.00247   1.88309
    A4        1.94427  -0.00018  -0.00236  -0.00192  -0.00428   1.93999
    A5        1.86381  -0.00053   0.00239   0.00051   0.00290   1.86672
    A6        1.95004   0.00108  -0.00014   0.00191   0.00177   1.95180
    A7        2.14302   0.00062  -0.00556  -0.00320  -0.01030   2.13273
    A8        2.00708  -0.00032   0.00318  -0.00268  -0.00117   2.00591
    A9        2.10327  -0.00031  -0.00482  -0.00212  -0.00849   2.09478
   A10        1.97654   0.00058  -0.00158  -0.00049  -0.00207   1.97448
   A11        1.89340   0.00002  -0.00101  -0.00011  -0.00112   1.89228
   A12        1.96839   0.00054  -0.00069   0.00095   0.00026   1.96865
   A13        1.86933  -0.00035  -0.00135  -0.00016  -0.00152   1.86781
   A14        1.87137  -0.00051   0.00386  -0.00006   0.00380   1.87517
   A15        1.88012  -0.00037   0.00084  -0.00018   0.00066   1.88078
   A16        1.92145  -0.00038   0.00288  -0.00188   0.00100   1.92245
    D1       -0.22761  -0.00029  -0.05846  -0.05891  -0.11738  -0.34499
    D2       -3.10999  -0.00019  -0.01789  -0.02451  -0.04239   3.13080
    D3       -2.32841  -0.00015  -0.05771  -0.05920  -0.11692  -2.44533
    D4        1.07239  -0.00004  -0.01714  -0.02480  -0.04193   1.03046
    D5        1.87174  -0.00007  -0.05905  -0.05983  -0.11889   1.75285
    D6       -1.01064   0.00003  -0.01848  -0.02543  -0.04390  -1.05454
    D7       -1.00780  -0.00009   0.01311   0.01930   0.03222  -0.97558
    D8       -3.08053  -0.00002   0.01645   0.01987   0.03613  -3.04440
    D9        1.12148   0.00009   0.01650   0.01958   0.03590   1.15737
   D10        1.86078  -0.00020  -0.02861  -0.01702  -0.04545   1.81533
   D11       -0.21195  -0.00013  -0.02527  -0.01645  -0.04153  -0.25349
   D12       -2.29313  -0.00002  -0.02521  -0.01675  -0.04177  -2.33490
   D13        3.11210  -0.00014   0.00251  -0.02212  -0.01970   3.09240
   D14        0.22330  -0.00018   0.04216   0.01160   0.05385   0.27715
         Item               Value     Threshold  Converged?
 Maximum Force            0.001717     0.000450     NO 
 RMS     Force            0.000555     0.000300     NO 
 Maximum Displacement     0.169551     0.001800     NO 
 RMS     Displacement     0.051607     0.001200     NO 
 Predicted change in Energy=-3.875182D-05
 GradGradGradGradGradGradGradGradGradGradGradGradGradGradGradGradGradGrad

                          Input orientation:                          
 ---------------------------------------------------------------------
 Center     Atomic      Atomic             Coordinates (Angstroms)
 Number     Number       Type             X           Y           Z
 ---------------------------------------------------------------------
      1          6           0        1.183936   -0.740429    0.110824
      2          9           0        1.859115    0.237348   -0.495032
      3          9           0        1.528327   -1.903288   -0.454225
      4          6           0       -0.283936   -0.504484    0.004218
      5          9           0       -0.455135    1.785641    0.569617
      6          9           0        1.588980   -0.790974    1.386738
      7          9           0       -2.201073    0.765800   -0.205418
      8          9           0       -0.551599    1.268150   -1.515933
      9          6           0       -0.853043    0.841899   -0.294955
     10          8           0       -1.045646   -1.439257    0.571018
     11          1           0       -1.977206   -1.196792    0.500502
 ---------------------------------------------------------------------
                    Distance matrix (angstroms):
                    1          2          3          4          5
     1  C    0.000000
     2  F    1.333782   0.000000
     3  F    1.337956   2.166427   0.000000
     4  C    1.490530   2.322118   2.334763   0.000000
     5  F    3.045992   2.981014   4.311678   2.365091   0.000000
     6  F    1.339617   2.161360   2.151759   2.345475   3.388958
     7  F    3.718469   4.104664   4.592859   2.309325   2.165422
     8  F    3.113327   2.813599   3.938443   2.350475   2.150958
     9  C    2.611072   2.785913   3.637628   1.492024   1.340322
    10  O    2.381423   3.519248   2.809233   1.332391   3.278517
    11  H    3.217598   4.214880   3.701271   1.895456   3.349087
                    6          7          8          9         10
     6  F    0.000000
     7  F    4.395794   0.000000
     8  F    4.153020   2.165772   0.000000
     9  C    3.384943   1.353142   1.327910   0.000000
    10  O    2.833184   2.607708   3.453911   2.447586   0.000000
    11  H    3.696997   2.097667   3.489170   2.460235   0.965177
                   11
    11  H    0.000000
 Stoichiometry    C3HF6O(2)
 Framework group  C1[X(C3HF6O)]
 Deg. of freedom    27
 Full point group                 C1      NOp   1
 Largest Abelian subgroup         C1      NOp   1
 Largest concise Abelian subgroup C1      NOp   1
                         Standard orientation:                         
 ---------------------------------------------------------------------
 Center     Atomic      Atomic             Coordinates (Angstroms)
 Number     Number       Type             X           Y           Z
 ---------------------------------------------------------------------
      1          6           0       -1.317689   -0.126554   -0.019235
      2          9           0       -1.170561   -1.441709   -0.185659
      3          9           0       -2.199374    0.316589   -0.922774
      4          6           0       -0.006267    0.567296   -0.162153
      5          9           0        1.414666   -0.794049    1.149848
      6          9           0       -1.860120    0.077340    1.188560
      7          9           0        2.293721    0.757292   -0.078833
      8          9           0        1.497113   -1.041134   -0.985280
      9          6           0        1.293260   -0.151912   -0.020358
     10          8           0       -0.053677    1.891718   -0.024587
     11          1           0        0.834590    2.264309   -0.085604
 ---------------------------------------------------------------------
 Rotational constants (GHZ):           2.1121379           1.0239042           0.9065543
 Standard basis: 6-311+G(2d) (5D, 7F)
 There are   293 symmetry adapted cartesian basis functions of A   symmetry.
 There are   273 symmetry adapted basis functions of A   symmetry.
   273 basis functions,   425 primitive gaussians,   293 cartesian basis functions
    41 alpha electrons       40 beta electrons
       nuclear repulsion energy       641.3489105828 Hartrees.
 NAtoms=   11 NActive=   11 NUniq=   11 SFac= 1.00D+00 NAtFMM=   60 NAOKFM=F Big=F
 Integral buffers will be    131072 words long.
 Raffenetti 2 integral format.
 Two-electron integral symmetry is turned on.
 Nuclear repulsion after empirical dispersion term =      641.3445634271 Hartrees.
 One-electron integrals computed using PRISM.
 NBasis=   273 RedAO= T EigKep=  6.38D-05  NBF=   273
 NBsUse=   273 1.00D-06 EigRej= -1.00D+00 NBFU=   273
 Initial guess from the checkpoint file:  "hfp_2oh_2rad_prod.chk"
 B after Tr=     0.000000    0.000000   -0.000000
         Rot=    0.999957   -0.008577   -0.003140    0.001651 Ang=  -1.06 deg.
 Initial guess <Sx>= 0.0000 <Sy>= 0.0000 <Sz>= 0.5000 <S**2>= 0.7540 S= 0.5020
 ExpMin= 4.38D-02 ExpMax= 1.14D+04 ExpMxC= 1.72D+03 IAcc=2 IRadAn=         4 AccDes= 0.00D+00
 Harris functional with IExCor= 4639 and IRadAn=       4 diagonalized for initial guess.
 HarFok:  IExCor= 4639 AccDes= 0.00D+00 IRadAn=         4 IDoV= 1 UseB2=F ITyADJ=14
 ICtDFT=  3500011 ScaDFX=  1.000000  1.000000  1.000000  1.000000
 FoFCou: FMM=F IPFlag=           0 FMFlag=      100000 FMFlg1=           0
         NFxFlg=           0 DoJE=T BraDBF=F KetDBF=T FulRan=T
         wScrn=  0.000000 ICntrl=       500 IOpCl=  0 I1Cent=   200000004 NGrid=           0
         NMat0=    1 NMatS0=      1 NMatT0=    0 NMatD0=    1 NMtDS0=    0 NMtDT0=    0
 Petite list used in FoFCou.
 Keep R1 and R2 ints in memory in canonical form, NReq=2824723821.
 Requested convergence on RMS density matrix=1.00D-08 within 128 cycles.
 Requested convergence on MAX density matrix=1.00D-06.
 Requested convergence on             energy=1.00D-06.
 No special actions if energy rises.
 SCF Done:  E(UwB97XD) =  -789.188921993     A.U. after   12 cycles
            NFock= 12  Conv=0.44D-08     -V/T= 2.0025
 <Sx>= 0.0000 <Sy>= 0.0000 <Sz>= 0.5000 <S**2>= 0.7539 S= 0.5019
 <L.S>= 0.000000000000E+00
 Annihilation of the first spin contaminant:
 S**2 before annihilation     0.7539,   after     0.7500
 Calling FoFJK, ICntrl=      2127 FMM=F ISym2X=0 I1Cent= 0 IOpClX= 1 NMat=1 NMatS=1 NMatT=0.
 ***** Axes restored to original set *****
 -------------------------------------------------------------------
 Center     Atomic                   Forces (Hartrees/Bohr)
 Number     Number              X              Y              Z
 -------------------------------------------------------------------
      1        6          -0.001135479   -0.000733495   -0.001209560
      2        9           0.000186882   -0.000001001   -0.000034394
      3        9          -0.000004161    0.000451612    0.000575609
      4        6           0.000095526   -0.000143267   -0.001084125
      5        9          -0.000278304    0.000303868   -0.000671663
      6        9           0.001232328   -0.000316528    0.001502085
      7        9           0.001146348    0.000343071   -0.000288689
      8        9           0.000347772    0.001280494   -0.001614758
      9        6          -0.001983342   -0.000141889    0.002278355
     10        8           0.000032594   -0.001465601    0.000470566
     11        1           0.000359838    0.000422735    0.000076573
 -------------------------------------------------------------------
 Cartesian Forces:  Max     0.002278355 RMS     0.000909131

 GradGradGradGradGradGradGradGradGradGradGradGradGradGradGradGradGradGrad
 Berny optimization.
 Using GEDIIS/GDIIS optimizer.
 FormGI is forming the generalized inverse of G from B-inverse, IUseBI=4.
 Internal  Forces:  Max     0.001974990 RMS     0.000746901
 Search for a local minimum.
 Step number  17 out of a maximum of   50
 All quantities printed in internal units (Hartrees-Bohrs-Radians)
 Mixed Optimization -- En-DIIS/RFO-DIIS
 Swapping is turned off.
 Update second derivatives using D2CorX and points   13   14   15   16   17
 DE= -5.39D-05 DEPred=-3.88D-05 R= 1.39D+00
 TightC=F SS=  1.41D+00  RLast= 2.45D-01 DXNew= 2.2619D+00 7.3395D-01
 Trust test= 1.39D+00 RLast= 2.45D-01 DXMaxT set to 1.34D+00
 ITU=  1  1  1  1  1  0  1  1  1  1  1  0  0  1  1  1  0
     Eigenvalues ---    0.00077   0.00103   0.00564   0.01204   0.10332
     Eigenvalues ---    0.10812   0.11319   0.11508   0.17614   0.23536
     Eigenvalues ---    0.24326   0.24531   0.24902   0.26553   0.27168
     Eigenvalues ---    0.27877   0.28952   0.39574   0.46263   0.47529
     Eigenvalues ---    0.50825   0.53866   0.55229   0.55431   0.56056
     Eigenvalues ---    0.57276   1.13026
 En-DIIS/RFO-DIIS/Sim-DIIS IScMMF=       -3 using points:    17   16   15   14   13
 RFO step:  Lambda=-3.84715855D-05.
 DidBck=F Rises=F RFO-DIIS coefs:    1.52349   -2.00000    0.95756    0.23946    0.27949
 Iteration  1 RMS(Cart)=  0.01906962 RMS(Int)=  0.00070430
 Iteration  2 RMS(Cart)=  0.00025248 RMS(Int)=  0.00065833
 Iteration  3 RMS(Cart)=  0.00000014 RMS(Int)=  0.00065833
 Variable       Old X    -DE/DX   Delta X   Delta X   Delta X     New X
                                 (Linear)    (Quad)   (Total)
    R1        2.52048   0.00011   0.00040   0.00003   0.00043   2.52091
    R2        2.52837  -0.00064  -0.00089  -0.00126  -0.00215   2.52622
    R3        2.81669   0.00043  -0.00102   0.00184   0.00082   2.81751
    R4        2.53151   0.00182   0.00215   0.00135   0.00350   2.53500
    R5        2.81952   0.00197   0.00128   0.00282   0.00410   2.82362
    R6        2.51785   0.00074   0.00146   0.00013   0.00159   2.51945
    R7        2.53284  -0.00030  -0.00209   0.00059  -0.00150   2.53134
    R8        2.55707  -0.00118  -0.00161  -0.00046  -0.00207   2.55500
    R9        2.50939   0.00197   0.00383   0.00006   0.00389   2.51327
   R10        1.82392  -0.00024  -0.00004   0.00002  -0.00002   1.82390
    A1        1.89127  -0.00012   0.00166  -0.00034   0.00132   1.89259
    A2        1.92835   0.00006  -0.00198   0.00179  -0.00018   1.92817
    A3        1.88309  -0.00050  -0.00104  -0.00139  -0.00243   1.88066
    A4        1.93999   0.00005  -0.00011  -0.00072  -0.00083   1.93915
    A5        1.86672  -0.00078  -0.00101  -0.00037  -0.00138   1.86533
    A6        1.95180   0.00122   0.00249   0.00091   0.00339   1.95520
    A7        2.13273   0.00078   0.00170  -0.00140   0.00260   2.13533
    A8        2.00591  -0.00120  -0.00159  -0.00034   0.00055   2.00646
    A9        2.09478   0.00042   0.00124  -0.00113   0.00244   2.09722
   A10        1.97448   0.00091  -0.00080   0.00070  -0.00010   1.97438
   A11        1.89228   0.00030  -0.00010   0.00093   0.00083   1.89311
   A12        1.96865   0.00071   0.00185  -0.00028   0.00157   1.97022
   A13        1.86781  -0.00045   0.00245  -0.00056   0.00189   1.86971
   A14        1.87517  -0.00106  -0.00173  -0.00071  -0.00243   1.87274
   A15        1.88078  -0.00053  -0.00169  -0.00014  -0.00183   1.87895
   A16        1.92245  -0.00075  -0.00481   0.00322  -0.00159   1.92086
    D1       -0.34499  -0.00015  -0.00877  -0.01783  -0.02658  -0.37157
    D2        3.13080  -0.00020  -0.03739  -0.00834  -0.04574   3.08506
    D3       -2.44533  -0.00006  -0.00946  -0.01812  -0.02757  -2.47290
    D4        1.03046  -0.00011  -0.03808  -0.00863  -0.04673   0.98373
    D5        1.75285   0.00008  -0.00977  -0.01776  -0.02752   1.72533
    D6       -1.05454   0.00002  -0.03840  -0.00828  -0.04668  -1.10122
    D7       -0.97558   0.00017   0.01263   0.00566   0.01856  -0.95702
    D8       -3.04440  -0.00002   0.01012   0.00531   0.01570  -3.02870
    D9        1.15737  -0.00000   0.01115   0.00504   0.01645   1.17383
   D10        1.81533  -0.00007   0.04276  -0.00415   0.03834   1.85367
   D11       -0.25349  -0.00026   0.04024  -0.00450   0.03548  -0.21801
   D12       -2.33490  -0.00024   0.04128  -0.00478   0.03623  -2.29867
   D13        3.09240  -0.00018  -0.02181  -0.00511  -0.02679   3.06561
   D14        0.27715  -0.00031  -0.04963   0.00422  -0.04554   0.23161
         Item               Value     Threshold  Converged?
 Maximum Force            0.001975     0.000450     NO 
 RMS     Force            0.000747     0.000300     NO 
 Maximum Displacement     0.060669     0.001800     NO 
 RMS     Displacement     0.019051     0.001200     NO 
 Predicted change in Energy=-2.801222D-06
 GradGradGradGradGradGradGradGradGradGradGradGradGradGradGradGradGradGrad

                          Input orientation:                          
 ---------------------------------------------------------------------
 Center     Atomic      Atomic             Coordinates (Angstroms)
 Number     Number       Type             X           Y           Z
 ---------------------------------------------------------------------
      1          6           0        1.185295   -0.740527    0.114186
      2          9           0        1.862379    0.224792   -0.509754
      3          9           0        1.526208   -1.914113   -0.427619
      4          6           0       -0.282530   -0.503860    0.002613
      5          9           0       -0.445213    1.787583    0.569903
      6          9           0        1.594838   -0.767586    1.391322
      7          9           0       -2.200935    0.770668   -0.186640
      8          9           0       -0.566967    1.274972   -1.514589
      9          6           0       -0.854853    0.845143   -0.289363
     10          8           0       -1.048089   -1.454551    0.538913
     11          1           0       -1.977412   -1.198910    0.488381
 ---------------------------------------------------------------------
                    Distance matrix (angstroms):
                    1          2          3          4          5
     1  C    0.000000
     2  F    1.334010   0.000000
     3  F    1.336816   2.166718   0.000000
     4  C    1.490963   2.322517   2.333547   0.000000
     5  F    3.042626   2.988805   4.310928   2.366220   0.000000
     6  F    1.341467   2.161129   2.151227   2.350015   3.371264
     7  F    3.720317   4.112529   4.599750   2.310955   2.165418
     8  F    3.128189   2.830952   3.966503   2.355218   2.150047
     9  C    2.615226   2.795846   3.647198   1.494193   1.339529
    10  O    2.382903   3.520045   2.787900   1.333234   3.297856
    11  H    3.217585   4.215115   3.691331   1.895176   3.357592
                    6          7          8          9         10
     6  F    0.000000
     7  F    4.389086   0.000000
     8  F    4.158096   2.165092   0.000000
     9  C    3.380322   1.352048   1.329966   0.000000
    10  O    2.860697   2.609038   3.449442   2.451933   0.000000
    11  H    3.709759   2.094004   3.481572   2.458288   0.965167
                   11
    11  H    0.000000
 Stoichiometry    C3HF6O(2)
 Framework group  C1[X(C3HF6O)]
 Deg. of freedom    27
 Full point group                 C1      NOp   1
 Largest Abelian subgroup         C1      NOp   1
 Largest concise Abelian subgroup C1      NOp   1
                         Standard orientation:                         
 ---------------------------------------------------------------------
 Center     Atomic      Atomic             Coordinates (Angstroms)
 Number     Number       Type             X           Y           Z
 ---------------------------------------------------------------------
      1          6           0       -1.319170   -0.127145   -0.019655
      2          9           0       -1.177237   -1.436505   -0.231824
      3          9           0       -2.208493    0.349314   -0.896678
      4          6           0       -0.007151    0.568221   -0.153971
      5          9           0        1.408744   -0.822059    1.134966
      6          9           0       -1.851320    0.034107    1.201142
      7          9           0        2.293134    0.762396   -0.046724
      8          9           0        1.513889   -1.016544   -1.003684
      9          6           0        1.295953   -0.150218   -0.018396
     10          8           0       -0.057480    1.894322   -0.025774
     11          1           0        0.833597    2.263899   -0.056458
 ---------------------------------------------------------------------
 Rotational constants (GHZ):           2.1101853           1.0215416           0.9042591
 Standard basis: 6-311+G(2d) (5D, 7F)
 There are   293 symmetry adapted cartesian basis functions of A   symmetry.
 There are   273 symmetry adapted basis functions of A   symmetry.
   273 basis functions,   425 primitive gaussians,   293 cartesian basis functions
    41 alpha electrons       40 beta electrons
       nuclear repulsion energy       640.8807774907 Hartrees.
 NAtoms=   11 NActive=   11 NUniq=   11 SFac= 1.00D+00 NAtFMM=   60 NAOKFM=F Big=F
 Integral buffers will be    131072 words long.
 Raffenetti 2 integral format.
 Two-electron integral symmetry is turned on.
 Nuclear repulsion after empirical dispersion term =      640.8764272014 Hartrees.
 One-electron integrals computed using PRISM.
 NBasis=   273 RedAO= T EigKep=  6.31D-05  NBF=   273
 NBsUse=   273 1.00D-06 EigRej= -1.00D+00 NBFU=   273
 Initial guess from the checkpoint file:  "hfp_2oh_2rad_prod.chk"
 B after Tr=    -0.000000   -0.000000    0.000000
         Rot=    0.999943   -0.010658    0.000116   -0.000433 Ang=  -1.22 deg.
 Initial guess <Sx>= 0.0000 <Sy>= 0.0000 <Sz>= 0.5000 <S**2>= 0.7539 S= 0.5019
 ExpMin= 4.38D-02 ExpMax= 1.14D+04 ExpMxC= 1.72D+03 IAcc=2 IRadAn=         4 AccDes= 0.00D+00
 Harris functional with IExCor= 4639 and IRadAn=       4 diagonalized for initial guess.
 HarFok:  IExCor= 4639 AccDes= 0.00D+00 IRadAn=         4 IDoV= 1 UseB2=F ITyADJ=14
 ICtDFT=  3500011 ScaDFX=  1.000000  1.000000  1.000000  1.000000
 FoFCou: FMM=F IPFlag=           0 FMFlag=      100000 FMFlg1=           0
         NFxFlg=           0 DoJE=T BraDBF=F KetDBF=T FulRan=T
         wScrn=  0.000000 ICntrl=       500 IOpCl=  0 I1Cent=   200000004 NGrid=           0
         NMat0=    1 NMatS0=      1 NMatT0=    0 NMatD0=    1 NMtDS0=    0 NMtDT0=    0
 Petite list used in FoFCou.
 Keep R1 and R2 ints in memory in canonical form, NReq=2824723821.
 Requested convergence on RMS density matrix=1.00D-08 within 128 cycles.
 Requested convergence on MAX density matrix=1.00D-06.
 Requested convergence on             energy=1.00D-06.
 No special actions if energy rises.
 SCF Done:  E(UwB97XD) =  -789.188955309     A.U. after   12 cycles
            NFock= 12  Conv=0.28D-08     -V/T= 2.0026
 <Sx>= 0.0000 <Sy>= 0.0000 <Sz>= 0.5000 <S**2>= 0.7539 S= 0.5020
 <L.S>= 0.000000000000E+00
 Annihilation of the first spin contaminant:
 S**2 before annihilation     0.7539,   after     0.7500
 Calling FoFJK, ICntrl=      2127 FMM=F ISym2X=0 I1Cent= 0 IOpClX= 1 NMat=1 NMatS=1 NMatT=0.
 ***** Axes restored to original set *****
 -------------------------------------------------------------------
 Center     Atomic                   Forces (Hartrees/Bohr)
 Number     Number              X              Y              Z
 -------------------------------------------------------------------
      1        6          -0.000906549   -0.000279847   -0.000566494
      2        9          -0.000022862    0.000029005    0.000006053
      3        9          -0.000000007    0.000151554    0.000249152
      4        6          -0.000071271    0.000117339   -0.001083550
      5        9          -0.000192520    0.000197069   -0.000360628
      6        9           0.000491824   -0.000154868    0.000767029
      7        9           0.000725439    0.000139146   -0.000120558
      8        9           0.000240361    0.000518061   -0.000735970
      9        6          -0.000808033   -0.000510951    0.001509144
     10        8           0.000313907   -0.000399937    0.000369765
     11        1           0.000229710    0.000193430   -0.000033943
 -------------------------------------------------------------------
 Cartesian Forces:  Max     0.001509144 RMS     0.000512469

 GradGradGradGradGradGradGradGradGradGradGradGradGradGradGradGradGradGrad
 Berny optimization.
 Using GEDIIS/GDIIS optimizer.
 FormGI is forming the generalized inverse of G from B-inverse, IUseBI=4.
 Internal  Forces:  Max     0.000898195 RMS     0.000338168
 Search for a local minimum.
 Step number  18 out of a maximum of   50
 All quantities printed in internal units (Hartrees-Bohrs-Radians)
 Mixed Optimization -- En-DIIS/RFO-DIIS
 Swapping is turned off.
 Update second derivatives using D2CorX and points   13   14   15   16   17
                                                     18
 DE= -3.33D-05 DEPred=-2.80D-06 R= 1.19D+01
 TightC=F SS=  1.41D+00  RLast= 1.28D-01 DXNew= 2.2619D+00 3.8519D-01
 Trust test= 1.19D+01 RLast= 1.28D-01 DXMaxT set to 1.34D+00
 ITU=  1  1  1  1  1  1  0  1  1  1  1  1  0  0  1  1  1  0
     Eigenvalues ---    0.00043   0.00125   0.00639   0.01084   0.10330
     Eigenvalues ---    0.10845   0.11224   0.11484   0.18503   0.23727
     Eigenvalues ---    0.24598   0.24689   0.24927   0.26441   0.27365
     Eigenvalues ---    0.27948   0.30856   0.39261   0.42048   0.47568
     Eigenvalues ---    0.49466   0.54029   0.54942   0.55299   0.56386
     Eigenvalues ---    0.56713   0.70359
 En-DIIS/RFO-DIIS/Sim-DIIS IScMMF=       -3 using points:    18   17   16   15   14   13
 RFO step:  Lambda=-9.44764788D-05.
 DidBck=T Rises=F RFO-DIIS coefs:    0.51279    0.73416   -2.00000    1.58524    0.00516
                  RFO-DIIS coefs:    0.16265
 Iteration  1 RMS(Cart)=  0.04867670 RMS(Int)=  0.00137771
 Iteration  2 RMS(Cart)=  0.00165116 RMS(Int)=  0.00022507
 Iteration  3 RMS(Cart)=  0.00000093 RMS(Int)=  0.00022507
 Variable       Old X    -DE/DX   Delta X   Delta X   Delta X     New X
                                 (Linear)    (Quad)   (Total)
    R1        2.52091   0.00001  -0.00043   0.00058   0.00015   2.52106
    R2        2.52622  -0.00023   0.00161  -0.00469  -0.00308   2.52314
    R3        2.81751  -0.00036  -0.00271   0.00602   0.00330   2.82081
    R4        2.53500   0.00088  -0.00054   0.00376   0.00322   2.53823
    R5        2.82362   0.00027  -0.00151   0.00673   0.00522   2.82883
    R6        2.51945  -0.00003  -0.00066   0.00212   0.00147   2.52092
    R7        2.53134  -0.00015   0.00020   0.00207   0.00227   2.53361
    R8        2.55500  -0.00074  -0.00082  -0.00082  -0.00164   2.55336
    R9        2.51327   0.00090   0.00040  -0.00218  -0.00178   2.51149
   R10        1.82390  -0.00017  -0.00014  -0.00007  -0.00021   1.82369
    A1        1.89259   0.00004  -0.00003   0.00162   0.00158   1.89417
    A2        1.92817  -0.00011  -0.00149   0.00245   0.00096   1.92913
    A3        1.88066  -0.00011   0.00205  -0.00517  -0.00312   1.87754
    A4        1.93915   0.00006   0.00141  -0.00448  -0.00307   1.93608
    A5        1.86533  -0.00031  -0.00067   0.00016  -0.00050   1.86483
    A6        1.95520   0.00042  -0.00118   0.00523   0.00406   1.95925
    A7        2.13533   0.00037   0.00026  -0.01147  -0.01199   2.12334
    A8        2.00646  -0.00071  -0.00398  -0.00706  -0.01175   1.99471
    A9        2.09722   0.00030   0.00061  -0.01018  -0.01042   2.08680
   A10        1.97438   0.00064   0.00113   0.00130   0.00244   1.97681
   A11        1.89311   0.00008   0.00014  -0.00077  -0.00063   1.89248
   A12        1.97022   0.00011  -0.00036  -0.00138  -0.00174   1.96849
   A13        1.86971  -0.00025  -0.00045  -0.00151  -0.00195   1.86775
   A14        1.87274  -0.00050  -0.00128   0.00091  -0.00036   1.87237
   A15        1.87895  -0.00013   0.00080   0.00145   0.00226   1.88121
   A16        1.92086  -0.00044  -0.00138  -0.00030  -0.00168   1.91918
    D1       -0.37157  -0.00007   0.03371  -0.14627  -0.11242  -0.48399
    D2        3.08506   0.00001   0.03507  -0.04515  -0.01021   3.07485
    D3       -2.47290  -0.00008   0.03383  -0.14699  -0.11302  -2.58592
    D4        0.98373  -0.00000   0.03519  -0.04586  -0.01082   0.97291
    D5        1.72533  -0.00001   0.03451  -0.14765  -0.11300   1.61233
    D6       -1.10122   0.00007   0.03587  -0.04653  -0.01079  -1.11202
    D7       -0.95702   0.00016  -0.01647   0.03680   0.02040  -0.93662
    D8       -3.02870   0.00003  -0.01671   0.03840   0.02177  -3.00693
    D9        1.17383   0.00007  -0.01759   0.03796   0.02044   1.19427
   D10        1.85367  -0.00009  -0.01832  -0.06889  -0.08729   1.76638
   D11       -0.21801  -0.00023  -0.01856  -0.06729  -0.08593  -0.30393
   D12       -2.29867  -0.00019  -0.01943  -0.06774  -0.08725  -2.38591
   D13        3.06561  -0.00009   0.00796  -0.04081  -0.03273   3.03288
   D14        0.23161  -0.00003   0.00939   0.05819   0.06746   0.29907
         Item               Value     Threshold  Converged?
 Maximum Force            0.000898     0.000450     NO 
 RMS     Force            0.000338     0.000300     NO 
 Maximum Displacement     0.143000     0.001800     NO 
 RMS     Displacement     0.048814     0.001200     NO 
 Predicted change in Energy=-3.732514D-05
 GradGradGradGradGradGradGradGradGradGradGradGradGradGradGradGradGradGrad

                          Input orientation:                          
 ---------------------------------------------------------------------
 Center     Atomic      Atomic             Coordinates (Angstroms)
 Number     Number       Type             X           Y           Z
 ---------------------------------------------------------------------
      1          6           0        1.181886   -0.742540    0.100337
      2          9           0        1.864250    0.186462   -0.571319
      3          9           0        1.529440   -1.944349   -0.366123
      4          6           0       -0.287023   -0.519214   -0.043248
      5          9           0       -0.456360    1.750989    0.621036
      6          9           0        1.581308   -0.691913    1.381746
      7          9           0       -2.200960    0.768350   -0.200059
      8          9           0       -0.548926    1.325449   -1.484366
      9          6           0       -0.854537    0.845000   -0.283501
     10          8           0       -1.043234   -1.454403    0.533945
     11          1           0       -1.973122   -1.200220    0.488905
 ---------------------------------------------------------------------
                    Distance matrix (angstroms):
                    1          2          3          4          5
     1  C    0.000000
     2  F    1.334087   0.000000
     3  F    1.335188   2.166694   0.000000
     4  C    1.492710   2.324825   2.331265   0.000000
     5  F    3.028640   3.042151   4.309688   2.371449   0.000000
     6  F    1.343171   2.160108   2.150891   2.356076   3.270863
     7  F    3.717078   4.123392   4.615431   2.312048   2.164118
     8  F    3.127870   2.820348   4.032574   2.355460   2.149970
     9  C    2.610485   2.812173   3.670238   1.496954   1.340727
    10  O    2.376115   3.516747   2.769263   1.334011   3.259838
    11  H    3.211625   4.215731   3.681405   1.894700   3.320793
                    6          7          8          9         10
     6  F    0.000000
     7  F    4.352014   0.000000
     8  F    4.101493   2.165415   0.000000
     9  C    3.326934   1.351182   1.329025   0.000000
    10  O    2.861534   2.611460   3.470662   2.447668   0.000000
    11  H    3.699935   2.098058   3.507298   2.455762   0.965055
                   11
    11  H    0.000000
 Stoichiometry    C3HF6O(2)
 Framework group  C1[X(C3HF6O)]
 Deg. of freedom    27
 Full point group                 C1      NOp   1
 Largest Abelian subgroup         C1      NOp   1
 Largest concise Abelian subgroup C1      NOp   1
                         Standard orientation:                         
 ---------------------------------------------------------------------
 Center     Atomic      Atomic             Coordinates (Angstroms)
 Number     Number       Type             X           Y           Z
 ---------------------------------------------------------------------
      1          6           0       -1.316254   -0.126823   -0.026193
      2          9           0       -1.196135   -1.428278   -0.293730
      3          9           0       -2.244439    0.388833   -0.835697
      4          6           0       -0.007087    0.567516   -0.205518
      5          9           0        1.394960   -0.772518    1.159159
      6          9           0       -1.785538   -0.012017    1.227083
      7          9           0        2.293705    0.757485   -0.079694
      8          9           0        1.517244   -1.058174   -0.968237
      9          6           0        1.294128   -0.149946   -0.023967
     10          8           0       -0.059204    1.889528   -0.034770
     11          1           0        0.830754    2.261306   -0.067727
 ---------------------------------------------------------------------
 Rotational constants (GHZ):           2.1134984           1.0245284           0.9067269
 Standard basis: 6-311+G(2d) (5D, 7F)
 There are   293 symmetry adapted cartesian basis functions of A   symmetry.
 There are   273 symmetry adapted basis functions of A   symmetry.
   273 basis functions,   425 primitive gaussians,   293 cartesian basis functions
    41 alpha electrons       40 beta electrons
       nuclear repulsion energy       641.2875559066 Hartrees.
 NAtoms=   11 NActive=   11 NUniq=   11 SFac= 1.00D+00 NAtFMM=   60 NAOKFM=F Big=F
 Integral buffers will be    131072 words long.
 Raffenetti 2 integral format.
 Two-electron integral symmetry is turned on.
 Nuclear repulsion after empirical dispersion term =      641.2831845495 Hartrees.
 One-electron integrals computed using PRISM.
 NBasis=   273 RedAO= T EigKep=  6.48D-05  NBF=   273
 NBsUse=   273 1.00D-06 EigRej= -1.00D+00 NBFU=   273
 Initial guess from the checkpoint file:  "hfp_2oh_2rad_prod.chk"
 B after Tr=     0.000000    0.000000    0.000000
         Rot=    0.999993    0.000459   -0.003703    0.000627 Ang=   0.43 deg.
 Initial guess <Sx>= 0.0000 <Sy>= 0.0000 <Sz>= 0.5000 <S**2>= 0.7540 S= 0.5020
 ExpMin= 4.38D-02 ExpMax= 1.14D+04 ExpMxC= 1.72D+03 IAcc=2 IRadAn=         4 AccDes= 0.00D+00
 Harris functional with IExCor= 4639 and IRadAn=       4 diagonalized for initial guess.
 HarFok:  IExCor= 4639 AccDes= 0.00D+00 IRadAn=         4 IDoV= 1 UseB2=F ITyADJ=14
 ICtDFT=  3500011 ScaDFX=  1.000000  1.000000  1.000000  1.000000
 FoFCou: FMM=F IPFlag=           0 FMFlag=      100000 FMFlg1=           0
         NFxFlg=           0 DoJE=T BraDBF=F KetDBF=T FulRan=T
         wScrn=  0.000000 ICntrl=       500 IOpCl=  0 I1Cent=   200000004 NGrid=           0
         NMat0=    1 NMatS0=      1 NMatT0=    0 NMatD0=    1 NMtDS0=    0 NMtDT0=    0
 Petite list used in FoFCou.
 Keep R1 and R2 ints in memory in canonical form, NReq=2824723821.
 Requested convergence on RMS density matrix=1.00D-08 within 128 cycles.
 Requested convergence on MAX density matrix=1.00D-06.
 Requested convergence on             energy=1.00D-06.
 No special actions if energy rises.
 SCF Done:  E(UwB97XD) =  -789.188966194     A.U. after   12 cycles
            NFock= 12  Conv=0.54D-08     -V/T= 2.0026
 <Sx>= 0.0000 <Sy>= 0.0000 <Sz>= 0.5000 <S**2>= 0.7538 S= 0.5019
 <L.S>= 0.000000000000E+00
 Annihilation of the first spin contaminant:
 S**2 before annihilation     0.7538,   after     0.7500
 Calling FoFJK, ICntrl=      2127 FMM=F ISym2X=0 I1Cent= 0 IOpClX= 1 NMat=1 NMatS=1 NMatT=0.
 ***** Axes restored to original set *****
 -------------------------------------------------------------------
 Center     Atomic                   Forces (Hartrees/Bohr)
 Number     Number              X              Y              Z
 -------------------------------------------------------------------
      1        6           0.000537663   -0.000201420   -0.000242680
      2        9          -0.000206730    0.000039765   -0.000093262
      3        9          -0.000075235   -0.000126998   -0.000136895
      4        6           0.000303581    0.000560039    0.000825104
      5        9          -0.000148017   -0.000468520   -0.000410202
      6        9          -0.000467346    0.000063390   -0.000025731
      7        9           0.000288259    0.000088753   -0.000096378
      8        9           0.000192891    0.000080844   -0.000483223
      9        6          -0.000482881    0.000101154    0.000831443
     10        8           0.000076400   -0.000153892   -0.000110729
     11        1          -0.000018586    0.000016886   -0.000057446
 -------------------------------------------------------------------
 Cartesian Forces:  Max     0.000831443 RMS     0.000328421

 GradGradGradGradGradGradGradGradGradGradGradGradGradGradGradGradGradGrad
 Berny optimization.
 Using GEDIIS/GDIIS optimizer.
 FormGI is forming the generalized inverse of G from B-inverse, IUseBI=4.
 Internal  Forces:  Max     0.000697419 RMS     0.000229253
 Search for a local minimum.
 Step number  19 out of a maximum of   50
 All quantities printed in internal units (Hartrees-Bohrs-Radians)
 Mixed Optimization -- En-DIIS/RFO-DIIS
 Swapping is turned off.
 Update second derivatives using D2CorX and points   15   16   17   18   19
 DE= -1.09D-05 DEPred=-3.73D-05 R= 2.92D-01
 Trust test= 2.92D-01 RLast= 2.62D-01 DXMaxT set to 1.34D+00
 ITU=  0  1  1  1  1  1  1  0  1  1  1  1  1  0  0  1  1  1  0
     Eigenvalues ---    0.00108   0.00159   0.00687   0.01053   0.10293
     Eigenvalues ---    0.10805   0.11139   0.11445   0.18165   0.23272
     Eigenvalues ---    0.24104   0.24348   0.24956   0.26528   0.27089
     Eigenvalues ---    0.28230   0.30426   0.36276   0.39801   0.47697
     Eigenvalues ---    0.48886   0.54102   0.54812   0.55312   0.56195
     Eigenvalues ---    0.56773   0.65021
 En-DIIS/RFO-DIIS/Sim-DIIS IScMMF=       -3 using points:    19   18   17   16   15   14   13
 RFO step:  Lambda=-4.05846219D-05.
 DIIS inversion failure, remove point   7.
 DIIS inversion failure, remove point   6.
 RFO-DIIS uses    5 points instead of    7
 DidBck=T Rises=F RFO-DIIS coefs:   -0.05053    0.77412    0.45988   -2.00000    1.81653
                  RFO-DIIS coefs:    0.00000    0.00000
 Iteration  1 RMS(Cart)=  0.03158658 RMS(Int)=  0.00060595
 Iteration  2 RMS(Cart)=  0.00071166 RMS(Int)=  0.00018500
 Iteration  3 RMS(Cart)=  0.00000024 RMS(Int)=  0.00018500
 Variable       Old X    -DE/DX   Delta X   Delta X   Delta X     New X
                                 (Linear)    (Quad)   (Total)
    R1        2.52106  -0.00003  -0.00073   0.00063  -0.00011   2.52095
    R2        2.52314   0.00014   0.00485  -0.00319   0.00166   2.52480
    R3        2.82081  -0.00022  -0.00595   0.00318  -0.00277   2.81804
    R4        2.53823  -0.00016  -0.00389   0.00363  -0.00026   2.53797
    R5        2.82883  -0.00010  -0.00636   0.00327  -0.00309   2.82575
    R6        2.52092  -0.00001  -0.00279   0.00276  -0.00003   2.52089
    R7        2.53361  -0.00064  -0.00152  -0.00048  -0.00200   2.53161
    R8        2.55336  -0.00030   0.00090  -0.00259  -0.00170   2.55167
    R9        2.51149   0.00051   0.00148   0.00231   0.00379   2.51528
   R10        1.82369   0.00003   0.00002   0.00001   0.00002   1.82371
    A1        1.89417   0.00017  -0.00191   0.00145  -0.00047   1.89370
    A2        1.92913  -0.00022  -0.00190   0.00093  -0.00096   1.92817
    A3        1.87754   0.00044   0.00549  -0.00356   0.00194   1.87948
    A4        1.93608  -0.00002   0.00452  -0.00209   0.00243   1.93851
    A5        1.86483   0.00038  -0.00013  -0.00046  -0.00060   1.86423
    A6        1.95925  -0.00070  -0.00589   0.00360  -0.00229   1.95696
    A7        2.12334   0.00014   0.01233  -0.00356   0.00940   2.13274
    A8        1.99471  -0.00012   0.00770  -0.00362   0.00479   1.99949
    A9        2.08680   0.00005   0.01130  -0.00476   0.00715   2.09395
   A10        1.97681  -0.00008  -0.00069   0.00097   0.00028   1.97709
   A11        1.89248   0.00023   0.00130  -0.00082   0.00048   1.89296
   A12        1.96849  -0.00026   0.00101  -0.00128  -0.00027   1.96821
   A13        1.86775   0.00001   0.00059   0.00071   0.00131   1.86906
   A14        1.87237   0.00011  -0.00111   0.00007  -0.00105   1.87132
   A15        1.88121  -0.00000  -0.00116   0.00046  -0.00071   1.88050
   A16        1.91918  -0.00007   0.00227  -0.00425  -0.00199   1.91719
    D1       -0.48399   0.00014   0.14897  -0.07309   0.07592  -0.40807
    D2        3.07485  -0.00005   0.05758  -0.04182   0.01573   3.09057
    D3       -2.58592   0.00009   0.14966  -0.07416   0.07555  -2.51038
    D4        0.97291  -0.00010   0.05828  -0.04288   0.01535   0.98826
    D5        1.61233   0.00009   0.15070  -0.07456   0.07619   1.68852
    D6       -1.11202  -0.00011   0.05932  -0.04328   0.01599  -1.09603
    D7       -0.93662  -0.00003  -0.03886   0.01300  -0.02575  -0.96237
    D8       -3.00693  -0.00016  -0.04006   0.01206  -0.02788  -3.03481
    D9        1.19427  -0.00014  -0.04009   0.01283  -0.02714   1.16713
   D10        1.76638   0.00013   0.05681  -0.01960   0.03710   1.80348
   D11       -0.30393   0.00001   0.05562  -0.02053   0.03497  -0.26896
   D12       -2.38591   0.00002   0.05558  -0.01976   0.03570  -2.35021
   D13        3.03288   0.00015   0.04429  -0.02549   0.01882   3.05170
   D14        0.29907  -0.00007  -0.04527   0.00477  -0.04052   0.25855
         Item               Value     Threshold  Converged?
 Maximum Force            0.000697     0.000450     NO 
 RMS     Force            0.000229     0.000300     YES
 Maximum Displacement     0.101797     0.001800     NO 
 RMS     Displacement     0.031652     0.001200     NO 
 Predicted change in Energy=-1.687037D-05
 GradGradGradGradGradGradGradGradGradGradGradGradGradGradGradGradGradGrad

                          Input orientation:                          
 ---------------------------------------------------------------------
 Center     Atomic      Atomic             Coordinates (Angstroms)
 Number     Number       Type             X           Y           Z
 ---------------------------------------------------------------------
      1          6           0        1.183453   -0.742667    0.106428
      2          9           0        1.861779    0.211517   -0.533137
      3          9           0        1.525772   -1.925805   -0.411335
      4          6           0       -0.284469   -0.509258   -0.014134
      5          9           0       -0.462678    1.773912    0.593698
      6          9           0        1.591749   -0.745782    1.385892
      7          9           0       -2.201546    0.765691   -0.206894
      8          9           0       -0.548767    1.298279   -1.501157
      9          6           0       -0.856039    0.845112   -0.287952
     10          8           0       -1.043756   -1.452304    0.545951
     11          1           0       -1.972777   -1.195084    0.499995
 ---------------------------------------------------------------------
                    Distance matrix (angstroms):
                    1          2          3          4          5
     1  C    0.000000
     2  F    1.334030   0.000000
     3  F    1.336068   2.166999   0.000000
     4  C    1.491245   2.322770   2.332669   0.000000
     5  F    3.046367   3.018930   4.318789   2.369406   0.000000
     6  F    1.343035   2.161483   2.151008   2.352916   3.346207
     7  F    3.719077   4.113898   4.602048   2.310376   2.163590
     8  F    3.122559   2.815821   3.985742   2.355478   2.149897
     9  C    2.614595   2.801445   3.655985   1.495321   1.339668
    10  O    2.378493   3.517793   2.782638   1.333998   3.278475
    11  H    3.212688   4.213040   3.688403   1.893428   3.332284
                    6          7          8          9         10
     6  F    0.000000
     7  F    4.382991   0.000000
     8  F    4.134616   2.165743   0.000000
     9  C    3.365169   1.350284   1.331031   0.000000
    10  O    2.854919   2.612806   3.464300   2.451275   0.000000
    11  H    3.700342   2.096823   3.499896   2.455679   0.965066
                   11
    11  H    0.000000
 Stoichiometry    C3HF6O(2)
 Framework group  C1[X(C3HF6O)]
 Deg. of freedom    27
 Full point group                 C1      NOp   1
 Largest Abelian subgroup         C1      NOp   1
 Largest concise Abelian subgroup C1      NOp   1
                         Standard orientation:                         
 ---------------------------------------------------------------------
 Center     Atomic      Atomic             Coordinates (Angstroms)
 Number     Number       Type             X           Y           Z
 ---------------------------------------------------------------------
      1          6           0       -1.318069   -0.127973   -0.022413
      2          9           0       -1.181342   -1.436189   -0.244927
      3          9           0       -2.220869    0.355914   -0.880248
      4          6           0       -0.007442    0.566886   -0.174855
      5          9           0        1.414503   -0.786000    1.152493
      6          9           0       -1.831452    0.024966    1.209168
      7          9           0        2.292784    0.760881   -0.079131
      8          9           0        1.508832   -1.046091   -0.979527
      9          6           0        1.296444   -0.148547   -0.019866
     10          8           0       -0.062054    1.891830   -0.029626
     11          1           0        0.828726    2.261834   -0.060637
 ---------------------------------------------------------------------
 Rotational constants (GHZ):           2.1115886           1.0220524           0.9047510
 Standard basis: 6-311+G(2d) (5D, 7F)
 There are   293 symmetry adapted cartesian basis functions of A   symmetry.
 There are   273 symmetry adapted basis functions of A   symmetry.
   273 basis functions,   425 primitive gaussians,   293 cartesian basis functions
    41 alpha electrons       40 beta electrons
       nuclear repulsion energy       640.9626826507 Hartrees.
 NAtoms=   11 NActive=   11 NUniq=   11 SFac= 1.00D+00 NAtFMM=   60 NAOKFM=F Big=F
 Integral buffers will be    131072 words long.
 Raffenetti 2 integral format.
 Two-electron integral symmetry is turned on.
 Nuclear repulsion after empirical dispersion term =      640.9583263601 Hartrees.
 One-electron integrals computed using PRISM.
 NBasis=   273 RedAO= T EigKep=  6.41D-05  NBF=   273
 NBsUse=   273 1.00D-06 EigRej= -1.00D+00 NBFU=   273
 Initial guess from the checkpoint file:  "hfp_2oh_2rad_prod.chk"
 B after Tr=    -0.000000    0.000000   -0.000000
         Rot=    0.999991    0.003657    0.001879   -0.000843 Ang=   0.48 deg.
 Initial guess <Sx>= 0.0000 <Sy>= 0.0000 <Sz>= 0.5000 <S**2>= 0.7538 S= 0.5019
 ExpMin= 4.38D-02 ExpMax= 1.14D+04 ExpMxC= 1.72D+03 IAcc=2 IRadAn=         4 AccDes= 0.00D+00
 Harris functional with IExCor= 4639 and IRadAn=       4 diagonalized for initial guess.
 HarFok:  IExCor= 4639 AccDes= 0.00D+00 IRadAn=         4 IDoV= 1 UseB2=F ITyADJ=14
 ICtDFT=  3500011 ScaDFX=  1.000000  1.000000  1.000000  1.000000
 FoFCou: FMM=F IPFlag=           0 FMFlag=      100000 FMFlg1=           0
         NFxFlg=           0 DoJE=T BraDBF=F KetDBF=T FulRan=T
         wScrn=  0.000000 ICntrl=       500 IOpCl=  0 I1Cent=   200000004 NGrid=           0
         NMat0=    1 NMatS0=      1 NMatT0=    0 NMatD0=    1 NMtDS0=    0 NMtDT0=    0
 Petite list used in FoFCou.
 Keep R1 and R2 ints in memory in canonical form, NReq=2824723821.
 Requested convergence on RMS density matrix=1.00D-08 within 128 cycles.
 Requested convergence on MAX density matrix=1.00D-06.
 Requested convergence on             energy=1.00D-06.
 No special actions if energy rises.
 SCF Done:  E(UwB97XD) =  -789.188980475     A.U. after   12 cycles
            NFock= 12  Conv=0.55D-08     -V/T= 2.0026
 <Sx>= 0.0000 <Sy>= 0.0000 <Sz>= 0.5000 <S**2>= 0.7539 S= 0.5019
 <L.S>= 0.000000000000E+00
 Annihilation of the first spin contaminant:
 S**2 before annihilation     0.7539,   after     0.7500
 Calling FoFJK, ICntrl=      2127 FMM=F ISym2X=0 I1Cent= 0 IOpClX= 1 NMat=1 NMatS=1 NMatT=0.
 ***** Axes restored to original set *****
 -------------------------------------------------------------------
 Center     Atomic                   Forces (Hartrees/Bohr)
 Number     Number              X              Y              Z
 -------------------------------------------------------------------
      1        6           0.000143053    0.000048646    0.000006233
      2        9           0.000012143   -0.000102808    0.000030263
      3        9          -0.000055413    0.000053604   -0.000003741
      4        6           0.000183190   -0.000192763   -0.000081769
      5        9          -0.000028581    0.000010317   -0.000009958
      6        9          -0.000154905    0.000046462   -0.000088793
      7        9          -0.000235477    0.000068741    0.000009844
      8        9          -0.000087954   -0.000112629    0.000191394
      9        6           0.000262999   -0.000081795   -0.000001048
     10        8           0.000066876    0.000432935   -0.000073162
     11        1          -0.000105930   -0.000170710    0.000020736
 -------------------------------------------------------------------
 Cartesian Forces:  Max     0.000432935 RMS     0.000133048

 GradGradGradGradGradGradGradGradGradGradGradGradGradGradGradGradGradGrad
 Berny optimization.
 Using GEDIIS/GDIIS optimizer.
 FormGI is forming the generalized inverse of G from B-inverse, IUseBI=4.
 Internal  Forces:  Max     0.000329341 RMS     0.000111422
 Search for a local minimum.
 Step number  20 out of a maximum of   50
 All quantities printed in internal units (Hartrees-Bohrs-Radians)
 Mixed Optimization -- En-DIIS/RFO-DIIS
 Swapping is turned off.
 Update second derivatives using D2CorX and points   13   14   15   16   17
                                                     18   19   20
 DE= -1.43D-05 DEPred=-1.69D-05 R= 8.47D-01
 TightC=F SS=  1.41D+00  RLast= 1.62D-01 DXNew= 2.2619D+00 4.8643D-01
 Trust test= 8.47D-01 RLast= 1.62D-01 DXMaxT set to 1.34D+00
 ITU=  1  0  1  1  1  1  1  1  0  1  1  1  1  1  0  0  1  1  1  0
     Eigenvalues ---    0.00107   0.00173   0.00779   0.01060   0.10175
     Eigenvalues ---    0.10423   0.11058   0.11478   0.18052   0.21957
     Eigenvalues ---    0.24343   0.24475   0.24652   0.26441   0.26568
     Eigenvalues ---    0.27864   0.30357   0.35127   0.39670   0.46427
     Eigenvalues ---    0.48334   0.52558   0.54686   0.55297   0.55728
     Eigenvalues ---    0.56571   0.58908
 En-DIIS/RFO-DIIS/Sim-DIIS IScMMF=       -3 using points:    20   19   18   17   16   15   14   13
 RFO step:  Lambda=-5.94409891D-06.
 DIIS inversion failure, remove point   8.
 DIIS inversion failure, remove point   7.
 DIIS inversion failure, remove point   6.
 RFO-DIIS uses    5 points instead of    8
 DidBck=T Rises=F RFO-DIIS coefs:    0.69875    0.18904    0.07898    0.25878   -0.22556
                  RFO-DIIS coefs:    0.00000    0.00000    0.00000
 Iteration  1 RMS(Cart)=  0.01543707 RMS(Int)=  0.00015652
 Iteration  2 RMS(Cart)=  0.00015905 RMS(Int)=  0.00007637
 Iteration  3 RMS(Cart)=  0.00000001 RMS(Int)=  0.00007637
 Variable       Old X    -DE/DX   Delta X   Delta X   Delta X     New X
                                 (Linear)    (Quad)   (Total)
    R1        2.52095  -0.00008   0.00012  -0.00021  -0.00009   2.52086
    R2        2.52480  -0.00006  -0.00062  -0.00024  -0.00087   2.52394
    R3        2.81804  -0.00007   0.00151  -0.00087   0.00064   2.81868
    R4        2.53797  -0.00013  -0.00058   0.00061   0.00003   2.53800
    R5        2.82575  -0.00010   0.00089   0.00013   0.00102   2.82676
    R6        2.52089  -0.00019  -0.00005  -0.00018  -0.00023   2.52066
    R7        2.53161  -0.00001   0.00081  -0.00060   0.00021   2.53182
    R8        2.55167   0.00023   0.00151  -0.00069   0.00083   2.55249
    R9        2.51528  -0.00023  -0.00241   0.00114  -0.00127   2.51402
   R10        1.82371   0.00006   0.00006  -0.00004   0.00002   1.82373
    A1        1.89370  -0.00003   0.00027   0.00030   0.00056   1.89427
    A2        1.92817   0.00017   0.00033   0.00013   0.00046   1.92863
    A3        1.87948   0.00004  -0.00071   0.00035  -0.00036   1.87912
    A4        1.93851  -0.00006  -0.00132   0.00014  -0.00119   1.93732
    A5        1.86423   0.00012   0.00094  -0.00008   0.00086   1.86509
    A6        1.95696  -0.00024   0.00052  -0.00080  -0.00028   1.95668
    A7        2.13274   0.00013  -0.00390   0.00116  -0.00301   2.12973
    A8        1.99949   0.00001  -0.00041  -0.00142  -0.00211   1.99738
    A9        2.09395  -0.00015  -0.00298   0.00035  -0.00290   2.09105
   A10        1.97709   0.00004  -0.00082   0.00077  -0.00005   1.97704
   A11        1.89296   0.00013  -0.00035   0.00095   0.00060   1.89356
   A12        1.96821  -0.00006   0.00028  -0.00056  -0.00027   1.96794
   A13        1.86906  -0.00008  -0.00058   0.00024  -0.00033   1.86872
   A14        1.87132   0.00002   0.00130  -0.00109   0.00021   1.87153
   A15        1.88050  -0.00006   0.00017  -0.00033  -0.00016   1.88034
   A16        1.91719   0.00033   0.00107   0.00046   0.00153   1.91872
    D1       -0.40807  -0.00004  -0.03585   0.00019  -0.03566  -0.44373
    D2        3.09057   0.00003  -0.01163  -0.00012  -0.01176   3.07881
    D3       -2.51038  -0.00007  -0.03553  -0.00037  -0.03589  -2.54627
    D4        0.98826  -0.00001  -0.01132  -0.00067  -0.01200   0.97627
    D5        1.68852  -0.00003  -0.03617   0.00018  -0.03599   1.65253
    D6       -1.09603   0.00004  -0.01196  -0.00013  -0.01209  -1.10812
    D7       -0.96237   0.00004   0.01212   0.00094   0.01304  -0.94934
    D8       -3.03481   0.00003   0.01358  -0.00047   0.01309  -3.02172
    D9        1.16713   0.00005   0.01343  -0.00035   0.01306   1.18018
   D10        1.80348   0.00000  -0.01291   0.00093  -0.01195   1.79153
   D11       -0.26896  -0.00001  -0.01144  -0.00048  -0.01190  -0.28085
   D12       -2.35021   0.00001  -0.01159  -0.00036  -0.01193  -2.36214
   D13        3.05170   0.00006  -0.00555   0.00132  -0.00423   3.04747
   D14        0.25855   0.00007   0.01830   0.00083   0.01912   0.27767
         Item               Value     Threshold  Converged?
 Maximum Force            0.000329     0.000450     YES
 RMS     Force            0.000111     0.000300     YES
 Maximum Displacement     0.050246     0.001800     NO 
 RMS     Displacement     0.015449     0.001200     NO 
 Predicted change in Energy=-2.021305D-06
 GradGradGradGradGradGradGradGradGradGradGradGradGradGradGradGradGradGrad

                          Input orientation:                          
 ---------------------------------------------------------------------
 Center     Atomic      Atomic             Coordinates (Angstroms)
 Number     Number       Type             X           Y           Z
 ---------------------------------------------------------------------
      1          6           0        1.183052   -0.742560    0.103932
      2          9           0        1.863219    0.198898   -0.552221
      3          9           0        1.526349   -1.935540   -0.388815
      4          6           0       -0.284985   -0.512841   -0.026126
      5          9           0       -0.458481    1.764753    0.605507
      6          9           0        1.586849   -0.719193    1.384629
      7          9           0       -2.201364    0.768026   -0.201197
      8          9           0       -0.550535    1.310144   -1.493468
      9          6           0       -0.855461    0.845568   -0.284728
     10          8           0       -1.043043   -1.453803    0.538817
     11          1           0       -1.972879   -1.199842    0.491023
 ---------------------------------------------------------------------
                    Distance matrix (angstroms):
                    1          2          3          4          5
     1  C    0.000000
     2  F    1.333981   0.000000
     3  F    1.335610   2.167028   0.000000
     4  C    1.491583   2.323388   2.331641   0.000000
     5  F    3.038557   3.030268   4.315135   2.369915   0.000000
     6  F    1.343050   2.161171   2.151340   2.352993   3.310648
     7  F    3.718770   4.119219   4.608722   2.311662   2.163764
     8  F    3.125797   2.819046   4.008512   2.355182   2.149613
     9  C    2.613187   2.807304   3.663116   1.495859   1.339780
    10  O    2.377076   3.516837   2.773869   1.333874   3.271889
    11  H    3.212297   4.214318   3.682385   1.894307   3.330966
                    6          7          8          9         10
     6  F    0.000000
     7  F    4.367748   0.000000
     8  F    4.119473   2.165431   0.000000
     9  C    3.346656   1.350721   1.330362   0.000000
    10  O    2.858563   2.612633   3.465854   2.449596   0.000000
    11  H    3.701516   2.098542   3.501613   2.456444   0.965078
                   11
    11  H    0.000000
 Stoichiometry    C3HF6O(2)
 Framework group  C1[X(C3HF6O)]
 Deg. of freedom    27
 Full point group                 C1      NOp   1
 Largest Abelian subgroup         C1      NOp   1
 Largest concise Abelian subgroup C1      NOp   1
                         Standard orientation:                         
 ---------------------------------------------------------------------
 Center     Atomic      Atomic             Coordinates (Angstroms)
 Number     Number       Type             X           Y           Z
 ---------------------------------------------------------------------
      1          6           0       -1.317571   -0.127872   -0.024009
      2          9           0       -1.188580   -1.432431   -0.270977
      3          9           0       -2.232261    0.373692   -0.858054
      4          6           0       -0.007659    0.566691   -0.186901
      5          9           0        1.405788   -0.782870    1.153752
      6          9           0       -1.809085    0.005010    1.218786
      7          9           0        2.293257    0.760050   -0.076561
      8          9           0        1.513581   -1.048549   -0.976654
      9          6           0        1.295531   -0.148759   -0.021304
     10          8           0       -0.061771    1.890394   -0.031655
     11          1           0        0.828069    2.262380   -0.066095
 ---------------------------------------------------------------------
 Rotational constants (GHZ):           2.1125817           1.0230724           0.9056129
 Standard basis: 6-311+G(2d) (5D, 7F)
 There are   293 symmetry adapted cartesian basis functions of A   symmetry.
 There are   273 symmetry adapted basis functions of A   symmetry.
   273 basis functions,   425 primitive gaussians,   293 cartesian basis functions
    41 alpha electrons       40 beta electrons
       nuclear repulsion energy       641.1139250056 Hartrees.
 NAtoms=   11 NActive=   11 NUniq=   11 SFac= 1.00D+00 NAtFMM=   60 NAOKFM=F Big=F
 Integral buffers will be    131072 words long.
 Raffenetti 2 integral format.
 Two-electron integral symmetry is turned on.
 Nuclear repulsion after empirical dispersion term =      641.1095616303 Hartrees.
 One-electron integrals computed using PRISM.
 NBasis=   273 RedAO= T EigKep=  6.43D-05  NBF=   273
 NBsUse=   273 1.00D-06 EigRej= -1.00D+00 NBFU=   273
 Initial guess from the checkpoint file:  "hfp_2oh_2rad_prod.chk"
 B after Tr=     0.000000    0.000000   -0.000000
         Rot=    0.999996   -0.002638   -0.000925    0.000302 Ang=  -0.32 deg.
 Initial guess <Sx>= 0.0000 <Sy>= 0.0000 <Sz>= 0.5000 <S**2>= 0.7539 S= 0.5019
 ExpMin= 4.38D-02 ExpMax= 1.14D+04 ExpMxC= 1.72D+03 IAcc=2 IRadAn=         4 AccDes= 0.00D+00
 Harris functional with IExCor= 4639 and IRadAn=       4 diagonalized for initial guess.
 HarFok:  IExCor= 4639 AccDes= 0.00D+00 IRadAn=         4 IDoV= 1 UseB2=F ITyADJ=14
 ICtDFT=  3500011 ScaDFX=  1.000000  1.000000  1.000000  1.000000
 FoFCou: FMM=F IPFlag=           0 FMFlag=      100000 FMFlg1=           0
         NFxFlg=           0 DoJE=T BraDBF=F KetDBF=T FulRan=T
         wScrn=  0.000000 ICntrl=       500 IOpCl=  0 I1Cent=   200000004 NGrid=           0
         NMat0=    1 NMatS0=      1 NMatT0=    0 NMatD0=    1 NMtDS0=    0 NMtDT0=    0
 Petite list used in FoFCou.
 Keep R1 and R2 ints in memory in canonical form, NReq=2824723821.
 Requested convergence on RMS density matrix=1.00D-08 within 128 cycles.
 Requested convergence on MAX density matrix=1.00D-06.
 Requested convergence on             energy=1.00D-06.
 No special actions if energy rises.
 SCF Done:  E(UwB97XD) =  -789.188983427     A.U. after   10 cycles
            NFock= 10  Conv=0.51D-08     -V/T= 2.0026
 <Sx>= 0.0000 <Sy>= 0.0000 <Sz>= 0.5000 <S**2>= 0.7539 S= 0.5019
 <L.S>= 0.000000000000E+00
 Annihilation of the first spin contaminant:
 S**2 before annihilation     0.7539,   after     0.7500
 Calling FoFJK, ICntrl=      2127 FMM=F ISym2X=0 I1Cent= 0 IOpClX= 1 NMat=1 NMatS=1 NMatT=0.
 ***** Axes restored to original set *****
 -------------------------------------------------------------------
 Center     Atomic                   Forces (Hartrees/Bohr)
 Number     Number              X              Y              Z
 -------------------------------------------------------------------
      1        6           0.000059739    0.000027643   -0.000077186
      2        9           0.000013398   -0.000050098    0.000023194
      3        9           0.000018518    0.000017903   -0.000013388
      4        6          -0.000061510    0.000076087    0.000085703
      5        9          -0.000033119   -0.000058738    0.000002798
      6        9          -0.000030200    0.000003152   -0.000023230
      7        9           0.000083796   -0.000030421    0.000013948
      8        9           0.000043402   -0.000030170   -0.000118001
      9        6          -0.000055000    0.000045445    0.000109280
     10        8          -0.000029523    0.000022031   -0.000005014
     11        1          -0.000009502   -0.000022835    0.000001897
 -------------------------------------------------------------------
 Cartesian Forces:  Max     0.000118001 RMS     0.000049600

 GradGradGradGradGradGradGradGradGradGradGradGradGradGradGradGradGradGrad
 Berny optimization.
 Using GEDIIS/GDIIS optimizer.
 FormGI is forming the generalized inverse of G from B-inverse, IUseBI=4.
 Internal  Forces:  Max     0.000106926 RMS     0.000043402
 Search for a local minimum.
 Step number  21 out of a maximum of   50
 All quantities printed in internal units (Hartrees-Bohrs-Radians)
 Mixed Optimization -- En-DIIS/RFO-DIIS
 Swapping is turned off.
 Update second derivatives using D2CorX and points   15   16   17   18   19
                                                     20   21
 DE= -2.95D-06 DEPred=-2.02D-06 R= 1.46D+00
 TightC=F SS=  1.41D+00  RLast= 7.51D-02 DXNew= 2.2619D+00 2.2526D-01
 Trust test= 1.46D+00 RLast= 7.51D-02 DXMaxT set to 1.34D+00
 ITU=  1  1  0  1  1  1  1  1  1  0  1  1  1  1  1  0  0  1  1  1
 ITU=  0
     Eigenvalues ---    0.00120   0.00150   0.00771   0.01068   0.09968
     Eigenvalues ---    0.10380   0.11078   0.11497   0.18020   0.20783
     Eigenvalues ---    0.24312   0.24433   0.24653   0.26318   0.26902
     Eigenvalues ---    0.27604   0.30505   0.34856   0.39879   0.45785
     Eigenvalues ---    0.48973   0.52288   0.54459   0.55353   0.55657
     Eigenvalues ---    0.56636   0.59081
 En-DIIS/RFO-DIIS/Sim-DIIS IScMMF=       -3 using points:    21   20   19   18   17   16   15   14   13
 RFO step:  Lambda=-1.17442556D-06.
 DIIS inversion failure, remove point   9.
 DIIS inversion failure, remove point   8.
 RFO-DIIS uses    7 points instead of    9
 DidBck=F Rises=F RFO-DIIS coefs:    0.94281    0.19479   -0.08969   -0.15144    0.06417
                  RFO-DIIS coefs:    0.15704   -0.11768    0.00000    0.00000
 Iteration  1 RMS(Cart)=  0.00517150 RMS(Int)=  0.00001473
 Iteration  2 RMS(Cart)=  0.00001780 RMS(Int)=  0.00000264
 Iteration  3 RMS(Cart)=  0.00000000 RMS(Int)=  0.00000264
 Variable       Old X    -DE/DX   Delta X   Delta X   Delta X     New X
                                 (Linear)    (Quad)   (Total)
    R1        2.52086  -0.00004  -0.00003  -0.00012  -0.00016   2.52070
    R2        2.52394  -0.00001   0.00035  -0.00012   0.00024   2.52417
    R3        2.81868   0.00005  -0.00033   0.00016  -0.00016   2.81852
    R4        2.53800  -0.00003  -0.00025   0.00012  -0.00013   2.53786
    R5        2.82676  -0.00008  -0.00076   0.00022  -0.00054   2.82622
    R6        2.52066   0.00002  -0.00005  -0.00001  -0.00006   2.52059
    R7        2.53182  -0.00005  -0.00010   0.00002  -0.00008   2.53174
    R8        2.55249  -0.00008  -0.00015  -0.00009  -0.00024   2.55225
    R9        2.51402   0.00011   0.00022   0.00015   0.00038   2.51440
   R10        1.82373   0.00000   0.00000  -0.00001  -0.00001   1.82372
    A1        1.89427  -0.00005  -0.00021  -0.00011  -0.00032   1.89395
    A2        1.92863   0.00007  -0.00005   0.00028   0.00023   1.92886
    A3        1.87912  -0.00001   0.00036  -0.00014   0.00021   1.87933
    A4        1.93732   0.00003   0.00039   0.00002   0.00041   1.93772
    A5        1.86509   0.00001  -0.00003  -0.00014  -0.00016   1.86493
    A6        1.95668  -0.00006  -0.00046   0.00007  -0.00039   1.95629
    A7        2.12973  -0.00000   0.00088   0.00007   0.00095   2.13068
    A8        1.99738   0.00002   0.00048  -0.00008   0.00040   1.99778
    A9        2.09105  -0.00002   0.00056   0.00002   0.00058   2.09163
   A10        1.97704  -0.00000   0.00011   0.00004   0.00015   1.97718
   A11        1.89356  -0.00006  -0.00011  -0.00007  -0.00018   1.89338
   A12        1.96794  -0.00010  -0.00025  -0.00006  -0.00031   1.96763
   A13        1.86872   0.00002   0.00001  -0.00006  -0.00004   1.86868
   A14        1.87153   0.00009   0.00011   0.00009   0.00020   1.87173
   A15        1.88034   0.00006   0.00015   0.00005   0.00019   1.88053
   A16        1.91872   0.00004  -0.00031   0.00043   0.00012   1.91884
    D1       -0.44373   0.00002   0.01155   0.00001   0.01156  -0.43217
    D2        3.07881   0.00000   0.00603  -0.00002   0.00601   3.08482
    D3       -2.54627   0.00001   0.01159  -0.00005   0.01154  -2.53473
    D4        0.97627  -0.00001   0.00607  -0.00008   0.00599   0.98226
    D5        1.65253   0.00002   0.01166   0.00007   0.01173   1.66426
    D6       -1.10812   0.00000   0.00614   0.00004   0.00618  -1.10194
    D7       -0.94934  -0.00004  -0.00532  -0.00008  -0.00540  -0.95474
    D8       -3.02172  -0.00002  -0.00533   0.00001  -0.00532  -3.02704
    D9        1.18018  -0.00000  -0.00528   0.00003  -0.00526   1.17493
   D10        1.79153  -0.00001   0.00046  -0.00007   0.00040   1.79193
   D11       -0.28085   0.00001   0.00045   0.00002   0.00048  -0.28037
   D12       -2.36214   0.00003   0.00050   0.00004   0.00055  -2.36159
   D13        3.04747   0.00002   0.00442   0.00006   0.00448   3.05195
   D14        0.27767   0.00000  -0.00104   0.00002  -0.00102   0.27665
         Item               Value     Threshold  Converged?
 Maximum Force            0.000107     0.000450     YES
 RMS     Force            0.000043     0.000300     YES
 Maximum Displacement     0.016516     0.001800     NO 
 RMS     Displacement     0.005173     0.001200     NO 
 Predicted change in Energy=-5.755581D-07
 GradGradGradGradGradGradGradGradGradGradGradGradGradGradGradGradGradGrad

                          Input orientation:                          
 ---------------------------------------------------------------------
 Center     Atomic      Atomic             Coordinates (Angstroms)
 Number     Number       Type             X           Y           Z
 ---------------------------------------------------------------------
      1          6           0        1.183147   -0.742599    0.104228
      2          9           0        1.862996    0.202801   -0.546395
      3          9           0        1.526048   -1.932415   -0.396718
      4          6           0       -0.284898   -0.511635   -0.022493
      5          9           0       -0.460866    1.767435    0.602479
      6          9           0        1.587977   -0.727932    1.384653
      7          9           0       -2.201481    0.767125   -0.204228
      8          9           0       -0.548779    1.306526   -1.495593
      9          6           0       -0.855629    0.845451   -0.285781
     10          8           0       -1.042899   -1.452105    0.543265
     11          1           0       -1.972895   -1.199042    0.493938
 ---------------------------------------------------------------------
                    Distance matrix (angstroms):
                    1          2          3          4          5
     1  C    0.000000
     2  F    1.333899   0.000000
     3  F    1.335736   2.166814   0.000000
     4  C    1.491496   2.323434   2.331991   0.000000
     5  F    3.041596   3.027925   4.316840   2.369750   0.000000
     6  F    1.342978   2.161215   2.151255   2.352554   3.322110
     7  F    3.718887   4.117708   4.606413   2.311178   2.163594
     8  F    3.123765   2.817063   4.000396   2.354860   2.149901
     9  C    2.613545   2.805680   3.660768   1.495572   1.339738
    10  O    2.377275   3.517144   2.777365   1.333841   3.272263
    11  H    3.212603   4.214442   3.684251   1.894350   3.331366
                    6          7          8          9         10
     6  F    0.000000
     7  F    4.372612   0.000000
     8  F    4.123175   2.165642   0.000000
     9  C    3.352178   1.350595   1.330561   0.000000
    10  O    2.855498   2.612669   3.465709   2.449725   0.000000
    11  H    3.700693   2.098928   3.502029   2.456867   0.965073
                   11
    11  H    0.000000
 Stoichiometry    C3HF6O(2)
 Framework group  C1[X(C3HF6O)]
 Deg. of freedom    27
 Full point group                 C1      NOp   1
 Largest Abelian subgroup         C1      NOp   1
 Largest concise Abelian subgroup C1      NOp   1
                         Standard orientation:                         
 ---------------------------------------------------------------------
 Center     Atomic      Atomic             Coordinates (Angstroms)
 Number     Number       Type             X           Y           Z
 ---------------------------------------------------------------------
      1          6           0       -1.317677   -0.127910   -0.023566
      2          9           0       -1.186689   -1.433977   -0.260876
      3          9           0       -2.228590    0.366992   -0.865884
      4          6           0       -0.007471    0.566491   -0.183966
      5          9           0        1.409257   -0.781416    1.154595
      6          9           0       -1.815773    0.013490    1.215585
      7          9           0        2.293259    0.759825   -0.080012
      8          9           0        1.510869   -1.049862   -0.976059
      9          6           0        1.295782   -0.148830   -0.020929
     10          8           0       -0.061605    1.890422   -0.030966
     11          1           0        0.828040    2.262649   -0.067639
 ---------------------------------------------------------------------
 Rotational constants (GHZ):           2.1124612           1.0228191           0.9054492
 Standard basis: 6-311+G(2d) (5D, 7F)
 There are   293 symmetry adapted cartesian basis functions of A   symmetry.
 There are   273 symmetry adapted basis functions of A   symmetry.
   273 basis functions,   425 primitive gaussians,   293 cartesian basis functions
    41 alpha electrons       40 beta electrons
       nuclear repulsion energy       641.0892101938 Hartrees.
 NAtoms=   11 NActive=   11 NUniq=   11 SFac= 1.00D+00 NAtFMM=   60 NAOKFM=F Big=F
 Integral buffers will be    131072 words long.
 Raffenetti 2 integral format.
 Two-electron integral symmetry is turned on.
 Nuclear repulsion after empirical dispersion term =      641.0848489224 Hartrees.
 One-electron integrals computed using PRISM.
 NBasis=   273 RedAO= T EigKep=  6.43D-05  NBF=   273
 NBsUse=   273 1.00D-06 EigRej= -1.00D+00 NBFU=   273
 Initial guess from the checkpoint file:  "hfp_2oh_2rad_prod.chk"
 B after Tr=    -0.000000   -0.000000    0.000000
         Rot=    0.999999    0.001492    0.000198   -0.000032 Ang=   0.17 deg.
 Initial guess <Sx>= 0.0000 <Sy>= 0.0000 <Sz>= 0.5000 <S**2>= 0.7539 S= 0.5019
 Keep R1 and R2 ints in memory in canonical form, NReq=2824723821.
 Requested convergence on RMS density matrix=1.00D-08 within 128 cycles.
 Requested convergence on MAX density matrix=1.00D-06.
 Requested convergence on             energy=1.00D-06.
 No special actions if energy rises.
 SCF Done:  E(UwB97XD) =  -789.188983909     A.U. after    9 cycles
            NFock=  9  Conv=0.71D-08     -V/T= 2.0026
 <Sx>= 0.0000 <Sy>= 0.0000 <Sz>= 0.5000 <S**2>= 0.7539 S= 0.5019
 <L.S>= 0.000000000000E+00
 Annihilation of the first spin contaminant:
 S**2 before annihilation     0.7539,   after     0.7500
 Calling FoFJK, ICntrl=      2127 FMM=F ISym2X=0 I1Cent= 0 IOpClX= 1 NMat=1 NMatS=1 NMatT=0.
 ***** Axes restored to original set *****
 -------------------------------------------------------------------
 Center     Atomic                   Forces (Hartrees/Bohr)
 Number     Number              X              Y              Z
 -------------------------------------------------------------------
      1        6           0.000051491    0.000006055   -0.000016381
      2        9           0.000008913   -0.000012330   -0.000000793
      3        9          -0.000006497   -0.000005904   -0.000009762
      4        6          -0.000008759   -0.000000208    0.000014932
      5        9          -0.000012824   -0.000009683   -0.000017097
      6        9          -0.000008257    0.000007029    0.000006527
      7        9          -0.000006905    0.000007520   -0.000004035
      8        9          -0.000012799   -0.000001695    0.000002512
      9        6           0.000012271    0.000007045    0.000022037
     10        8          -0.000013754    0.000009032   -0.000005237
     11        1          -0.000002881   -0.000006863    0.000007298
 -------------------------------------------------------------------
 Cartesian Forces:  Max     0.000051491 RMS     0.000013209

 GradGradGradGradGradGradGradGradGradGradGradGradGradGradGradGradGradGrad
 Berny optimization.
 Using GEDIIS/GDIIS optimizer.
 FormGI is forming the generalized inverse of G from B-inverse, IUseBI=4.
 Internal  Forces:  Max     0.000044324 RMS     0.000013553
 Search for a local minimum.
 Step number  22 out of a maximum of   50
 All quantities printed in internal units (Hartrees-Bohrs-Radians)
 Mixed Optimization -- En-DIIS/RFO-DIIS
 Swapping is turned off.
 Update second derivatives using D2CorX and points   14   15   16   17   18
                                                     19   20   21   22
 DE= -4.82D-07 DEPred=-5.76D-07 R= 8.37D-01
 Trust test= 8.37D-01 RLast= 2.50D-02 DXMaxT set to 1.34D+00
 ITU=  0  1  1  0  1  1  1  1  1  1  0  1  1  1  1  1  0  0  1  1
 ITU=  1  0
     Eigenvalues ---    0.00122   0.00156   0.00707   0.01063   0.09808
     Eigenvalues ---    0.10343   0.11081   0.11495   0.18030   0.19187
     Eigenvalues ---    0.24207   0.24431   0.24588   0.26078   0.27060
     Eigenvalues ---    0.27247   0.30537   0.34117   0.37341   0.45888
     Eigenvalues ---    0.49095   0.52250   0.53533   0.55427   0.55649
     Eigenvalues ---    0.56572   0.58220
 En-DIIS/RFO-DIIS/Sim-DIIS IScMMF=       -3 using points:    22   21   20   19   18   17   16   15   14   13
 RFO step:  Lambda=-3.15878496D-08.
 DIIS inversion failure, remove point  10.
 DIIS inversion failure, remove point   9.
 DIIS inversion failure, remove point   8.
 DIIS inversion failure, remove point   7.
 DIIS inversion failure, remove point   6.
 RFO-DIIS uses    5 points instead of   10
 DidBck=F Rises=F RFO-DIIS coefs:    0.90283    0.14713   -0.01280   -0.03539   -0.00177
                  RFO-DIIS coefs:    0.00000    0.00000    0.00000    0.00000    0.00000
 Iteration  1 RMS(Cart)=  0.00027640 RMS(Int)=  0.00000310
 Iteration  2 RMS(Cart)=  0.00000004 RMS(Int)=  0.00000310
 Variable       Old X    -DE/DX   Delta X   Delta X   Delta X     New X
                                 (Linear)    (Quad)   (Total)
    R1        2.52070  -0.00000   0.00001  -0.00003  -0.00003   2.52068
    R2        2.52417   0.00001  -0.00001  -0.00001  -0.00002   2.52416
    R3        2.81852   0.00004  -0.00005   0.00013   0.00008   2.81860
    R4        2.53786   0.00001   0.00001   0.00002   0.00003   2.53790
    R5        2.82622   0.00001  -0.00000  -0.00002  -0.00002   2.82620
    R6        2.52059   0.00001  -0.00000   0.00001   0.00000   2.52060
    R7        2.53174  -0.00002  -0.00005  -0.00001  -0.00007   2.53167
    R8        2.55225   0.00001  -0.00000  -0.00001  -0.00001   2.55224
    R9        2.51440  -0.00001   0.00004  -0.00000   0.00004   2.51443
   R10        1.82372   0.00000   0.00000  -0.00001  -0.00000   1.82372
    A1        1.89395  -0.00001   0.00004  -0.00003   0.00002   1.89397
    A2        1.92886   0.00003  -0.00003   0.00012   0.00009   1.92895
    A3        1.87933  -0.00000   0.00003  -0.00004  -0.00001   1.87932
    A4        1.93772  -0.00002  -0.00001  -0.00004  -0.00006   1.93767
    A5        1.86493   0.00002   0.00004   0.00002   0.00005   1.86498
    A6        1.95629  -0.00002  -0.00005  -0.00003  -0.00009   1.95620
    A7        2.13068   0.00003   0.00009   0.00004   0.00012   2.13080
    A8        1.99778  -0.00000   0.00001   0.00002   0.00002   1.99780
    A9        2.09163  -0.00002   0.00005  -0.00006  -0.00002   2.09160
   A10        1.97718   0.00001  -0.00000   0.00004   0.00004   1.97722
   A11        1.89338   0.00001   0.00006  -0.00005   0.00001   1.89339
   A12        1.96763   0.00000   0.00000  -0.00001  -0.00001   1.96762
   A13        1.86868  -0.00001   0.00003  -0.00001   0.00003   1.86870
   A14        1.87173  -0.00000  -0.00005   0.00005   0.00000   1.87174
   A15        1.88053  -0.00001  -0.00005  -0.00002  -0.00007   1.88046
   A16        1.91884   0.00002  -0.00001   0.00006   0.00005   1.91889
    D1       -0.43217  -0.00000  -0.00028  -0.00000  -0.00029  -0.43245
    D2        3.08482  -0.00000  -0.00061  -0.00000  -0.00061   3.08422
    D3       -2.53473  -0.00000  -0.00031  -0.00002  -0.00033  -2.53506
    D4        0.98226  -0.00000  -0.00063  -0.00002  -0.00065   0.98161
    D5        1.66426   0.00000  -0.00031   0.00001  -0.00030   1.66396
    D6       -1.10194   0.00000  -0.00063   0.00001  -0.00062  -1.10256
    D7       -0.95474  -0.00000   0.00026  -0.00005   0.00021  -0.95454
    D8       -3.02704  -0.00001   0.00017  -0.00003   0.00014  -3.02690
    D9        1.17493   0.00000   0.00019   0.00004   0.00023   1.17516
   D10        1.79193   0.00000   0.00059  -0.00004   0.00055   1.79248
   D11       -0.28037  -0.00000   0.00051  -0.00002   0.00049  -0.27989
   D12       -2.36159   0.00001   0.00052   0.00006   0.00058  -2.36101
   D13        3.05195   0.00001  -0.00001  -0.00000  -0.00001   3.05194
   D14        0.27665  -0.00001  -0.00033  -0.00002  -0.00035   0.27629
         Item               Value     Threshold  Converged?
 Maximum Force            0.000044     0.000450     YES
 RMS     Force            0.000014     0.000300     YES
 Maximum Displacement     0.000703     0.001800     YES
 RMS     Displacement     0.000276     0.001200     YES
 Predicted change in Energy=-1.436776D-08
 Optimization completed.
    -- Stationary point found.
                           ----------------------------
                           !   Optimized Parameters   !
                           ! (Angstroms and Degrees)  !
 --------------------------                            --------------------------
 ! Name  Definition              Value          Derivative Info.                !
 --------------------------------------------------------------------------------
 ! R1    R(1,2)                  1.3339         -DE/DX =    0.0                 !
 ! R2    R(1,3)                  1.3357         -DE/DX =    0.0                 !
 ! R3    R(1,4)                  1.4915         -DE/DX =    0.0                 !
 ! R4    R(1,6)                  1.343          -DE/DX =    0.0                 !
 ! R5    R(4,9)                  1.4956         -DE/DX =    0.0                 !
 ! R6    R(4,10)                 1.3338         -DE/DX =    0.0                 !
 ! R7    R(5,9)                  1.3397         -DE/DX =    0.0                 !
 ! R8    R(7,9)                  1.3506         -DE/DX =    0.0                 !
 ! R9    R(8,9)                  1.3306         -DE/DX =    0.0                 !
 ! R10   R(10,11)                0.9651         -DE/DX =    0.0                 !
 ! A1    A(2,1,3)              108.5153         -DE/DX =    0.0                 !
 ! A2    A(2,1,4)              110.5157         -DE/DX =    0.0                 !
 ! A3    A(2,1,6)              107.6779         -DE/DX =    0.0                 !
 ! A4    A(3,1,4)              111.0234         -DE/DX =    0.0                 !
 ! A5    A(3,1,6)              106.8525         -DE/DX =    0.0                 !
 ! A6    A(4,1,6)              112.0872         -DE/DX =    0.0                 !
 ! A7    A(1,4,9)              122.0788         -DE/DX =    0.0                 !
 ! A8    A(1,4,10)             114.4644         -DE/DX =    0.0                 !
 ! A9    A(9,4,10)             119.8414         -DE/DX =    0.0                 !
 ! A10   A(4,9,5)              113.2843         -DE/DX =    0.0                 !
 ! A11   A(4,9,7)              108.4828         -DE/DX =    0.0                 !
 ! A12   A(4,9,8)              112.737          -DE/DX =    0.0                 !
 ! A13   A(5,9,7)              107.0675         -DE/DX =    0.0                 !
 ! A14   A(5,9,8)              107.2425         -DE/DX =    0.0                 !
 ! A15   A(7,9,8)              107.7465         -DE/DX =    0.0                 !
 ! A16   A(4,10,11)            109.9415         -DE/DX =    0.0                 !
 ! D1    D(2,1,4,9)            -24.7613         -DE/DX =    0.0                 !
 ! D2    D(2,1,4,10)           176.7474         -DE/DX =    0.0                 !
 ! D3    D(3,1,4,9)           -145.2293         -DE/DX =    0.0                 !
 ! D4    D(3,1,4,10)            56.2793         -DE/DX =    0.0                 !
 ! D5    D(6,1,4,9)             95.3549         -DE/DX =    0.0                 !
 ! D6    D(6,1,4,10)           -63.1364         -DE/DX =    0.0                 !
 ! D7    D(1,4,9,5)            -54.7027         -DE/DX =    0.0                 !
 ! D8    D(1,4,9,7)           -173.4368         -DE/DX =    0.0                 !
 ! D9    D(1,4,9,8)             67.3185         -DE/DX =    0.0                 !
 ! D10   D(10,4,9,5)           102.6698         -DE/DX =    0.0                 !
 ! D11   D(10,4,9,7)           -16.0643         -DE/DX =    0.0                 !
 ! D12   D(10,4,9,8)          -135.3091         -DE/DX =    0.0                 !
 ! D13   D(1,4,10,11)          174.8639         -DE/DX =    0.0                 !
 ! D14   D(9,4,10,11)           15.8506         -DE/DX =    0.0                 !
 --------------------------------------------------------------------------------
 GradGradGradGradGradGradGradGradGradGradGradGradGradGradGradGradGradGrad

                          Input orientation:                          
 ---------------------------------------------------------------------
 Center     Atomic      Atomic             Coordinates (Angstroms)
 Number     Number       Type             X           Y           Z
 ---------------------------------------------------------------------
      1          6           0        1.183147   -0.742599    0.104228
      2          9           0        1.862996    0.202801   -0.546395
      3          9           0        1.526048   -1.932415   -0.396718
      4          6           0       -0.284898   -0.511635   -0.022493
      5          9           0       -0.460866    1.767435    0.602479
      6          9           0        1.587977   -0.727932    1.384653
      7          9           0       -2.201481    0.767125   -0.204228
      8          9           0       -0.548779    1.306526   -1.495593
      9          6           0       -0.855629    0.845451   -0.285781
     10          8           0       -1.042899   -1.452105    0.543265
     11          1           0       -1.972895   -1.199042    0.493938
 ---------------------------------------------------------------------
                    Distance matrix (angstroms):
                    1          2          3          4          5
     1  C    0.000000
     2  F    1.333899   0.000000
     3  F    1.335736   2.166814   0.000000
     4  C    1.491496   2.323434   2.331991   0.000000
     5  F    3.041596   3.027925   4.316840   2.369750   0.000000
     6  F    1.342978   2.161215   2.151255   2.352554   3.322110
     7  F    3.718887   4.117708   4.606413   2.311178   2.163594
     8  F    3.123765   2.817063   4.000396   2.354860   2.149901
     9  C    2.613545   2.805680   3.660768   1.495572   1.339738
    10  O    2.377275   3.517144   2.777365   1.333841   3.272263
    11  H    3.212603   4.214442   3.684251   1.894350   3.331366
                    6          7          8          9         10
     6  F    0.000000
     7  F    4.372612   0.000000
     8  F    4.123175   2.165642   0.000000
     9  C    3.352178   1.350595   1.330561   0.000000
    10  O    2.855498   2.612669   3.465709   2.449725   0.000000
    11  H    3.700693   2.098928   3.502029   2.456867   0.965073
                   11
    11  H    0.000000
 Stoichiometry    C3HF6O(2)
 Framework group  C1[X(C3HF6O)]
 Deg. of freedom    27
 Full point group                 C1      NOp   1
 Largest Abelian subgroup         C1      NOp   1
 Largest concise Abelian subgroup C1      NOp   1
                         Standard orientation:                         
 ---------------------------------------------------------------------
 Center     Atomic      Atomic             Coordinates (Angstroms)
 Number     Number       Type             X           Y           Z
 ---------------------------------------------------------------------
      1          6           0       -1.317677   -0.127910   -0.023566
      2          9           0       -1.186689   -1.433977   -0.260876
      3          9           0       -2.228590    0.366992   -0.865884
      4          6           0       -0.007471    0.566491   -0.183966
      5          9           0        1.409257   -0.781416    1.154595
      6          9           0       -1.815773    0.013490    1.215585
      7          9           0        2.293259    0.759825   -0.080012
      8          9           0        1.510869   -1.049862   -0.976059
      9          6           0        1.295782   -0.148830   -0.020929
     10          8           0       -0.061605    1.890422   -0.030966
     11          1           0        0.828040    2.262649   -0.067639
 ---------------------------------------------------------------------
 Rotational constants (GHZ):           2.1124612           1.0228191           0.9054492

 **********************************************************************

            Population analysis using the SCF density.

 **********************************************************************

 Orbital symmetries:
 Alpha Orbitals:
       Occupied  (A) (A) (A) (A) (A) (A) (A) (A) (A) (A) (A) (A)
                 (A) (A) (A) (A) (A) (A) (A) (A) (A) (A) (A) (A)
                 (A) (A) (A) (A) (A) (A) (A) (A) (A) (A) (A) (A)
                 (A) (A) (A) (A) (A)
       Virtual   (A) (A) (A) (A) (A) (A) (A) (A) (A) (A) (A) (A)
                 (A) (A) (A) (A) (A) (A) (A) (A) (A) (A) (A) (A)
                 (A) (A) (A) (A) (A) (A) (A) (A) (A) (A) (A) (A)
                 (A) (A) (A) (A) (A) (A) (A) (A) (A) (A) (A) (A)
                 (A) (A) (A) (A) (A) (A) (A) (A) (A) (A) (A) (A)
                 (A) (A) (A) (A) (A) (A) (A) (A) (A) (A) (A) (A)
                 (A) (A) (A) (A) (A) (A) (A) (A) (A) (A) (A) (A)
                 (A) (A) (A) (A) (A) (A) (A) (A) (A) (A) (A) (A)
                 (A) (A) (A) (A) (A) (A) (A) (A) (A) (A) (A) (A)
                 (A) (A) (A) (A) (A) (A) (A) (A) (A) (A) (A) (A)
                 (A) (A) (A) (A) (A) (A) (A) (A) (A) (A) (A) (A)
                 (A) (A) (A) (A) (A) (A) (A) (A) (A) (A) (A) (A)
                 (A) (A) (A) (A) (A) (A) (A) (A) (A) (A) (A) (A)
                 (A) (A) (A) (A) (A) (A) (A) (A) (A) (A) (A) (A)
                 (A) (A) (A) (A) (A) (A) (A) (A) (A) (A) (A) (A)
                 (A) (A) (A) (A) (A) (A) (A) (A) (A) (A) (A) (A)
                 (A) (A) (A) (A) (A) (A) (A) (A) (A) (A) (A) (A)
                 (A) (A) (A) (A) (A) (A) (A) (A) (A) (A) (A) (A)
                 (A) (A) (A) (A) (A) (A) (A) (A) (A) (A) (A) (A)
                 (A) (A) (A) (A)
 Beta  Orbitals:
       Occupied  (A) (A) (A) (A) (A) (A) (A) (A) (A) (A) (A) (A)
                 (A) (A) (A) (A) (A) (A) (A) (A) (A) (A) (A) (A)
                 (A) (A) (A) (A) (A) (A) (A) (A) (A) (A) (A) (A)
                 (A) (A) (A) (A)
       Virtual   (A) (A) (A) (A) (A) (A) (A) (A) (A) (A) (A) (A)
                 (A) (A) (A) (A) (A) (A) (A) (A) (A) (A) (A) (A)
                 (A) (A) (A) (A) (A) (A) (A) (A) (A) (A) (A) (A)
                 (A) (A) (A) (A) (A) (A) (A) (A) (A) (A) (A) (A)
                 (A) (A) (A) (A) (A) (A) (A) (A) (A) (A) (A) (A)
                 (A) (A) (A) (A) (A) (A) (A) (A) (A) (A) (A) (A)
                 (A) (A) (A) (A) (A) (A) (A) (A) (A) (A) (A) (A)
                 (A) (A) (A) (A) (A) (A) (A) (A) (A) (A) (A) (A)
                 (A) (A) (A) (A) (A) (A) (A) (A) (A) (A) (A) (A)
                 (A) (A) (A) (A) (A) (A) (A) (A) (A) (A) (A) (A)
                 (A) (A) (A) (A) (A) (A) (A) (A) (A) (A) (A) (A)
                 (A) (A) (A) (A) (A) (A) (A) (A) (A) (A) (A) (A)
                 (A) (A) (A) (A) (A) (A) (A) (A) (A) (A) (A) (A)
                 (A) (A) (A) (A) (A) (A) (A) (A) (A) (A) (A) (A)
                 (A) (A) (A) (A) (A) (A) (A) (A) (A) (A) (A) (A)
                 (A) (A) (A) (A) (A) (A) (A) (A) (A) (A) (A) (A)
                 (A) (A) (A) (A) (A) (A) (A) (A) (A) (A) (A) (A)
                 (A) (A) (A) (A) (A) (A) (A) (A) (A) (A) (A) (A)
                 (A) (A) (A) (A) (A) (A) (A) (A) (A) (A) (A) (A)
                 (A) (A) (A) (A) (A)
 The electronic state is 2-A.
 Alpha  occ. eigenvalues --  -24.88164 -24.87031 -24.86886 -24.86413 -24.85885
 Alpha  occ. eigenvalues --  -24.85636 -19.35173 -10.57996 -10.56799 -10.41114
 Alpha  occ. eigenvalues --   -1.46112  -1.44760  -1.37217  -1.36452  -1.35829
 Alpha  occ. eigenvalues --   -1.35131  -1.24576  -0.93859  -0.85372  -0.78945
 Alpha  occ. eigenvalues --   -0.75725  -0.73459  -0.72678  -0.71177  -0.70729
 Alpha  occ. eigenvalues --   -0.68956  -0.60330  -0.59925  -0.58908  -0.58573
 Alpha  occ. eigenvalues --   -0.58188  -0.57058  -0.56465  -0.54694  -0.54340
 Alpha  occ. eigenvalues --   -0.53737  -0.53398  -0.53249  -0.52072  -0.49153
 Alpha  occ. eigenvalues --   -0.33150
 Alpha virt. eigenvalues --    0.05032   0.08956   0.09429   0.10225   0.11995
 Alpha virt. eigenvalues --    0.12668   0.12915   0.13965   0.14351   0.15195
 Alpha virt. eigenvalues --    0.16479   0.17800   0.19591   0.20045   0.20349
 Alpha virt. eigenvalues --    0.22491   0.25984   0.26445   0.27303   0.28542
 Alpha virt. eigenvalues --    0.28910   0.29803   0.31086   0.31503   0.33149
 Alpha virt. eigenvalues --    0.33783   0.34598   0.35780   0.37632   0.38416
 Alpha virt. eigenvalues --    0.38857   0.39522   0.40134   0.40674   0.41407
 Alpha virt. eigenvalues --    0.41940   0.42234   0.42569   0.42691   0.43733
 Alpha virt. eigenvalues --    0.43978   0.45755   0.46092   0.47425   0.47833
 Alpha virt. eigenvalues --    0.50737   0.51023   0.53207   0.54966   0.57262
 Alpha virt. eigenvalues --    0.59642   0.63163   0.67168   0.69622   0.71002
 Alpha virt. eigenvalues --    0.73824   0.74426   0.75437   0.77171   0.80174
 Alpha virt. eigenvalues --    0.82555   0.86949   0.90569   0.97497   1.01266
 Alpha virt. eigenvalues --    1.04645   1.07720   1.10554   1.11685   1.13459
 Alpha virt. eigenvalues --    1.14966   1.17694   1.22622   1.24422   1.27624
 Alpha virt. eigenvalues --    1.28757   1.32641   1.37044   1.37147   1.38420
 Alpha virt. eigenvalues --    1.40837   1.42016   1.42809   1.43348   1.45469
 Alpha virt. eigenvalues --    1.46005   1.46409   1.47410   1.48202   1.48783
 Alpha virt. eigenvalues --    1.50253   1.50940   1.52053   1.54026   1.55432
 Alpha virt. eigenvalues --    1.57010   1.58165   1.63297   1.65617   1.69040
 Alpha virt. eigenvalues --    1.74082   1.81643   1.91386   1.94032   2.01401
 Alpha virt. eigenvalues --    2.02472   2.04451   2.04837   2.05279   2.06031
 Alpha virt. eigenvalues --    2.07888   2.08017   2.09747   2.13344   2.14783
 Alpha virt. eigenvalues --    2.18128   2.19492   2.21047   2.22312   2.23232
 Alpha virt. eigenvalues --    2.23551   2.26726   2.29143   2.33517   2.36010
 Alpha virt. eigenvalues --    2.44019   2.46881   2.52624   2.56324   2.66370
 Alpha virt. eigenvalues --    2.67212   2.70794   2.71155   2.72817   2.74024
 Alpha virt. eigenvalues --    2.80234   2.81435   2.84310   2.93644   3.03793
 Alpha virt. eigenvalues --    3.15295   3.23945   3.25539   3.28705   3.37711
 Alpha virt. eigenvalues --    3.43614   3.45620   3.49535   3.50016   3.52688
 Alpha virt. eigenvalues --    3.54618   3.55696   3.57879   3.59455   3.63324
 Alpha virt. eigenvalues --    3.66109   3.68601   3.74400   3.81663   3.93757
 Alpha virt. eigenvalues --    4.25232   4.28611   4.29213   4.32182   4.33015
 Alpha virt. eigenvalues --    4.60406   5.06025   5.31774   5.77256   6.39977
 Alpha virt. eigenvalues --    6.41463   6.42485   6.43634   6.44334   6.45538
 Alpha virt. eigenvalues --    6.47075   6.47542   6.48482   6.49602   6.50464
 Alpha virt. eigenvalues --    6.53214   6.56551   6.57731   6.77713   6.82419
 Alpha virt. eigenvalues --    6.83935   6.86175   6.91406   7.01680   7.02569
 Alpha virt. eigenvalues --    7.17345   7.31344   9.07912   9.09554   9.10164
 Alpha virt. eigenvalues --    9.11013   9.11647   9.12689   9.20848   9.21510
 Alpha virt. eigenvalues --    9.22192   9.22962   9.23629   9.24272   9.25168
 Alpha virt. eigenvalues --    9.27846   9.32661   9.33343   9.36837   9.38465
 Alpha virt. eigenvalues --    9.50476   9.52074   9.66740   9.68227   9.69668
 Alpha virt. eigenvalues --    9.71826   9.73890   9.78397   9.86980   9.88656
 Alpha virt. eigenvalues --    9.91376   9.92302  23.92830  23.99308  24.07071
 Alpha virt. eigenvalues --   50.02345  66.93580  66.94362  66.95827  66.96125
 Alpha virt. eigenvalues --   66.99180  67.00248
  Beta  occ. eigenvalues --  -24.88161 -24.86969 -24.86767 -24.86400 -24.85837
  Beta  occ. eigenvalues --  -24.85537 -19.34635 -10.58043 -10.56852 -10.40056
  Beta  occ. eigenvalues --   -1.45974  -1.44645  -1.37142  -1.36204  -1.35759
  Beta  occ. eigenvalues --   -1.34923  -1.23135  -0.91833  -0.85049  -0.78392
  Beta  occ. eigenvalues --   -0.75316  -0.73265  -0.72101  -0.70854  -0.70610
  Beta  occ. eigenvalues --   -0.68568  -0.59963  -0.59680  -0.58407  -0.58249
  Beta  occ. eigenvalues --   -0.57459  -0.56261  -0.55920  -0.54106  -0.53986
  Beta  occ. eigenvalues --   -0.53269  -0.53114  -0.51942  -0.50402  -0.48373
  Beta virt. eigenvalues --   -0.03968   0.05217   0.09003   0.09465   0.10501
  Beta virt. eigenvalues --    0.12069   0.12700   0.13045   0.14020   0.14540
  Beta virt. eigenvalues --    0.15425   0.16543   0.17998   0.19744   0.20190
  Beta virt. eigenvalues --    0.21153   0.22821   0.26296   0.27384   0.27590
  Beta virt. eigenvalues --    0.29125   0.29313   0.30489   0.31349   0.31754
  Beta virt. eigenvalues --    0.33592   0.34184   0.34768   0.36054   0.37875
  Beta virt. eigenvalues --    0.38537   0.38925   0.39574   0.40228   0.40765
  Beta virt. eigenvalues --    0.41730   0.42031   0.42336   0.42677   0.43004
  Beta virt. eigenvalues --    0.43891   0.44076   0.46165   0.46426   0.47493
  Beta virt. eigenvalues --    0.48012   0.50864   0.51228   0.53475   0.55007
  Beta virt. eigenvalues --    0.57392   0.59835   0.64029   0.67421   0.69893
  Beta virt. eigenvalues --    0.71372   0.74382   0.75109   0.75788   0.77994
  Beta virt. eigenvalues --    0.80143   0.83302   0.87721   0.91657   0.97805
  Beta virt. eigenvalues --    1.01421   1.04988   1.08300   1.10819   1.12454
  Beta virt. eigenvalues --    1.14167   1.15471   1.18281   1.23074   1.24626
  Beta virt. eigenvalues --    1.27985   1.29124   1.33094   1.37206   1.37330
  Beta virt. eigenvalues --    1.38632   1.41047   1.42105   1.42968   1.43475
  Beta virt. eigenvalues --    1.45694   1.46134   1.46510   1.47493   1.48300
  Beta virt. eigenvalues --    1.49031   1.50373   1.51241   1.52236   1.54242
  Beta virt. eigenvalues --    1.55609   1.57114   1.58391   1.63634   1.66094
  Beta virt. eigenvalues --    1.69993   1.74704   1.82090   1.91815   1.94419
  Beta virt. eigenvalues --    2.01487   2.02614   2.04608   2.05090   2.05382
  Beta virt. eigenvalues --    2.06251   2.07986   2.08134   2.09958   2.13486
  Beta virt. eigenvalues --    2.14952   2.18271   2.19740   2.21328   2.22389
  Beta virt. eigenvalues --    2.23575   2.23649   2.26855   2.29528   2.33981
  Beta virt. eigenvalues --    2.36700   2.44339   2.47621   2.52827   2.56693
  Beta virt. eigenvalues --    2.66434   2.67630   2.70984   2.71342   2.72905
  Beta virt. eigenvalues --    2.74166   2.81706   2.82389   2.85037   2.94145
  Beta virt. eigenvalues --    3.04213   3.15496   3.24281   3.26606   3.30485
  Beta virt. eigenvalues --    3.39399   3.44767   3.47214   3.50045   3.50316
  Beta virt. eigenvalues --    3.52895   3.55730   3.56128   3.58811   3.60120
  Beta virt. eigenvalues --    3.66385   3.67573   3.70318   3.75174   3.82739
  Beta virt. eigenvalues --    3.95147   4.26327   4.28787   4.29322   4.32371
  Beta virt. eigenvalues --    4.33058   4.61450   5.08380   5.32282   5.78212
  Beta virt. eigenvalues --    6.40089   6.41575   6.42551   6.43741   6.44411
  Beta virt. eigenvalues --    6.45620   6.47191   6.47612   6.48567   6.49738
  Beta virt. eigenvalues --    6.50561   6.53316   6.56701   6.57865   6.79466
  Beta virt. eigenvalues --    6.82759   6.84211   6.86529   6.91598   7.03742
  Beta virt. eigenvalues --    7.04461   7.17928   7.31988   9.08085   9.09703
  Beta virt. eigenvalues --    9.10315   9.11119   9.11766   9.12788   9.20988
  Beta virt. eigenvalues --    9.21619   9.22282   9.23075   9.23826   9.24389
  Beta virt. eigenvalues --    9.25346   9.28017   9.32876   9.33532   9.37046
  Beta virt. eigenvalues --    9.38627   9.50635   9.52209   9.66911   9.68367
  Beta virt. eigenvalues --    9.69906   9.71997   9.74079   9.78512   9.87205
  Beta virt. eigenvalues --    9.88844   9.91467   9.92396  23.94512  23.99479
  Beta virt. eigenvalues --   24.07005  50.02820  66.93629  66.94392  66.95862
  Beta virt. eigenvalues --   66.96170  66.99240  67.00288
          Condensed to atoms (all electrons):
               1          2          3          4          5          6
     1  C    4.826640   0.236064   0.186503   0.137355   0.003549   0.245116
     2  F    0.236064   9.118993   0.009574  -0.072505   0.010987   0.001019
     3  F    0.186503   0.009574   9.110183  -0.060916  -0.000338  -0.010418
     4  C    0.137355  -0.072505  -0.060916   5.753731  -0.033389  -0.038932
     5  F    0.003549   0.010987  -0.000338  -0.033389   9.107184   0.005958
     6  F    0.245116   0.001019  -0.010418  -0.038932   0.005958   9.096878
     7  F    0.039349   0.000044  -0.000278  -0.019214   0.006073  -0.000726
     8  F   -0.037026   0.008527  -0.000852  -0.020231  -0.010477  -0.002010
     9  C   -0.366477  -0.007716   0.024798  -0.068252   0.183886  -0.036621
    10  O   -0.175371   0.007196   0.020283   0.259540  -0.000873   0.011114
    11  H    0.025092  -0.000400  -0.000677   0.040815  -0.000411  -0.000887
               7          8          9         10         11
     1  C    0.039349  -0.037026  -0.366477  -0.175371   0.025092
     2  F    0.000044   0.008527  -0.007716   0.007196  -0.000400
     3  F   -0.000278  -0.000852   0.024798   0.020283  -0.000677
     4  C   -0.019214  -0.020231  -0.068252   0.259540   0.040815
     5  F    0.006073  -0.010477   0.183886  -0.000873  -0.000411
     6  F   -0.000726  -0.002010  -0.036621   0.011114  -0.000887
     7  F    9.183593   0.002727   0.116814  -0.004645   0.022087
     8  F    0.002727   9.090865   0.226425  -0.000766  -0.000293
     9  C    0.116814   0.226425   5.227703  -0.011937  -0.075918
    10  O   -0.004645  -0.000766  -0.011937   8.161029   0.212786
    11  H    0.022087  -0.000293  -0.075918   0.212786   0.352956
          Atomic-Atomic Spin Densities.
               1          2          3          4          5          6
     1  C   -0.037487   0.005836   0.004955   0.040056  -0.008691  -0.025244
     2  F    0.005836   0.003470   0.001613  -0.008529   0.000019   0.000472
     3  F    0.004955   0.001613   0.024727  -0.024511  -0.000358  -0.002859
     4  C    0.040056  -0.008529  -0.024511   0.956344  -0.021562  -0.017626
     5  F   -0.008691   0.000019  -0.000358  -0.021562   0.050383   0.001860
     6  F   -0.025244   0.000472  -0.002859  -0.017626   0.001860   0.053327
     7  F   -0.001883  -0.000000  -0.000003  -0.006711   0.000192   0.000054
     8  F    0.003392   0.000472   0.000286  -0.016166  -0.000068  -0.000204
     9  C    0.018627  -0.000142  -0.001952   0.053517  -0.005118   0.000159
    10  O    0.003154   0.000165   0.003489  -0.170718   0.002522   0.004196
    11  H    0.000379   0.000041   0.000074  -0.002620  -0.000083  -0.000035
               7          8          9         10         11
     1  C   -0.001883   0.003392   0.018627   0.003154   0.000379
     2  F   -0.000000   0.000472  -0.000142   0.000165   0.000041
     3  F   -0.000003   0.000286  -0.001952   0.003489   0.000074
     4  C   -0.006711  -0.016166   0.053517  -0.170718  -0.002620
     5  F    0.000192  -0.000068  -0.005118   0.002522  -0.000083
     6  F    0.000054  -0.000204   0.000159   0.004196  -0.000035
     7  F   -0.001295   0.001133   0.010404   0.000589  -0.000121
     8  F    0.001133   0.021510  -0.002577   0.001095  -0.000036
     9  C    0.010404  -0.002577  -0.069893   0.002530   0.000767
    10  O    0.000589   0.001095   0.002530   0.314796   0.000763
    11  H   -0.000121  -0.000036   0.000767   0.000763  -0.005867
 Mulliken charges and spin densities:
               1          2
     1  C    0.879208   0.003095
     2  F   -0.311783   0.003417
     3  F   -0.277862   0.005461
     4  C    0.122000   0.781474
     5  F   -0.272149   0.019097
     6  F   -0.270491   0.014098
     7  F   -0.345824   0.002358
     8  F   -0.256890   0.008836
     9  C    0.787297   0.006323
    10  O   -0.478355   0.162580
    11  H    0.424850  -0.006740
 Sum of Mulliken charges =  -0.00000   1.00000
 Mulliken charges and spin densities with hydrogens summed into heavy atoms:
               1          2
     1  C    0.879208   0.003095
     2  F   -0.311783   0.003417
     3  F   -0.277862   0.005461
     4  C    0.122000   0.781474
     5  F   -0.272149   0.019097
     6  F   -0.270491   0.014098
     7  F   -0.345824   0.002358
     8  F   -0.256890   0.008836
     9  C    0.787297   0.006323
    10  O   -0.053505   0.155840
 Electronic spatial extent (au):  <R**2>=           1232.0943
 Charge=              0.0000 electrons
 Dipole moment (field-independent basis, Debye):
    X=              1.5558    Y=              1.8288    Z=             -0.2678  Tot=              2.4159
 Quadrupole moment (field-independent basis, Debye-Ang):
   XX=            -55.7057   YY=            -50.1737   ZZ=            -54.1101
   XY=              3.8994   XZ=             -0.0591   YZ=             -0.2190
 Traceless Quadrupole moment (field-independent basis, Debye-Ang):
   XX=             -2.3759   YY=              3.1561   ZZ=             -0.7803
   XY=              3.8994   XZ=             -0.0591   YZ=             -0.2190
 Octapole moment (field-independent basis, Debye-Ang**2):
  XXX=              1.2653  YYY=              3.8720  ZZZ=              0.5914  XYY=              9.3535
  XXY=             -1.0222  XXZ=              0.7790  XZZ=              1.0969  YZZ=             -2.0033
  YYZ=              0.6242  XYZ=             -0.4729
 Hexadecapole moment (field-independent basis, Debye-Ang**3):
 XXXX=           -741.0334 YYYY=           -285.0463 ZZZZ=           -175.7385 XXXY=              1.8922
 XXXZ=             -0.6084 YYYX=             23.6147 YYYZ=             -0.2225 ZZZX=              0.4687
 ZZZY=              1.1197 XXYY=           -167.5728 XXZZ=           -155.4199 YYZZ=            -82.3957
 XXYZ=              0.4465 YYXZ=             -0.8645 ZZXY=              2.1453
 N-N= 6.410848489224D+02 E-N=-3.156215091430D+03  KE= 7.871787847500D+02
                          Isotropic Fermi Contact Couplings
        Atom                 a.u.       MegaHertz       Gauss      10(-4) cm-1
     1  C(13)             -0.02908     -32.68823     -11.66397     -10.90362
     2  F(19)             -0.00066      -2.77580      -0.99047      -0.92591
     3  F(19)              0.01110      46.69678      16.66257      15.57637
     4  C(13)              0.08850      99.49444      35.50209      33.18777
     5  F(19)              0.03458     145.51051      51.92177      48.53708
     6  F(19)              0.02379     100.11582      35.72381      33.39504
     7  F(19)             -0.00177      -7.43138      -2.65170      -2.47884
     8  F(19)              0.01979      83.24725      29.70469      27.76830
     9  C(13)             -0.02703     -30.39119     -10.84433     -10.13741
    10  O(17)              0.03947     -23.92851      -8.53829      -7.98169
    11  H(1)              -0.00319     -14.27307      -5.09299      -4.76098
 --------------------------------------------------------
       Center         ----  Spin Dipole Couplings  ----
                      3XX-RR        3YY-RR        3ZZ-RR
 --------------------------------------------------------
     1   Atom        0.009271     -0.013953      0.004682
     2   Atom       -0.029652     -0.009268      0.038920
     3   Atom        0.108826     -0.054794     -0.054033
     4   Atom       -0.511789     -0.514616      1.026405
     5   Atom        0.036243      0.029728     -0.065972
     6   Atom        0.148211     -0.106757     -0.041454
     7   Atom       -0.009232     -0.013709      0.022942
     8   Atom       -0.008427      0.077035     -0.068609
     9   Atom        0.009129     -0.013065      0.003936
    10   Atom       -0.493279     -0.521382      1.014661
    11   Atom        0.026563     -0.006881     -0.019683
 --------------------------------------------------------
                        XY            XZ            YZ
 --------------------------------------------------------
     1   Atom        0.011450      0.012954      0.005192
     2   Atom       -0.001376      0.000432     -0.023318
     3   Atom       -0.030077     -0.017724      0.003180
     4   Atom        0.001005     -0.009066     -0.012362
     5   Atom       -0.161166      0.102903     -0.096830
     6   Atom        0.031139     -0.134228     -0.019345
     7   Atom        0.005497      0.003708      0.005305
     8   Atom       -0.097230      0.005729     -0.008051
     9   Atom       -0.016161     -0.017803      0.008272
    10   Atom        0.013819      0.037157     -0.041927
    11   Atom        0.034644      0.002448      0.002434
 --------------------------------------------------------


 ---------------------------------------------------------------------------------
              Anisotropic Spin Dipole Couplings in Principal Axis System
 ---------------------------------------------------------------------------------

       Atom             a.u.   MegaHertz   Gauss  10(-4) cm-1        Axes

              Baa    -0.0186    -2.502    -0.893    -0.835 -0.3820  0.9242  0.0064
     1 C(13)  Bbb    -0.0054    -0.722    -0.258    -0.241 -0.5386 -0.2282  0.8110
              Bcc     0.0240     3.225     1.151     1.076  0.7510  0.3063  0.5850
 
              Baa    -0.0298   -14.954    -5.336    -4.988  0.9949  0.0971  0.0267
     2 F(19)  Bbb    -0.0186    -9.337    -3.332    -3.115 -0.1000  0.9218  0.3745
              Bcc     0.0484    24.291     8.668     8.103  0.0118 -0.3753  0.9268
 
              Baa    -0.0601   -30.208   -10.779   -10.076  0.1746  0.9846 -0.0059
     3 F(19)  Bbb    -0.0559   -28.094   -10.025    -9.371  0.1047 -0.0126  0.9944
              Bcc     0.1161    58.301    20.803    19.447  0.9791 -0.1743 -0.1053
 
              Baa    -0.5150   -69.107   -24.659   -23.052 -0.2839  0.9588  0.0060
     4 C(13)  Bbb    -0.5116   -68.647   -24.495   -22.898  0.9588  0.2839  0.0079
              Bcc     1.0266   137.754    49.154    45.950 -0.0059 -0.0080  1.0000
 
              Baa    -0.1307   -65.642   -23.423   -21.896  0.7041  0.3269 -0.6304
     5 F(19)  Bbb    -0.1254   -63.000   -22.480   -21.015  0.2714  0.6964  0.6643
              Bcc     0.2561   128.642    45.903    42.910  0.6562 -0.6388  0.4017
 
              Baa    -0.1137   -57.122   -20.383   -19.054  0.2615  0.6937  0.6712
     6 F(19)  Bbb    -0.1081   -54.268   -19.364   -18.102 -0.3918  0.7118 -0.5830
              Bcc     0.2218   111.390    39.747    37.156  0.8821  0.1106 -0.4579
 
              Baa    -0.0176    -8.815    -3.145    -2.940 -0.5308  0.8452 -0.0621
     7 F(19)  Bbb    -0.0067    -3.386    -1.208    -1.130  0.8369  0.5112 -0.1959
              Bcc     0.0243    12.201     4.354     4.070  0.1338  0.1560  0.9787
 
              Baa    -0.0720   -36.138   -12.895   -12.054  0.8330  0.5363 -0.1359
     8 F(19)  Bbb    -0.0690   -34.663   -12.369   -11.562  0.0884  0.1134  0.9896
              Bcc     0.1410    70.801    25.264    23.617 -0.5461  0.8364 -0.0471
 
              Baa    -0.0216    -2.903    -1.036    -0.968  0.4919  0.8685  0.0615
     9 C(13)  Bbb    -0.0099    -1.332    -0.475    -0.444  0.4801 -0.3295  0.8130
              Bcc     0.0316     4.235     1.511     1.413  0.7264 -0.3704 -0.5790
 
              Baa    -0.5289    38.268    13.655    12.765 -0.3929  0.9190  0.0344
    10 O(17)  Bbb    -0.4878    35.300    12.596    11.775  0.9193  0.3934 -0.0118
              Bcc     1.0167   -73.568   -26.251   -24.540  0.0243 -0.0270  0.9993
 
              Baa    -0.0287   -15.309    -5.463    -5.106 -0.5265  0.8458 -0.0854
    11 H(1)   Bbb    -0.0198   -10.556    -3.767    -3.521 -0.0871  0.0462  0.9951
              Bcc     0.0485    25.864     9.229     8.627  0.8457  0.5314  0.0493
 

 ---------------------------------------------------------------------------------

 1\1\GINC-CCLEARTI\FOpt\UwB97XD\6-311+G(2d)\C3H1F6O1(2)\RAPPE\16-Nov-20
 25\0\\# opt freq uwb97xd/6-311+g(2d) geom=connectivity\\Title Card Req
 uired\\0,2\C,1.1831474497,-0.7425985472,0.1042281172\F,1.8629962815,0.
 2028011722,-0.546395467\F,1.5260475858,-1.932414646,-0.3967183263\C,-0
 .2848982581,-0.5116351537,-0.0224932172\F,-0.4608662553,1.7674353611,0
 .6024788497\F,1.5879773879,-0.7279324934,1.3846533119\F,-2.2014814557,
 0.7671248738,-0.2042279334\F,-0.5487790895,1.3065256297,-1.4955934761\
 C,-0.8556285363,0.8454510371,-0.2857810375\O,-1.042899099,-1.452104592
 6,0.5432654059\H,-1.9728949827,-1.1990415995,0.4939377623\\Version=EM6
 4M-G16RevA.03\State=2-A\HF=-789.1889839\S2=0.753875\S2-1=0.\S2A=0.7500
 11\RMSD=7.058e-09\RMSF=1.321e-05\Dipole=-0.9308981,-0.1886355,0.035860
 7\Quadrupole=2.6090169,-1.9382098,-0.6708071,2.4936062,-1.0264575,0.36
 86472\PG=C01 [X(C3H1F6O1)]\\@


 THE PROBLEM WITH THE LADDER OF SUCCESS IS YOU CAN'T
 CLIMB IT WHILE YOU'RE TWIDDLING YOUR THUMBS.
 Job cpu time:       0 days  7 hours 25 minutes 35.2 seconds.
 Elapsed time:       0 days  0 hours 25 minutes 58.6 seconds.
 File lengths (MBytes):  RWF=     63 Int=      0 D2E=      0 Chk=      8 Scr=      1
 Normal termination of Gaussian 16 at Sun Nov 16 14:48:45 2025.
 Link1:  Proceeding to internal job step number  2.
 ----------------------------------------------------------------------
 #N Geom=AllCheck Guess=TCheck SCRF=Check GenChk UwB97XD/6-311+G(2d) Fr
 eq
 ----------------------------------------------------------------------
 1/10=4,29=7,30=1,38=1,40=1/1,3;
 2/12=2,40=1/2;
 3/5=4,6=6,7=12,11=2,14=-4,25=1,30=1,70=2,71=2,74=-58,116=2,140=1/1,2,3;
 4/5=101/1;
 5/5=2,38=6,98=1/2;
 8/6=4,10=90,11=11/1;
 11/6=1,8=1,9=11,15=111,16=1/1,2,10;
 10/6=1/2;
 6/7=2,8=2,9=2,10=2,28=1/1;
 7/8=1,10=1,25=1/1,2,3,16;
 1/10=4,30=1/3;
 99//99;
 Structure from the checkpoint file:  "hfp_2oh_2rad_prod.chk"
 -------------------
 Title Card Required
 -------------------
 Charge =  0 Multiplicity = 2
 Redundant internal coordinates found in file.  (old form).
 C,0,1.1831474497,-0.7425985472,0.1042281172
 F,0,1.8629962815,0.2028011722,-0.546395467
 F,0,1.5260475858,-1.932414646,-0.3967183263
 C,0,-0.2848982581,-0.5116351537,-0.0224932172
 F,0,-0.4608662553,1.7674353611,0.6024788497
 F,0,1.5879773879,-0.7279324934,1.3846533119
 F,0,-2.2014814557,0.7671248738,-0.2042279334
 F,0,-0.5487790895,1.3065256297,-1.4955934761
 C,0,-0.8556285363,0.8454510371,-0.2857810375
 O,0,-1.042899099,-1.4521045926,0.5432654059
 H,0,-1.9728949827,-1.1990415995,0.4939377623
 Recover connectivity data from disk.

 GradGradGradGradGradGradGradGradGradGradGradGradGradGradGradGradGradGrad
 Berny optimization.
 Initialization pass.
                           ----------------------------
                           !    Initial Parameters    !
                           ! (Angstroms and Degrees)  !
 --------------------------                            --------------------------
 ! Name  Definition              Value          Derivative Info.                !
 --------------------------------------------------------------------------------
 ! R1    R(1,2)                  1.3339         calculate D2E/DX2 analytically  !
 ! R2    R(1,3)                  1.3357         calculate D2E/DX2 analytically  !
 ! R3    R(1,4)                  1.4915         calculate D2E/DX2 analytically  !
 ! R4    R(1,6)                  1.343          calculate D2E/DX2 analytically  !
 ! R5    R(4,9)                  1.4956         calculate D2E/DX2 analytically  !
 ! R6    R(4,10)                 1.3338         calculate D2E/DX2 analytically  !
 ! R7    R(5,9)                  1.3397         calculate D2E/DX2 analytically  !
 ! R8    R(7,9)                  1.3506         calculate D2E/DX2 analytically  !
 ! R9    R(8,9)                  1.3306         calculate D2E/DX2 analytically  !
 ! R10   R(10,11)                0.9651         calculate D2E/DX2 analytically  !
 ! A1    A(2,1,3)              108.5153         calculate D2E/DX2 analytically  !
 ! A2    A(2,1,4)              110.5157         calculate D2E/DX2 analytically  !
 ! A3    A(2,1,6)              107.6779         calculate D2E/DX2 analytically  !
 ! A4    A(3,1,4)              111.0234         calculate D2E/DX2 analytically  !
 ! A5    A(3,1,6)              106.8525         calculate D2E/DX2 analytically  !
 ! A6    A(4,1,6)              112.0872         calculate D2E/DX2 analytically  !
 ! A7    A(1,4,9)              122.0788         calculate D2E/DX2 analytically  !
 ! A8    A(1,4,10)             114.4644         calculate D2E/DX2 analytically  !
 ! A9    A(9,4,10)             119.8414         calculate D2E/DX2 analytically  !
 ! A10   A(4,9,5)              113.2843         calculate D2E/DX2 analytically  !
 ! A11   A(4,9,7)              108.4828         calculate D2E/DX2 analytically  !
 ! A12   A(4,9,8)              112.737          calculate D2E/DX2 analytically  !
 ! A13   A(5,9,7)              107.0675         calculate D2E/DX2 analytically  !
 ! A14   A(5,9,8)              107.2425         calculate D2E/DX2 analytically  !
 ! A15   A(7,9,8)              107.7465         calculate D2E/DX2 analytically  !
 ! A16   A(4,10,11)            109.9415         calculate D2E/DX2 analytically  !
 ! D1    D(2,1,4,9)            -24.7613         calculate D2E/DX2 analytically  !
 ! D2    D(2,1,4,10)           176.7474         calculate D2E/DX2 analytically  !
 ! D3    D(3,1,4,9)           -145.2293         calculate D2E/DX2 analytically  !
 ! D4    D(3,1,4,10)            56.2793         calculate D2E/DX2 analytically  !
 ! D5    D(6,1,4,9)             95.3549         calculate D2E/DX2 analytically  !
 ! D6    D(6,1,4,10)           -63.1364         calculate D2E/DX2 analytically  !
 ! D7    D(1,4,9,5)            -54.7027         calculate D2E/DX2 analytically  !
 ! D8    D(1,4,9,7)           -173.4368         calculate D2E/DX2 analytically  !
 ! D9    D(1,4,9,8)             67.3185         calculate D2E/DX2 analytically  !
 ! D10   D(10,4,9,5)           102.6698         calculate D2E/DX2 analytically  !
 ! D11   D(10,4,9,7)           -16.0643         calculate D2E/DX2 analytically  !
 ! D12   D(10,4,9,8)          -135.3091         calculate D2E/DX2 analytically  !
 ! D13   D(1,4,10,11)          174.8639         calculate D2E/DX2 analytically  !
 ! D14   D(9,4,10,11)           15.8506         calculate D2E/DX2 analytically  !
 --------------------------------------------------------------------------------
 Trust Radius=3.00D-01 FncErr=1.00D-07 GrdErr=1.00D-07 EigMax=2.50D+02 EigMin=1.00D-04
 Number of steps in this run=      2 maximum allowed number of steps=      2.
 GradGradGradGradGradGradGradGradGradGradGradGradGradGradGradGradGradGrad

                          Input orientation:                          
 ---------------------------------------------------------------------
 Center     Atomic      Atomic             Coordinates (Angstroms)
 Number     Number       Type             X           Y           Z
 ---------------------------------------------------------------------
      1          6           0        1.183147   -0.742599    0.104228
      2          9           0        1.862996    0.202801   -0.546395
      3          9           0        1.526048   -1.932415   -0.396718
      4          6           0       -0.284898   -0.511635   -0.022493
      5          9           0       -0.460866    1.767435    0.602479
      6          9           0        1.587977   -0.727932    1.384653
      7          9           0       -2.201481    0.767125   -0.204228
      8          9           0       -0.548779    1.306526   -1.495593
      9          6           0       -0.855629    0.845451   -0.285781
     10          8           0       -1.042899   -1.452105    0.543265
     11          1           0       -1.972895   -1.199042    0.493938
 ---------------------------------------------------------------------
                    Distance matrix (angstroms):
                    1          2          3          4          5
     1  C    0.000000
     2  F    1.333899   0.000000
     3  F    1.335736   2.166814   0.000000
     4  C    1.491496   2.323434   2.331991   0.000000
     5  F    3.041596   3.027925   4.316840   2.369750   0.000000
     6  F    1.342978   2.161215   2.151255   2.352554   3.322110
     7  F    3.718887   4.117708   4.606413   2.311178   2.163594
     8  F    3.123765   2.817063   4.000396   2.354860   2.149901
     9  C    2.613545   2.805680   3.660768   1.495572   1.339738
    10  O    2.377275   3.517144   2.777365   1.333841   3.272263
    11  H    3.212603   4.214442   3.684251   1.894350   3.331366
                    6          7          8          9         10
     6  F    0.000000
     7  F    4.372612   0.000000
     8  F    4.123175   2.165642   0.000000
     9  C    3.352178   1.350595   1.330561   0.000000
    10  O    2.855498   2.612669   3.465709   2.449725   0.000000
    11  H    3.700693   2.098928   3.502029   2.456867   0.965073
                   11
    11  H    0.000000
 Stoichiometry    C3HF6O(2)
 Framework group  C1[X(C3HF6O)]
 Deg. of freedom    27
 Full point group                 C1      NOp   1
 Largest Abelian subgroup         C1      NOp   1
 Largest concise Abelian subgroup C1      NOp   1
                         Standard orientation:                         
 ---------------------------------------------------------------------
 Center     Atomic      Atomic             Coordinates (Angstroms)
 Number     Number       Type             X           Y           Z
 ---------------------------------------------------------------------
      1          6           0       -1.317677   -0.127910   -0.023566
      2          9           0       -1.186689   -1.433977   -0.260876
      3          9           0       -2.228590    0.366992   -0.865884
      4          6           0       -0.007471    0.566491   -0.183966
      5          9           0        1.409257   -0.781416    1.154595
      6          9           0       -1.815773    0.013490    1.215585
      7          9           0        2.293259    0.759825   -0.080012
      8          9           0        1.510869   -1.049862   -0.976059
      9          6           0        1.295782   -0.148830   -0.020929
     10          8           0       -0.061605    1.890422   -0.030966
     11          1           0        0.828040    2.262649   -0.067639
 ---------------------------------------------------------------------
 Rotational constants (GHZ):           2.1124612           1.0228191           0.9054492
 Standard basis: 6-311+G(2d) (5D, 7F)
 There are   293 symmetry adapted cartesian basis functions of A   symmetry.
 There are   273 symmetry adapted basis functions of A   symmetry.
   273 basis functions,   425 primitive gaussians,   293 cartesian basis functions
    41 alpha electrons       40 beta electrons
       nuclear repulsion energy       641.0892101938 Hartrees.
 NAtoms=   11 NActive=   11 NUniq=   11 SFac= 1.00D+00 NAtFMM=   60 NAOKFM=F Big=F
 Integral buffers will be    131072 words long.
 Raffenetti 2 integral format.
 Two-electron integral symmetry is turned on.
 Nuclear repulsion after empirical dispersion term =      641.0848489224 Hartrees.
 One-electron integrals computed using PRISM.
 NBasis=   273 RedAO= T EigKep=  6.43D-05  NBF=   273
 NBsUse=   273 1.00D-06 EigRej= -1.00D+00 NBFU=   273
 Initial guess from the checkpoint file:  "hfp_2oh_2rad_prod.chk"
 B after Tr=     0.000000    0.000000   -0.000000
         Rot=    1.000000    0.000000    0.000000    0.000000 Ang=   0.00 deg.
 Initial guess <Sx>= 0.0000 <Sy>= 0.0000 <Sz>= 0.5000 <S**2>= 0.7539 S= 0.5019
 Keep R1 and R2 ints in memory in canonical form, NReq=2824723821.
 Requested convergence on RMS density matrix=1.00D-08 within 128 cycles.
 Requested convergence on MAX density matrix=1.00D-06.
 Requested convergence on             energy=1.00D-06.
 No special actions if energy rises.
 SCF Done:  E(UwB97XD) =  -789.188983909     A.U. after    1 cycles
            NFock=  1  Conv=0.28D-08     -V/T= 2.0026
 <Sx>= 0.0000 <Sy>= 0.0000 <Sz>= 0.5000 <S**2>= 0.7539 S= 0.5019
 <L.S>= 0.000000000000E+00
 Annihilation of the first spin contaminant:
 S**2 before annihilation     0.7539,   after     0.7500
 DoSCS=F DFT=T ScalE2(SS,OS)=  1.000000  1.000000
 Range of M.O.s used for correlation:     1   273
 NBasis=   273 NAE=    41 NBE=    40 NFC=     0 NFV=     0
 NROrb=    273 NOA=    41 NOB=    40 NVA=   232 NVB=   233

 **** Warning!!: The largest alpha MO coefficient is  0.49908325D+02


 **** Warning!!: The largest beta MO coefficient is  0.51809405D+02

 Symmetrizing basis deriv contribution to polar:
 IMax=3 JMax=2 DiffMx= 0.00D+00
 G2DrvN: will do    12 centers at a time, making    1 passes.
 Calling FoFCou, ICntrl=  3107 FMM=F I1Cent=   0 AccDes= 0.00D+00.
 End of G2Drv F.D. properties file   721 does not exist.
 End of G2Drv F.D. properties file   722 does not exist.
 End of G2Drv F.D. properties file   788 does not exist.
          IDoAtm=11111111111
          Differentiating once with respect to electric field.
                with respect to dipole field.
          Differentiating once with respect to nuclear coordinates.
 Keep R1 and R2 ints in memory in canonical form, NReq=2824651234.
          There are    36 degrees of freedom in the 1st order CPHF.  IDoFFX=6 NUNeed=     3.
     33 vectors produced by pass  0 Test12= 5.23D-14 2.78D-09 XBig12= 3.03D+01 2.08D+00.
 AX will form    33 AO Fock derivatives at one time.
     33 vectors produced by pass  1 Test12= 5.23D-14 2.78D-09 XBig12= 4.23D+00 2.66D-01.
     33 vectors produced by pass  2 Test12= 5.23D-14 2.78D-09 XBig12= 2.70D-01 1.72D-01.
     33 vectors produced by pass  3 Test12= 5.23D-14 2.78D-09 XBig12= 8.79D-03 2.08D-02.
     33 vectors produced by pass  4 Test12= 5.23D-14 2.78D-09 XBig12= 2.14D-04 2.44D-03.
     33 vectors produced by pass  5 Test12= 5.23D-14 2.78D-09 XBig12= 3.13D-06 2.14D-04.
     33 vectors produced by pass  6 Test12= 5.23D-14 2.78D-09 XBig12= 4.43D-08 2.22D-05.
     33 vectors produced by pass  7 Test12= 5.23D-14 2.78D-09 XBig12= 5.73D-10 2.19D-06.
      8 vectors produced by pass  8 Test12= 5.23D-14 2.78D-09 XBig12= 5.12D-12 2.07D-07.
      3 vectors produced by pass  9 Test12= 5.23D-14 2.78D-09 XBig12= 4.87D-14 2.03D-08.
 InvSVY:  IOpt=1 It=  1 EMax= 3.55D-15
 Solved reduced A of dimension   275 with    36 vectors.
 Isotropic polarizability for W=    0.000000       44.59 Bohr**3.
 End of Minotr F.D. properties file   721 does not exist.
 End of Minotr F.D. properties file   722 does not exist.
 End of Minotr F.D. properties file   788 does not exist.

 **********************************************************************

            Population analysis using the SCF density.

 **********************************************************************

 Orbital symmetries:
 Alpha Orbitals:
       Occupied  (A) (A) (A) (A) (A) (A) (A) (A) (A) (A) (A) (A)
                 (A) (A) (A) (A) (A) (A) (A) (A) (A) (A) (A) (A)
                 (A) (A) (A) (A) (A) (A) (A) (A) (A) (A) (A) (A)
                 (A) (A) (A) (A) (A)
       Virtual   (A) (A) (A) (A) (A) (A) (A) (A) (A) (A) (A) (A)
                 (A) (A) (A) (A) (A) (A) (A) (A) (A) (A) (A) (A)
                 (A) (A) (A) (A) (A) (A) (A) (A) (A) (A) (A) (A)
                 (A) (A) (A) (A) (A) (A) (A) (A) (A) (A) (A) (A)
                 (A) (A) (A) (A) (A) (A) (A) (A) (A) (A) (A) (A)
                 (A) (A) (A) (A) (A) (A) (A) (A) (A) (A) (A) (A)
                 (A) (A) (A) (A) (A) (A) (A) (A) (A) (A) (A) (A)
                 (A) (A) (A) (A) (A) (A) (A) (A) (A) (A) (A) (A)
                 (A) (A) (A) (A) (A) (A) (A) (A) (A) (A) (A) (A)
                 (A) (A) (A) (A) (A) (A) (A) (A) (A) (A) (A) (A)
                 (A) (A) (A) (A) (A) (A) (A) (A) (A) (A) (A) (A)
                 (A) (A) (A) (A) (A) (A) (A) (A) (A) (A) (A) (A)
                 (A) (A) (A) (A) (A) (A) (A) (A) (A) (A) (A) (A)
                 (A) (A) (A) (A) (A) (A) (A) (A) (A) (A) (A) (A)
                 (A) (A) (A) (A) (A) (A) (A) (A) (A) (A) (A) (A)
                 (A) (A) (A) (A) (A) (A) (A) (A) (A) (A) (A) (A)
                 (A) (A) (A) (A) (A) (A) (A) (A) (A) (A) (A) (A)
                 (A) (A) (A) (A) (A) (A) (A) (A) (A) (A) (A) (A)
                 (A) (A) (A) (A) (A) (A) (A) (A) (A) (A) (A) (A)
                 (A) (A) (A) (A)
 Beta  Orbitals:
       Occupied  (A) (A) (A) (A) (A) (A) (A) (A) (A) (A) (A) (A)
                 (A) (A) (A) (A) (A) (A) (A) (A) (A) (A) (A) (A)
                 (A) (A) (A) (A) (A) (A) (A) (A) (A) (A) (A) (A)
                 (A) (A) (A) (A)
       Virtual   (A) (A) (A) (A) (A) (A) (A) (A) (A) (A) (A) (A)
                 (A) (A) (A) (A) (A) (A) (A) (A) (A) (A) (A) (A)
                 (A) (A) (A) (A) (A) (A) (A) (A) (A) (A) (A) (A)
                 (A) (A) (A) (A) (A) (A) (A) (A) (A) (A) (A) (A)
                 (A) (A) (A) (A) (A) (A) (A) (A) (A) (A) (A) (A)
                 (A) (A) (A) (A) (A) (A) (A) (A) (A) (A) (A) (A)
                 (A) (A) (A) (A) (A) (A) (A) (A) (A) (A) (A) (A)
                 (A) (A) (A) (A) (A) (A) (A) (A) (A) (A) (A) (A)
                 (A) (A) (A) (A) (A) (A) (A) (A) (A) (A) (A) (A)
                 (A) (A) (A) (A) (A) (A) (A) (A) (A) (A) (A) (A)
                 (A) (A) (A) (A) (A) (A) (A) (A) (A) (A) (A) (A)
                 (A) (A) (A) (A) (A) (A) (A) (A) (A) (A) (A) (A)
                 (A) (A) (A) (A) (A) (A) (A) (A) (A) (A) (A) (A)
                 (A) (A) (A) (A) (A) (A) (A) (A) (A) (A) (A) (A)
                 (A) (A) (A) (A) (A) (A) (A) (A) (A) (A) (A) (A)
                 (A) (A) (A) (A) (A) (A) (A) (A) (A) (A) (A) (A)
                 (A) (A) (A) (A) (A) (A) (A) (A) (A) (A) (A) (A)
                 (A) (A) (A) (A) (A) (A) (A) (A) (A) (A) (A) (A)
                 (A) (A) (A) (A) (A) (A) (A) (A) (A) (A) (A) (A)
                 (A) (A) (A) (A) (A)
 The electronic state is 2-A.
 Alpha  occ. eigenvalues --  -24.88164 -24.87031 -24.86886 -24.86413 -24.85885
 Alpha  occ. eigenvalues --  -24.85636 -19.35173 -10.57996 -10.56799 -10.41114
 Alpha  occ. eigenvalues --   -1.46112  -1.44760  -1.37217  -1.36452  -1.35829
 Alpha  occ. eigenvalues --   -1.35131  -1.24576  -0.93859  -0.85372  -0.78945
 Alpha  occ. eigenvalues --   -0.75725  -0.73459  -0.72678  -0.71177  -0.70729
 Alpha  occ. eigenvalues --   -0.68956  -0.60330  -0.59925  -0.58908  -0.58573
 Alpha  occ. eigenvalues --   -0.58188  -0.57058  -0.56465  -0.54694  -0.54340
 Alpha  occ. eigenvalues --   -0.53737  -0.53398  -0.53249  -0.52072  -0.49153
 Alpha  occ. eigenvalues --   -0.33150
 Alpha virt. eigenvalues --    0.05032   0.08956   0.09429   0.10225   0.11995
 Alpha virt. eigenvalues --    0.12668   0.12915   0.13965   0.14351   0.15195
 Alpha virt. eigenvalues --    0.16479   0.17800   0.19591   0.20045   0.20349
 Alpha virt. eigenvalues --    0.22491   0.25984   0.26445   0.27303   0.28542
 Alpha virt. eigenvalues --    0.28910   0.29803   0.31086   0.31503   0.33149
 Alpha virt. eigenvalues --    0.33783   0.34598   0.35780   0.37632   0.38416
 Alpha virt. eigenvalues --    0.38857   0.39522   0.40134   0.40674   0.41407
 Alpha virt. eigenvalues --    0.41940   0.42234   0.42569   0.42691   0.43733
 Alpha virt. eigenvalues --    0.43978   0.45755   0.46092   0.47425   0.47833
 Alpha virt. eigenvalues --    0.50737   0.51023   0.53207   0.54966   0.57262
 Alpha virt. eigenvalues --    0.59642   0.63163   0.67168   0.69622   0.71002
 Alpha virt. eigenvalues --    0.73824   0.74426   0.75437   0.77171   0.80174
 Alpha virt. eigenvalues --    0.82555   0.86949   0.90569   0.97497   1.01266
 Alpha virt. eigenvalues --    1.04645   1.07720   1.10554   1.11685   1.13459
 Alpha virt. eigenvalues --    1.14966   1.17694   1.22622   1.24422   1.27624
 Alpha virt. eigenvalues --    1.28757   1.32641   1.37044   1.37147   1.38420
 Alpha virt. eigenvalues --    1.40837   1.42016   1.42809   1.43348   1.45469
 Alpha virt. eigenvalues --    1.46005   1.46409   1.47410   1.48202   1.48783
 Alpha virt. eigenvalues --    1.50253   1.50940   1.52053   1.54026   1.55432
 Alpha virt. eigenvalues --    1.57010   1.58165   1.63297   1.65617   1.69040
 Alpha virt. eigenvalues --    1.74082   1.81643   1.91386   1.94032   2.01401
 Alpha virt. eigenvalues --    2.02472   2.04451   2.04837   2.05279   2.06031
 Alpha virt. eigenvalues --    2.07888   2.08017   2.09747   2.13344   2.14783
 Alpha virt. eigenvalues --    2.18128   2.19492   2.21047   2.22312   2.23232
 Alpha virt. eigenvalues --    2.23551   2.26726   2.29143   2.33517   2.36010
 Alpha virt. eigenvalues --    2.44019   2.46881   2.52624   2.56324   2.66370
 Alpha virt. eigenvalues --    2.67212   2.70794   2.71155   2.72817   2.74024
 Alpha virt. eigenvalues --    2.80234   2.81435   2.84310   2.93644   3.03793
 Alpha virt. eigenvalues --    3.15295   3.23945   3.25539   3.28705   3.37711
 Alpha virt. eigenvalues --    3.43614   3.45620   3.49535   3.50016   3.52688
 Alpha virt. eigenvalues --    3.54618   3.55696   3.57879   3.59455   3.63324
 Alpha virt. eigenvalues --    3.66109   3.68601   3.74400   3.81663   3.93757
 Alpha virt. eigenvalues --    4.25232   4.28612   4.29213   4.32182   4.33015
 Alpha virt. eigenvalues --    4.60406   5.06025   5.31774   5.77256   6.39977
 Alpha virt. eigenvalues --    6.41463   6.42485   6.43634   6.44334   6.45538
 Alpha virt. eigenvalues --    6.47075   6.47542   6.48482   6.49602   6.50464
 Alpha virt. eigenvalues --    6.53214   6.56551   6.57731   6.77713   6.82419
 Alpha virt. eigenvalues --    6.83935   6.86175   6.91406   7.01680   7.02569
 Alpha virt. eigenvalues --    7.17345   7.31344   9.07912   9.09554   9.10164
 Alpha virt. eigenvalues --    9.11013   9.11647   9.12689   9.20848   9.21510
 Alpha virt. eigenvalues --    9.22192   9.22962   9.23629   9.24272   9.25168
 Alpha virt. eigenvalues --    9.27846   9.32661   9.33343   9.36837   9.38465
 Alpha virt. eigenvalues --    9.50476   9.52074   9.66740   9.68227   9.69668
 Alpha virt. eigenvalues --    9.71826   9.73890   9.78397   9.86980   9.88656
 Alpha virt. eigenvalues --    9.91376   9.92302  23.92830  23.99308  24.07071
 Alpha virt. eigenvalues --   50.02345  66.93580  66.94362  66.95827  66.96125
 Alpha virt. eigenvalues --   66.99180  67.00248
  Beta  occ. eigenvalues --  -24.88161 -24.86969 -24.86767 -24.86400 -24.85837
  Beta  occ. eigenvalues --  -24.85537 -19.34635 -10.58043 -10.56852 -10.40056
  Beta  occ. eigenvalues --   -1.45974  -1.44645  -1.37142  -1.36204  -1.35759
  Beta  occ. eigenvalues --   -1.34923  -1.23135  -0.91833  -0.85049  -0.78392
  Beta  occ. eigenvalues --   -0.75316  -0.73265  -0.72101  -0.70854  -0.70610
  Beta  occ. eigenvalues --   -0.68568  -0.59963  -0.59680  -0.58407  -0.58249
  Beta  occ. eigenvalues --   -0.57459  -0.56261  -0.55920  -0.54106  -0.53986
  Beta  occ. eigenvalues --   -0.53269  -0.53114  -0.51942  -0.50402  -0.48373
  Beta virt. eigenvalues --   -0.03968   0.05217   0.09003   0.09465   0.10501
  Beta virt. eigenvalues --    0.12069   0.12700   0.13045   0.14020   0.14540
  Beta virt. eigenvalues --    0.15425   0.16543   0.17998   0.19744   0.20190
  Beta virt. eigenvalues --    0.21153   0.22821   0.26296   0.27384   0.27590
  Beta virt. eigenvalues --    0.29125   0.29313   0.30489   0.31349   0.31754
  Beta virt. eigenvalues --    0.33592   0.34184   0.34768   0.36054   0.37875
  Beta virt. eigenvalues --    0.38537   0.38925   0.39574   0.40228   0.40765
  Beta virt. eigenvalues --    0.41730   0.42031   0.42336   0.42677   0.43004
  Beta virt. eigenvalues --    0.43891   0.44076   0.46165   0.46426   0.47493
  Beta virt. eigenvalues --    0.48012   0.50864   0.51228   0.53475   0.55007
  Beta virt. eigenvalues --    0.57392   0.59835   0.64029   0.67421   0.69893
  Beta virt. eigenvalues --    0.71372   0.74382   0.75109   0.75788   0.77994
  Beta virt. eigenvalues --    0.80143   0.83302   0.87721   0.91657   0.97805
  Beta virt. eigenvalues --    1.01421   1.04988   1.08300   1.10819   1.12454
  Beta virt. eigenvalues --    1.14167   1.15471   1.18281   1.23074   1.24626
  Beta virt. eigenvalues --    1.27985   1.29124   1.33094   1.37206   1.37330
  Beta virt. eigenvalues --    1.38632   1.41047   1.42105   1.42968   1.43475
  Beta virt. eigenvalues --    1.45694   1.46134   1.46510   1.47493   1.48300
  Beta virt. eigenvalues --    1.49031   1.50373   1.51241   1.52236   1.54242
  Beta virt. eigenvalues --    1.55609   1.57114   1.58391   1.63634   1.66094
  Beta virt. eigenvalues --    1.69993   1.74704   1.82090   1.91815   1.94419
  Beta virt. eigenvalues --    2.01487   2.02614   2.04608   2.05090   2.05382
  Beta virt. eigenvalues --    2.06251   2.07986   2.08134   2.09958   2.13486
  Beta virt. eigenvalues --    2.14952   2.18271   2.19740   2.21328   2.22389
  Beta virt. eigenvalues --    2.23575   2.23649   2.26855   2.29528   2.33981
  Beta virt. eigenvalues --    2.36700   2.44339   2.47621   2.52827   2.56693
  Beta virt. eigenvalues --    2.66434   2.67630   2.70984   2.71342   2.72905
  Beta virt. eigenvalues --    2.74166   2.81706   2.82389   2.85037   2.94145
  Beta virt. eigenvalues --    3.04213   3.15496   3.24281   3.26606   3.30485
  Beta virt. eigenvalues --    3.39399   3.44767   3.47214   3.50045   3.50316
  Beta virt. eigenvalues --    3.52895   3.55730   3.56128   3.58811   3.60120
  Beta virt. eigenvalues --    3.66385   3.67573   3.70318   3.75174   3.82739
  Beta virt. eigenvalues --    3.95147   4.26327   4.28787   4.29322   4.32371
  Beta virt. eigenvalues --    4.33058   4.61450   5.08380   5.32282   5.78212
  Beta virt. eigenvalues --    6.40089   6.41575   6.42551   6.43741   6.44411
  Beta virt. eigenvalues --    6.45620   6.47191   6.47612   6.48567   6.49738
  Beta virt. eigenvalues --    6.50561   6.53316   6.56701   6.57865   6.79466
  Beta virt. eigenvalues --    6.82759   6.84211   6.86529   6.91598   7.03742
  Beta virt. eigenvalues --    7.04461   7.17928   7.31988   9.08085   9.09703
  Beta virt. eigenvalues --    9.10315   9.11119   9.11766   9.12788   9.20988
  Beta virt. eigenvalues --    9.21619   9.22282   9.23075   9.23826   9.24389
  Beta virt. eigenvalues --    9.25346   9.28017   9.32876   9.33532   9.37046
  Beta virt. eigenvalues --    9.38627   9.50635   9.52209   9.66911   9.68367
  Beta virt. eigenvalues --    9.69906   9.71997   9.74079   9.78512   9.87205
  Beta virt. eigenvalues --    9.88844   9.91467   9.92396  23.94512  23.99479
  Beta virt. eigenvalues --   24.07005  50.02820  66.93629  66.94392  66.95862
  Beta virt. eigenvalues --   66.96170  66.99240  67.00288
          Condensed to atoms (all electrons):
               1          2          3          4          5          6
     1  C    4.826640   0.236064   0.186503   0.137355   0.003549   0.245116
     2  F    0.236064   9.118993   0.009574  -0.072505   0.010987   0.001019
     3  F    0.186503   0.009574   9.110183  -0.060916  -0.000338  -0.010418
     4  C    0.137355  -0.072505  -0.060916   5.753731  -0.033389  -0.038932
     5  F    0.003549   0.010987  -0.000338  -0.033389   9.107184   0.005958
     6  F    0.245116   0.001019  -0.010418  -0.038932   0.005958   9.096878
     7  F    0.039349   0.000044  -0.000278  -0.019214   0.006073  -0.000726
     8  F   -0.037026   0.008527  -0.000852  -0.020231  -0.010477  -0.002010
     9  C   -0.366477  -0.007716   0.024798  -0.068252   0.183886  -0.036621
    10  O   -0.175371   0.007196   0.020283   0.259540  -0.000873   0.011114
    11  H    0.025092  -0.000400  -0.000677   0.040815  -0.000411  -0.000887
               7          8          9         10         11
     1  C    0.039349  -0.037026  -0.366477  -0.175371   0.025092
     2  F    0.000044   0.008527  -0.007716   0.007196  -0.000400
     3  F   -0.000278  -0.000852   0.024798   0.020283  -0.000677
     4  C   -0.019214  -0.020231  -0.068252   0.259540   0.040815
     5  F    0.006073  -0.010477   0.183886  -0.000873  -0.000411
     6  F   -0.000726  -0.002010  -0.036621   0.011114  -0.000887
     7  F    9.183593   0.002727   0.116814  -0.004645   0.022087
     8  F    0.002727   9.090865   0.226425  -0.000766  -0.000293
     9  C    0.116814   0.226425   5.227703  -0.011937  -0.075918
    10  O   -0.004645  -0.000766  -0.011937   8.161029   0.212786
    11  H    0.022087  -0.000293  -0.075918   0.212786   0.352955
          Atomic-Atomic Spin Densities.
               1          2          3          4          5          6
     1  C   -0.037487   0.005836   0.004955   0.040057  -0.008691  -0.025244
     2  F    0.005836   0.003470   0.001613  -0.008529   0.000019   0.000472
     3  F    0.004955   0.001613   0.024727  -0.024511  -0.000358  -0.002859
     4  C    0.040057  -0.008529  -0.024511   0.956344  -0.021562  -0.017626
     5  F   -0.008691   0.000019  -0.000358  -0.021562   0.050383   0.001860
     6  F   -0.025244   0.000472  -0.002859  -0.017626   0.001860   0.053327
     7  F   -0.001883  -0.000000  -0.000003  -0.006711   0.000192   0.000054
     8  F    0.003392   0.000472   0.000286  -0.016166  -0.000068  -0.000204
     9  C    0.018627  -0.000142  -0.001952   0.053517  -0.005118   0.000159
    10  O    0.003154   0.000165   0.003489  -0.170718   0.002522   0.004196
    11  H    0.000379   0.000041   0.000074  -0.002620  -0.000083  -0.000035
               7          8          9         10         11
     1  C   -0.001883   0.003392   0.018627   0.003154   0.000379
     2  F   -0.000000   0.000472  -0.000142   0.000165   0.000041
     3  F   -0.000003   0.000286  -0.001952   0.003489   0.000074
     4  C   -0.006711  -0.016166   0.053517  -0.170718  -0.002620
     5  F    0.000192  -0.000068  -0.005118   0.002522  -0.000083
     6  F    0.000054  -0.000204   0.000159   0.004196  -0.000035
     7  F   -0.001295   0.001133   0.010404   0.000589  -0.000121
     8  F    0.001133   0.021509  -0.002577   0.001095  -0.000036
     9  C    0.010404  -0.002577  -0.069893   0.002530   0.000767
    10  O    0.000589   0.001095   0.002530   0.314796   0.000762
    11  H   -0.000121  -0.000036   0.000767   0.000762  -0.005867
 Mulliken charges and spin densities:
               1          2
     1  C    0.879208   0.003095
     2  F   -0.311783   0.003417
     3  F   -0.277862   0.005461
     4  C    0.121999   0.781474
     5  F   -0.272149   0.019097
     6  F   -0.270491   0.014098
     7  F   -0.345824   0.002358
     8  F   -0.256890   0.008836
     9  C    0.787297   0.006323
    10  O   -0.478355   0.162580
    11  H    0.424851  -0.006740
 Sum of Mulliken charges =  -0.00000   1.00000
 Mulliken charges and spin densities with hydrogens summed into heavy atoms:
               1          2
     1  C    0.879208   0.003095
     2  F   -0.311783   0.003417
     3  F   -0.277862   0.005461
     4  C    0.121999   0.781474
     5  F   -0.272149   0.019097
     6  F   -0.270491   0.014098
     7  F   -0.345824   0.002358
     8  F   -0.256890   0.008836
     9  C    0.787297   0.006323
    10  O   -0.053505   0.155840
 APT charges:
               1
     1  C    1.692972
     2  F   -0.516323
     3  F   -0.548761
     4  C    0.104527
     5  F   -0.550494
     6  F   -0.562128
     7  F   -0.549760
     8  F   -0.525779
     9  C    1.663066
    10  O   -0.557222
    11  H    0.349902
 Sum of APT charges =  -0.00000
 APT charges with hydrogens summed into heavy atoms:
               1
     1  C    1.692972
     2  F   -0.516323
     3  F   -0.548761
     4  C    0.104527
     5  F   -0.550494
     6  F   -0.562128
     7  F   -0.549760
     8  F   -0.525779
     9  C    1.663066
    10  O   -0.207320
 Electronic spatial extent (au):  <R**2>=           1232.0943
 Charge=              0.0000 electrons
 Dipole moment (field-independent basis, Debye):
    X=              1.5558    Y=              1.8288    Z=             -0.2678  Tot=              2.4159
 Quadrupole moment (field-independent basis, Debye-Ang):
   XX=            -55.7057   YY=            -50.1737   ZZ=            -54.1101
   XY=              3.8994   XZ=             -0.0591   YZ=             -0.2190
 Traceless Quadrupole moment (field-independent basis, Debye-Ang):
   XX=             -2.3759   YY=              3.1561   ZZ=             -0.7803
   XY=              3.8994   XZ=             -0.0591   YZ=             -0.2190
 Octapole moment (field-independent basis, Debye-Ang**2):
  XXX=              1.2653  YYY=              3.8720  ZZZ=              0.5914  XYY=              9.3535
  XXY=             -1.0222  XXZ=              0.7790  XZZ=              1.0969  YZZ=             -2.0033
  YYZ=              0.6242  XYZ=             -0.4729
 Hexadecapole moment (field-independent basis, Debye-Ang**3):
 XXXX=           -741.0334 YYYY=           -285.0463 ZZZZ=           -175.7385 XXXY=              1.8922
 XXXZ=             -0.6084 YYYX=             23.6147 YYYZ=             -0.2225 ZZZX=              0.4687
 ZZZY=              1.1197 XXYY=           -167.5728 XXZZ=           -155.4199 YYZZ=            -82.3957
 XXYZ=              0.4465 YYXZ=             -0.8645 ZZXY=              2.1453
 N-N= 6.410848489224D+02 E-N=-3.156215094476D+03  KE= 7.871787868357D+02
  Exact polarizability:  47.032   0.239  47.523  -0.048   0.339  39.229
 Approx polarizability:  46.022   0.019  51.141  -0.116   0.564  44.934
                          Isotropic Fermi Contact Couplings
        Atom                 a.u.       MegaHertz       Gauss      10(-4) cm-1
     1  C(13)             -0.02908     -32.68822     -11.66397     -10.90362
     2  F(19)             -0.00066      -2.77588      -0.99050      -0.92593
     3  F(19)              0.01110      46.69677      16.66257      15.57637
     4  C(13)              0.08850      99.49431      35.50204      33.18773
     5  F(19)              0.03458     145.51083      51.92188      48.53719
     6  F(19)              0.02379     100.11583      35.72382      33.39505
     7  F(19)             -0.00177      -7.43140      -2.65171      -2.47885
     8  F(19)              0.01979      83.24689      29.70456      27.76817
     9  C(13)             -0.02703     -30.39116     -10.84432     -10.13740
    10  O(17)              0.03947     -23.92865      -8.53834      -7.98174
    11  H(1)              -0.00319     -14.27318      -5.09302      -4.76102
 --------------------------------------------------------
       Center         ----  Spin Dipole Couplings  ----
                      3XX-RR        3YY-RR        3ZZ-RR
 --------------------------------------------------------
     1   Atom        0.009271     -0.013953      0.004682
     2   Atom       -0.029652     -0.009268      0.038920
     3   Atom        0.108826     -0.054794     -0.054032
     4   Atom       -0.511789     -0.514616      1.026405
     5   Atom        0.036243      0.029728     -0.065972
     6   Atom        0.148211     -0.106757     -0.041454
     7   Atom       -0.009232     -0.013709      0.022941
     8   Atom       -0.008427      0.077035     -0.068608
     9   Atom        0.009129     -0.013065      0.003936
    10   Atom       -0.493280     -0.521382      1.014662
    11   Atom        0.026563     -0.006881     -0.019683
 --------------------------------------------------------
                        XY            XZ            YZ
 --------------------------------------------------------
     1   Atom        0.011450      0.012954      0.005192
     2   Atom       -0.001376      0.000432     -0.023318
     3   Atom       -0.030077     -0.017724      0.003180
     4   Atom        0.001005     -0.009066     -0.012363
     5   Atom       -0.161167      0.102904     -0.096830
     6   Atom        0.031139     -0.134228     -0.019345
     7   Atom        0.005497      0.003708      0.005305
     8   Atom       -0.097230      0.005729     -0.008051
     9   Atom       -0.016161     -0.017803      0.008272
    10   Atom        0.013819      0.037157     -0.041928
    11   Atom        0.034644      0.002448      0.002434
 --------------------------------------------------------


 ---------------------------------------------------------------------------------
              Anisotropic Spin Dipole Couplings in Principal Axis System
 ---------------------------------------------------------------------------------

       Atom             a.u.   MegaHertz   Gauss  10(-4) cm-1        Axes

              Baa    -0.0186    -2.502    -0.893    -0.835 -0.3820  0.9242  0.0064
     1 C(13)  Bbb    -0.0054    -0.722    -0.258    -0.241 -0.5386 -0.2282  0.8110
              Bcc     0.0240     3.225     1.151     1.076  0.7510  0.3063  0.5850
 
              Baa    -0.0298   -14.954    -5.336    -4.988  0.9949  0.0971  0.0267
     2 F(19)  Bbb    -0.0186    -9.337    -3.332    -3.115 -0.1000  0.9218  0.3745
              Bcc     0.0484    24.291     8.668     8.103  0.0118 -0.3753  0.9268
 
              Baa    -0.0601   -30.208   -10.779   -10.076  0.1746  0.9846 -0.0059
     3 F(19)  Bbb    -0.0559   -28.094   -10.024    -9.371  0.1047 -0.0126  0.9944
              Bcc     0.1161    58.301    20.803    19.447  0.9791 -0.1743 -0.1053
 
              Baa    -0.5150   -69.107   -24.659   -23.052 -0.2839  0.9588  0.0060
     4 C(13)  Bbb    -0.5116   -68.647   -24.495   -22.898  0.9588  0.2839  0.0079
              Bcc     1.0266   137.754    49.154    45.950 -0.0059 -0.0080  1.0000
 
              Baa    -0.1307   -65.642   -23.423   -21.896  0.7041  0.3269 -0.6304
     5 F(19)  Bbb    -0.1254   -63.000   -22.480   -21.015  0.2714  0.6964  0.6643
              Bcc     0.2561   128.643    45.903    42.911  0.6562 -0.6388  0.4017
 
              Baa    -0.1137   -57.122   -20.383   -19.054  0.2615  0.6937  0.6712
     6 F(19)  Bbb    -0.1081   -54.268   -19.364   -18.102 -0.3918  0.7118 -0.5830
              Bcc     0.2218   111.390    39.747    37.156  0.8821  0.1106 -0.4579
 
              Baa    -0.0176    -8.815    -3.145    -2.940 -0.5308  0.8452 -0.0621
     7 F(19)  Bbb    -0.0067    -3.386    -1.208    -1.130  0.8369  0.5112 -0.1959
              Bcc     0.0243    12.201     4.354     4.070  0.1338  0.1560  0.9787
 
              Baa    -0.0720   -36.138   -12.895   -12.054  0.8330  0.5363 -0.1359
     8 F(19)  Bbb    -0.0690   -34.663   -12.369   -11.562  0.0884  0.1134  0.9896
              Bcc     0.1410    70.801    25.264    23.617 -0.5461  0.8364 -0.0471
 
              Baa    -0.0216    -2.903    -1.036    -0.968  0.4919  0.8685  0.0615
     9 C(13)  Bbb    -0.0099    -1.332    -0.475    -0.444  0.4801 -0.3295  0.8130
              Bcc     0.0316     4.235     1.511     1.413  0.7264 -0.3704 -0.5790
 
              Baa    -0.5289    38.268    13.655    12.765 -0.3929  0.9190  0.0344
    10 O(17)  Bbb    -0.4878    35.300    12.596    11.775  0.9193  0.3934 -0.0118
              Bcc     1.0167   -73.568   -26.251   -24.540  0.0243 -0.0270  0.9993
 
              Baa    -0.0287   -15.309    -5.463    -5.106 -0.5265  0.8458 -0.0854
    11 H(1)   Bbb    -0.0198   -10.556    -3.767    -3.521 -0.0871  0.0462  0.9951
              Bcc     0.0485    25.865     9.229     8.627  0.8457  0.5314  0.0493
 

 ---------------------------------------------------------------------------------

 Calling FoFJK, ICntrl=    100127 FMM=F ISym2X=0 I1Cent= 0 IOpClX= 1 NMat=1 NMatS=1 NMatT=0.
 Full mass-weighted force constant matrix:
 Low frequencies ---   -0.0008   -0.0005   -0.0002    4.1128    6.6354    8.4465
 Low frequencies ---   31.8523   44.3602  126.8598
 Diagonal vibrational polarizability:
       14.1745476      19.3221457      36.0400264
 Harmonic frequencies (cm**-1), IR intensities (KM/Mole), Raman scattering
 activities (A**4/AMU), depolarization ratios for plane and unpolarized
 incident light, reduced masses (AMU), force constants (mDyne/A),
 and normal coordinates:
                      1                      2                      3
                      A                      A                      A
 Frequencies --     31.7567                44.3554               126.8596
 Red. masses --     17.7269                14.6381                13.7453
 Frc consts  --      0.0105                 0.0170                 0.1303
 IR Inten    --      0.2413                 0.1028                 0.1695
  Atom  AN      X      Y      Z        X      Y      Z        X      Y      Z
     1   6    -0.01   0.02   0.07    -0.01  -0.01  -0.06    -0.07  -0.02   0.11
     2   9     0.10  -0.04   0.46     0.01   0.00  -0.10    -0.19  -0.00  -0.05
     3   9     0.16  -0.26  -0.29     0.09   0.02  -0.16     0.15   0.24   0.01
     4   6    -0.00   0.01   0.19     0.00   0.01   0.13    -0.00  -0.12   0.37
     5   9     0.10  -0.27  -0.20     0.27   0.27   0.13     0.41  -0.11   0.03
     6   9    -0.31   0.35  -0.09    -0.17  -0.05  -0.12    -0.33  -0.16   0.03
     7   9    -0.00   0.01   0.07     0.02  -0.03  -0.40    -0.04   0.10  -0.03
     8   9    -0.05   0.20  -0.27    -0.23  -0.20   0.16     0.01   0.06   0.01
     9   6     0.01  -0.01  -0.05     0.01   0.01  -0.00     0.07  -0.02   0.12
    10   8     0.01   0.01   0.21    -0.00  -0.03   0.51    -0.01  -0.04  -0.41
    11   1     0.01   0.00   0.21    -0.02   0.00   0.44     0.00  -0.08  -0.43
                      4                      5                      6
                      A                      A                      A
 Frequencies --    160.9580               283.3429               302.5381
 Red. masses --     15.4327                11.3876                15.0270
 Frc consts  --      0.2356                 0.5387                 0.8104
 IR Inten    --      1.8023                 1.7913                 1.3370
  Atom  AN      X      Y      Z        X      Y      Z        X      Y      Z
     1   6     0.10   0.05   0.07    -0.13   0.10   0.07    -0.09   0.08  -0.17
     2   9     0.49   0.10  -0.04     0.19   0.13   0.01     0.05   0.10  -0.20
     3   9     0.07  -0.10   0.02    -0.23  -0.04   0.10    -0.43  -0.25   0.00
     4   6    -0.00   0.22   0.22    -0.04   0.01  -0.00    -0.02   0.02  -0.01
     5   9    -0.14  -0.04   0.03    -0.09   0.03  -0.04     0.45  -0.17   0.07
     6   9    -0.09  -0.24   0.02    -0.34  -0.09   0.01     0.17   0.21  -0.08
     7   9     0.08  -0.19  -0.02    -0.11   0.06  -0.11    -0.12   0.07   0.17
     8   9    -0.45   0.03  -0.00     0.34  -0.10   0.01    -0.19   0.00   0.07
     9   6    -0.11   0.05   0.07    -0.02  -0.08  -0.10    -0.03  -0.07   0.17
    10   8     0.07   0.27  -0.25     0.40   0.02   0.05     0.17   0.03  -0.05
    11   1     0.11   0.19  -0.28     0.53  -0.29  -0.11     0.26  -0.16   0.30
                      7                      8                      9
                      A                      A                      A
 Frequencies --    339.6108               361.9069               422.1457
 Red. masses --     17.9193                 8.2684                 1.0946
 Frc consts  --      1.2177                 0.6381                 0.1149
 IR Inten    --      0.6644                 7.2777               105.7443
  Atom  AN      X      Y      Z        X      Y      Z        X      Y      Z
     1   6    -0.14  -0.04  -0.01     0.01  -0.09  -0.01     0.00  -0.00  -0.00
     2   9    -0.25  -0.05  -0.02    -0.23  -0.14   0.05     0.01  -0.00   0.01
     3   9    -0.31  -0.18   0.07     0.09  -0.08  -0.08    -0.00   0.01   0.01
     4   6     0.03   0.07  -0.02     0.02  -0.02  -0.01     0.00  -0.00   0.01
     5   9     0.05   0.21   0.04    -0.08   0.15   0.04    -0.01   0.01  -0.01
     6   9    -0.23  -0.07  -0.04     0.08  -0.13   0.02    -0.01  -0.00  -0.00
     7   9     0.64  -0.31   0.08    -0.07   0.11   0.05     0.00  -0.00  -0.01
     8   9     0.04   0.20  -0.10    -0.18   0.15  -0.07     0.01  -0.01  -0.00
     9   6     0.22   0.14  -0.01    -0.07   0.06   0.01    -0.00  -0.00  -0.01
    10   8    -0.02   0.09  -0.01     0.44  -0.00  -0.01    -0.02   0.01  -0.06
    11   1    -0.04   0.14  -0.01     0.61  -0.39   0.16     0.07  -0.09   0.99
                     10                     11                     12
                      A                      A                      A
 Frequencies --    457.5222               487.3027               541.8892
 Red. masses --     15.6737                15.0479                17.8956
 Frc consts  --      1.9331                 2.1053                 3.0961
 IR Inten    --      2.5212                 5.1036                 2.5038
  Atom  AN      X      Y      Z        X      Y      Z        X      Y      Z
     1   6     0.00   0.02   0.06     0.04  -0.09   0.07    -0.12   0.13  -0.18
     2   9    -0.27   0.06  -0.21     0.17  -0.04  -0.32     0.05   0.10   0.32
     3   9     0.04  -0.32  -0.15     0.05  -0.05   0.16    -0.17   0.19  -0.27
     4   6     0.01   0.17   0.49    -0.00  -0.29   0.30    -0.11   0.00  -0.01
     5   9    -0.18  -0.24  -0.03    -0.15   0.16   0.25     0.07  -0.06   0.34
     6   9     0.16   0.05   0.16    -0.03   0.37   0.02     0.24  -0.26  -0.04
     7   9     0.01   0.03  -0.32    -0.05  -0.12  -0.14    -0.14  -0.31  -0.24
     8   9     0.22   0.02   0.17     0.01   0.27  -0.22     0.20   0.34  -0.13
     9   6     0.01   0.05   0.07    -0.03  -0.07   0.07    -0.12  -0.13   0.20
    10   8    -0.01   0.28  -0.02     0.01  -0.33  -0.04    -0.04   0.01   0.01
    11   1     0.02   0.24   0.07     0.01  -0.35   0.00    -0.02  -0.03  -0.03
                     13                     14                     15
                      A                      A                      A
 Frequencies --    550.0087               619.6687               639.0420
 Red. masses --     17.7057                14.3273                14.0447
 Frc consts  --      3.1557                 3.2414                 3.3793
 IR Inten    --      0.9781                 3.5090                 3.1908
  Atom  AN      X      Y      Z        X      Y      Z        X      Y      Z
     1   6    -0.08   0.15   0.19     0.08  -0.11  -0.15    -0.11   0.07  -0.12
     2   9    -0.06   0.31  -0.13    -0.02  -0.30   0.07     0.09   0.13   0.14
     3   9     0.16  -0.20  -0.27    -0.08   0.10   0.17    -0.25   0.12  -0.23
     4   6    -0.11   0.01   0.02    -0.00   0.16   0.48     0.01  -0.24   0.54
     5   9     0.17   0.34  -0.00     0.05   0.20  -0.03    -0.15   0.10  -0.16
     6   9     0.03  -0.06   0.38     0.10   0.06  -0.30     0.19  -0.08   0.00
     7   9    -0.15  -0.22   0.30    -0.18  -0.15   0.15     0.21   0.22   0.08
     8   9     0.10  -0.19  -0.27     0.13  -0.19  -0.18    -0.09  -0.14   0.00
     9   6    -0.09  -0.15  -0.19    -0.08  -0.08  -0.13     0.11   0.05  -0.10
    10   8    -0.08   0.02  -0.01     0.00   0.33   0.01    -0.00  -0.30  -0.03
    11   1    -0.08   0.02   0.09     0.02   0.26  -0.22    -0.03  -0.27  -0.17
                     16                     17                     18
                      A                      A                      A
 Frequencies --    702.4342               778.8060               960.7536
 Red. masses --     12.2316                17.1893                 6.1734
 Frc consts  --      3.5559                 6.1428                 3.3574
 IR Inten    --     38.3646                 3.2116               154.2068
  Atom  AN      X      Y      Z        X      Y      Z        X      Y      Z
     1   6     0.22   0.16  -0.02     0.22   0.12  -0.02     0.14   0.03  -0.04
     2   9    -0.16   0.27   0.08    -0.13   0.35   0.09     0.00  -0.10  -0.01
     3   9    -0.00  -0.18   0.15     0.12  -0.19   0.23    -0.14   0.05  -0.10
     4   6     0.33   0.00   0.00     0.02  -0.10   0.11     0.41  -0.00   0.00
     5   9    -0.10  -0.05   0.29     0.05   0.13  -0.35    -0.03   0.06  -0.10
     6   9    -0.04  -0.13  -0.21     0.05  -0.10  -0.33    -0.08   0.00   0.16
     7   9    -0.05   0.20  -0.03    -0.14  -0.29   0.03    -0.18  -0.11   0.00
     8   9    -0.07  -0.13  -0.28     0.03   0.21   0.31    -0.03   0.07   0.07
     9   6     0.23  -0.15   0.02    -0.20   0.13  -0.02     0.19   0.02   0.03
    10   8    -0.07  -0.02  -0.01    -0.00  -0.25  -0.02     0.02  -0.04  -0.01
    11   1    -0.27   0.44   0.07    -0.04  -0.18  -0.03    -0.31   0.72   0.09
                     19                     20                     21
                      A                      A                      A
 Frequencies --   1124.4925              1151.5913              1176.4747
 Red. masses --     12.2751                12.9044                12.5079
 Frc consts  --      9.1451                10.0828                10.2000
 IR Inten    --     37.6392               374.7270               225.9295
  Atom  AN      X      Y      Z        X      Y      Z        X      Y      Z
     1   6    -0.04  -0.11   0.62    -0.09   0.27   0.59    -0.06  -0.36   0.14
     2   9     0.01   0.01  -0.04     0.01  -0.14  -0.06     0.01   0.15   0.01
     3   9    -0.10   0.05  -0.13    -0.05   0.01  -0.09    -0.02   0.03  -0.03
     4   6     0.01  -0.01  -0.01     0.07  -0.06  -0.06    -0.08  -0.07  -0.06
     5   9     0.02  -0.12   0.19    -0.03   0.13  -0.20    -0.04   0.03  -0.14
     6   9     0.09  -0.01  -0.21     0.09  -0.03  -0.20     0.03   0.02  -0.06
     7   9    -0.09  -0.08   0.03     0.07   0.08  -0.03    -0.12  -0.09  -0.03
     8   9    -0.02   0.02   0.07    -0.01   0.06   0.00     0.03  -0.18  -0.19
     9   6     0.14   0.33  -0.48    -0.05  -0.49   0.36     0.26   0.43   0.61
    10   8     0.04  -0.03  -0.01    -0.03   0.07   0.00     0.03   0.06   0.01
    11   1    -0.09   0.25   0.05    -0.05   0.11   0.06     0.12  -0.18   0.04
                     22                     23                     24
                      A                      A                      A
 Frequencies --   1210.0370              1228.2980              1272.1222
 Red. masses --      6.7947                 7.3576                 2.6758
 Frc consts  --      5.8616                 6.5403                 2.5513
 IR Inten    --    364.7886               418.3072               217.4867
  Atom  AN      X      Y      Z        X      Y      Z        X      Y      Z
     1   6     0.49  -0.34   0.09    -0.15  -0.16  -0.08    -0.15  -0.25  -0.01
     2   9    -0.04   0.11   0.01     0.02   0.10   0.02     0.01   0.09   0.01
     3   9    -0.15   0.07  -0.10     0.05  -0.00   0.03     0.02   0.01   0.01
     4   6    -0.02   0.06  -0.01    -0.06  -0.21  -0.01     0.08  -0.05  -0.00
     5   9     0.01   0.01  -0.00    -0.04   0.04  -0.03     0.01   0.01  -0.01
     6   9    -0.05   0.02   0.04     0.02   0.01  -0.01     0.02   0.01  -0.01
     7   9     0.05   0.04  -0.00    -0.09  -0.02   0.01     0.04   0.03  -0.00
     8   9     0.01   0.03   0.02    -0.07   0.12   0.11     0.00   0.02   0.01
     9   6    -0.15  -0.17  -0.01     0.45  -0.27  -0.15    -0.14  -0.09  -0.02
    10   8    -0.05   0.04   0.01    -0.06   0.23   0.02     0.06   0.02  -0.00
    11   1     0.26  -0.66  -0.10     0.31  -0.61  -0.08    -0.31   0.87   0.10
                     25                     26                     27
                      A                      A                      A
 Frequencies --   1442.3041              1509.0820              3824.0099
 Red. masses --      3.2422                 7.7050                 1.0656
 Frc consts  --      3.9738                10.3383                 9.1812
 IR Inten    --    126.6063                 5.2211               128.5590
  Atom  AN      X      Y      Z        X      Y      Z        X      Y      Z
     1   6    -0.14  -0.01   0.01    -0.23  -0.17   0.02    -0.00   0.00  -0.00
     2   9     0.01   0.01   0.00     0.00   0.03   0.00     0.00   0.00   0.00
     3   9     0.00  -0.00   0.00     0.03   0.00   0.02     0.00   0.00   0.00
     4   6     0.33  -0.10  -0.01     0.13   0.60   0.04    -0.00   0.00   0.00
     5   9     0.01  -0.01   0.01    -0.01   0.02  -0.01    -0.00   0.00  -0.00
     6   9     0.00  -0.00   0.00     0.02   0.01  -0.02     0.00   0.00  -0.00
     7   9     0.01  -0.00  -0.00    -0.04  -0.01  -0.00    -0.00  -0.00   0.00
     8   9     0.01  -0.01  -0.01    -0.00   0.02   0.01    -0.00   0.00   0.00
     9   6    -0.18   0.09  -0.02     0.13  -0.14   0.01     0.00   0.00   0.00
    10   8    -0.09   0.09   0.02    -0.04  -0.26  -0.03    -0.06  -0.03   0.00
    11   1     0.33  -0.82  -0.12     0.12  -0.63  -0.07     0.91   0.41  -0.04

 -------------------
 - Thermochemistry -
 -------------------
 Temperature   298.150 Kelvin.  Pressure   1.00000 Atm.
 Atom     1 has atomic number  6 and mass  12.00000
 Atom     2 has atomic number  9 and mass  18.99840
 Atom     3 has atomic number  9 and mass  18.99840
 Atom     4 has atomic number  6 and mass  12.00000
 Atom     5 has atomic number  9 and mass  18.99840
 Atom     6 has atomic number  9 and mass  18.99840
 Atom     7 has atomic number  9 and mass  18.99840
 Atom     8 has atomic number  9 and mass  18.99840
 Atom     9 has atomic number  6 and mass  12.00000
 Atom    10 has atomic number  8 and mass  15.99491
 Atom    11 has atomic number  1 and mass   1.00783
 Molecular mass:   166.99316 amu.
 Principal axes and moments of inertia in atomic units:
                           1         2         3
     Eigenvalues --   854.331031764.477401993.19983
           X            0.99997   0.00771  -0.00021
           Y           -0.00771   0.99996  -0.00458
           Z            0.00017   0.00458   0.99999
 This molecule is an asymmetric top.
 Rotational symmetry number  1.
 Warning -- assumption of classical behavior for rotation
           may cause significant error
 Rotational temperatures (Kelvin)      0.10138     0.04909     0.04345
 Rotational constants (GHZ):           2.11246     1.02282     0.90545
 Zero-point vibrational energy     130089.8 (Joules/Mol)
                                   31.09220 (Kcal/Mol)
 Warning -- explicit consideration of  14 degrees of freedom as
           vibrations may cause significant error
 Vibrational temperatures:     45.69    63.82   182.52   231.58   407.67
          (Kelvin)            435.28   488.62   520.70   607.37   658.27
                              701.12   779.66   791.34   891.57   919.44
                             1010.65  1120.53  1382.31  1617.89  1656.88
                             1692.68  1740.97  1767.25  1830.30  2075.15
                             2171.23  5501.90
 
 Zero-point correction=                           0.049549 (Hartree/Particle)
 Thermal correction to Energy=                    0.058799
 Thermal correction to Enthalpy=                  0.059743
 Thermal correction to Gibbs Free Energy=         0.012781
 Sum of electronic and zero-point Energies=           -789.139435
 Sum of electronic and thermal Energies=              -789.130185
 Sum of electronic and thermal Enthalpies=            -789.129241
 Sum of electronic and thermal Free Energies=         -789.176203
 
                     E (Thermal)             CV                S
                      KCal/Mol        Cal/Mol-Kelvin    Cal/Mol-Kelvin
 Total                   36.897             31.908             98.840
 Electronic               0.000              0.000              1.377
 Translational            0.889              2.981             41.247
 Rotational               0.889              2.981             29.487
 Vibrational             35.119             25.946             26.729
 Vibration     1          0.594              1.983              5.717
 Vibration     2          0.595              1.980              5.054
 Vibration     3          0.611              1.926              2.993
 Vibration     4          0.622              1.890              2.539
 Vibration     5          0.682              1.705              1.513
 Vibration     6          0.694              1.669              1.403
 Vibration     7          0.720              1.596              1.214
 Vibration     8          0.736              1.551              1.114
 Vibration     9          0.784              1.422              0.885
 Vibration    10          0.816              1.344              0.773
 Vibration    11          0.843              1.278              0.691
 Vibration    12          0.897              1.157              0.561
 Vibration    13          0.905              1.140              0.544
 Vibration    14          0.980              0.990              0.417
                       Q            Log10(Q)             Ln(Q)
 Total Bot       0.132173D-05         -5.878859        -13.536572
 Total V=0       0.816369D+17         16.911887         38.941058
 Vib (Bot)       0.125565D-19        -19.901133        -45.824051
 Vib (Bot)    1  0.651900D+01          0.814181          1.874720
 Vib (Bot)    2  0.466301D+01          0.668666          1.539660
 Vib (Bot)    3  0.160826D+01          0.206357          0.475156
 Vib (Bot)    4  0.125564D+01          0.098866          0.227647
 Vib (Bot)    5  0.677345D+00         -0.169190         -0.389574
 Vib (Bot)    6  0.627703D+00         -0.202246         -0.465689
 Vib (Bot)    7  0.546892D+00         -0.262098         -0.603504
 Vib (Bot)    8  0.505813D+00         -0.296010         -0.681588
 Vib (Bot)    9  0.415261D+00         -0.381678         -0.878847
 Vib (Bot)   10  0.372519D+00         -0.428851         -0.987466
 Vib (Bot)   11  0.341052D+00         -0.467180         -1.075721
 Vib (Bot)   12  0.291852D+00         -0.534837         -1.231509
 Vib (Bot)   13  0.285324D+00         -0.544661         -1.254128
 Vib (Bot)   14  0.236080D+00         -0.626940         -1.443583
 Vib (V=0)       0.775555D+03          2.889613          6.653579
 Vib (V=0)    1  0.703814D+01          0.847458          1.951344
 Vib (V=0)    2  0.518974D+01          0.715145          1.646683
 Vib (V=0)    3  0.218420D+01          0.339292          0.781248
 Vib (V=0)    4  0.185153D+01          0.267531          0.616013
 Vib (V=0)    5  0.134190D+01          0.127720          0.294087
 Vib (V=0)    6  0.130250D+01          0.114779          0.264288
 Vib (V=0)    7  0.124101D+01          0.093774          0.215923
 Vib (V=0)    8  0.121123D+01          0.083226          0.191636
 Vib (V=0)    9  0.114996D+01          0.060681          0.139723
 Vib (V=0)   10  0.112351D+01          0.050579          0.116462
 Vib (V=0)   11  0.110524D+01          0.043457          0.100063
 Vib (V=0)   12  0.107895D+01          0.032999          0.075984
 Vib (V=0)   13  0.107568D+01          0.031684          0.072955
 Vib (V=0)   14  0.105293D+01          0.022400          0.051579
 Electronic      0.200000D+01          0.301030          0.693147
 Translational   0.848207D+08          7.928502         18.256050
 Rotational      0.620501D+06          5.792742         13.338282
 ***** Axes restored to original set *****
 -------------------------------------------------------------------
 Center     Atomic                   Forces (Hartrees/Bohr)
 Number     Number              X              Y              Z
 -------------------------------------------------------------------
      1        6           0.000051518    0.000006051   -0.000016412
      2        9           0.000008872   -0.000012371   -0.000000757
      3        9          -0.000006513   -0.000005864   -0.000009746
      4        6          -0.000008678   -0.000000145    0.000014901
      5        9          -0.000012838   -0.000009721   -0.000017126
      6        9          -0.000008260    0.000007027    0.000006520
      7        9          -0.000006893    0.000007518   -0.000004036
      8        9          -0.000012812   -0.000001720    0.000002558
      9        6           0.000012284    0.000007086    0.000022012
     10        8          -0.000013797    0.000009004   -0.000005220
     11        1          -0.000002883   -0.000006864    0.000007307
 -------------------------------------------------------------------
 Cartesian Forces:  Max     0.000051518 RMS     0.000013213
 FormGI is forming the generalized inverse of G from B-inverse, IUseBI=4.

 GradGradGradGradGradGradGradGradGradGradGradGradGradGradGradGradGradGrad
 Berny optimization.
 Internal  Forces:  Max     0.000044295 RMS     0.000013554
 Search for a local minimum.
 Step number   1 out of a maximum of    2
 All quantities printed in internal units (Hartrees-Bohrs-Radians)
 Second derivative matrix not updated -- analytic derivatives used.
 ITU=  0
     Eigenvalues ---    0.00131   0.00170   0.00672   0.01015   0.11565
     Eigenvalues ---    0.12086   0.12764   0.13372   0.17176   0.18338
     Eigenvalues ---    0.20013   0.21847   0.22399   0.24878   0.25196
     Eigenvalues ---    0.26627   0.27740   0.35546   0.35978   0.36926
     Eigenvalues ---    0.38261   0.41621   0.44729   0.51510   0.53186
     Eigenvalues ---    0.53411   0.54708
 Angle between quadratic step and forces=  70.30 degrees.
 Linear search not attempted -- first point.
 Iteration  1 RMS(Cart)=  0.00024213 RMS(Int)=  0.00000004
 Iteration  2 RMS(Cart)=  0.00000005 RMS(Int)=  0.00000001
 Variable       Old X    -DE/DX   Delta X   Delta X   Delta X     New X
                                 (Linear)    (Quad)   (Total)
    R1        2.52070  -0.00000   0.00000  -0.00005  -0.00005   2.52065
    R2        2.52417   0.00001   0.00000   0.00000   0.00000   2.52418
    R3        2.81852   0.00004   0.00000   0.00011   0.00011   2.81863
    R4        2.53786   0.00001   0.00000   0.00003   0.00003   2.53789
    R5        2.82622   0.00001   0.00000  -0.00001  -0.00001   2.82621
    R6        2.52059   0.00001   0.00000   0.00001   0.00001   2.52060
    R7        2.53174  -0.00002   0.00000  -0.00007  -0.00007   2.53167
    R8        2.55225   0.00001   0.00000   0.00004   0.00004   2.55229
    R9        2.51440  -0.00001   0.00000   0.00002   0.00002   2.51441
   R10        1.82372   0.00000   0.00000  -0.00000  -0.00000   1.82372
    A1        1.89395  -0.00001   0.00000  -0.00000  -0.00000   1.89395
    A2        1.92886   0.00003   0.00000   0.00014   0.00014   1.92900
    A3        1.87933  -0.00000   0.00000   0.00000   0.00000   1.87934
    A4        1.93772  -0.00002   0.00000  -0.00008  -0.00008   1.93764
    A5        1.86493   0.00002   0.00000   0.00005   0.00005   1.86498
    A6        1.95629  -0.00002   0.00000  -0.00011  -0.00011   1.95618
    A7        2.13068   0.00003   0.00000   0.00020   0.00020   2.13087
    A8        1.99778  -0.00000   0.00000   0.00001   0.00001   1.99779
    A9        2.09163  -0.00002   0.00000  -0.00003  -0.00003   2.09159
   A10        1.97718   0.00001   0.00000   0.00007   0.00007   1.97725
   A11        1.89338   0.00001   0.00000   0.00001   0.00001   1.89339
   A12        1.96763   0.00000   0.00000  -0.00000  -0.00000   1.96763
   A13        1.86868  -0.00001   0.00000  -0.00002  -0.00002   1.86866
   A14        1.87173  -0.00000   0.00000  -0.00000  -0.00000   1.87173
   A15        1.88053  -0.00001   0.00000  -0.00007  -0.00007   1.88046
   A16        1.91884   0.00002   0.00000   0.00008   0.00008   1.91892
    D1       -0.43217  -0.00000   0.00000  -0.00003  -0.00003  -0.43220
    D2        3.08482  -0.00000   0.00000  -0.00053  -0.00053   3.08429
    D3       -2.53473  -0.00000   0.00000  -0.00007  -0.00007  -2.53480
    D4        0.98226  -0.00000   0.00000  -0.00057  -0.00057   0.98169
    D5        1.66426   0.00000   0.00000  -0.00001  -0.00001   1.66425
    D6       -1.10194   0.00000   0.00000  -0.00051  -0.00051  -1.10245
    D7       -0.95474  -0.00000   0.00000  -0.00031  -0.00031  -0.95505
    D8       -3.02704  -0.00001   0.00000  -0.00034  -0.00034  -3.02738
    D9        1.17493   0.00000   0.00000  -0.00026  -0.00026   1.17467
   D10        1.79193   0.00000   0.00000   0.00023   0.00023   1.79215
   D11       -0.28037  -0.00000   0.00000   0.00020   0.00020  -0.28018
   D12       -2.36159   0.00001   0.00000   0.00027   0.00027  -2.36131
   D13        3.05195   0.00001   0.00000   0.00020   0.00020   3.05215
   D14        0.27665  -0.00001   0.00000  -0.00034  -0.00034   0.27631
         Item               Value     Threshold  Converged?
 Maximum Force            0.000044     0.000450     YES
 RMS     Force            0.000014     0.000300     YES
 Maximum Displacement     0.000632     0.001800     YES
 RMS     Displacement     0.000242     0.001200     YES
 Predicted change in Energy=-1.822339D-08
 Optimization completed.
    -- Stationary point found.
                           ----------------------------
                           !   Optimized Parameters   !
                           ! (Angstroms and Degrees)  !
 --------------------------                            --------------------------
 ! Name  Definition              Value          Derivative Info.                !
 --------------------------------------------------------------------------------
 ! R1    R(1,2)                  1.3339         -DE/DX =    0.0                 !
 ! R2    R(1,3)                  1.3357         -DE/DX =    0.0                 !
 ! R3    R(1,4)                  1.4915         -DE/DX =    0.0                 !
 ! R4    R(1,6)                  1.343          -DE/DX =    0.0                 !
 ! R5    R(4,9)                  1.4956         -DE/DX =    0.0                 !
 ! R6    R(4,10)                 1.3338         -DE/DX =    0.0                 !
 ! R7    R(5,9)                  1.3397         -DE/DX =    0.0                 !
 ! R8    R(7,9)                  1.3506         -DE/DX =    0.0                 !
 ! R9    R(8,9)                  1.3306         -DE/DX =    0.0                 !
 ! R10   R(10,11)                0.9651         -DE/DX =    0.0                 !
 ! A1    A(2,1,3)              108.5153         -DE/DX =    0.0                 !
 ! A2    A(2,1,4)              110.5157         -DE/DX =    0.0                 !
 ! A3    A(2,1,6)              107.6779         -DE/DX =    0.0                 !
 ! A4    A(3,1,4)              111.0234         -DE/DX =    0.0                 !
 ! A5    A(3,1,6)              106.8525         -DE/DX =    0.0                 !
 ! A6    A(4,1,6)              112.0872         -DE/DX =    0.0                 !
 ! A7    A(1,4,9)              122.0788         -DE/DX =    0.0                 !
 ! A8    A(1,4,10)             114.4644         -DE/DX =    0.0                 !
 ! A9    A(9,4,10)             119.8414         -DE/DX =    0.0                 !
 ! A10   A(4,9,5)              113.2843         -DE/DX =    0.0                 !
 ! A11   A(4,9,7)              108.4828         -DE/DX =    0.0                 !
 ! A12   A(4,9,8)              112.737          -DE/DX =    0.0                 !
 ! A13   A(5,9,7)              107.0675         -DE/DX =    0.0                 !
 ! A14   A(5,9,8)              107.2425         -DE/DX =    0.0                 !
 ! A15   A(7,9,8)              107.7465         -DE/DX =    0.0                 !
 ! A16   A(4,10,11)            109.9415         -DE/DX =    0.0                 !
 ! D1    D(2,1,4,9)            -24.7613         -DE/DX =    0.0                 !
 ! D2    D(2,1,4,10)           176.7474         -DE/DX =    0.0                 !
 ! D3    D(3,1,4,9)           -145.2293         -DE/DX =    0.0                 !
 ! D4    D(3,1,4,10)            56.2793         -DE/DX =    0.0                 !
 ! D5    D(6,1,4,9)             95.3549         -DE/DX =    0.0                 !
 ! D6    D(6,1,4,10)           -63.1364         -DE/DX =    0.0                 !
 ! D7    D(1,4,9,5)            -54.7027         -DE/DX =    0.0                 !
 ! D8    D(1,4,9,7)           -173.4368         -DE/DX =    0.0                 !
 ! D9    D(1,4,9,8)             67.3185         -DE/DX =    0.0                 !
 ! D10   D(10,4,9,5)           102.6698         -DE/DX =    0.0                 !
 ! D11   D(10,4,9,7)           -16.0643         -DE/DX =    0.0                 !
 ! D12   D(10,4,9,8)          -135.3091         -DE/DX =    0.0                 !
 ! D13   D(1,4,10,11)          174.8639         -DE/DX =    0.0                 !
 ! D14   D(9,4,10,11)           15.8506         -DE/DX =    0.0                 !
 --------------------------------------------------------------------------------
 GradGradGradGradGradGradGradGradGradGradGradGradGradGradGradGradGradGrad


 ----------------------------------------------------------------------

 Electric dipole moment (input orientation):
 (Debye = 10**-18 statcoulomb cm , SI units = C m)
                  (au)            (Debye)         (10**-30 SI)
   Tot        0.950495D+00      0.241592D+01      0.805863D+01
   x         -0.930898D+00     -0.236611D+01     -0.789248D+01
   y         -0.188635D+00     -0.479463D+00     -0.159932D+01
   z          0.358603D-01      0.911478D-01      0.304036D+00

 Dipole polarizability, Alpha (input orientation).
 (esu units = cm**3 , SI units = C**2 m**2 J**-1)
 Alpha(0;0):
               (au)            (10**-24 esu)      (10**-40 SI)
   iso        0.445947D+02      0.660826D+01      0.735268D+01
   aniso      0.809223D+01      0.119914D+01      0.133423D+01
   xx         0.473688D+02      0.701934D+01      0.781007D+01
   yx        -0.266347D-01     -0.394686D-02     -0.439147D-02
   yy         0.460141D+02      0.681858D+01      0.758669D+01
   zx        -0.876691D+00     -0.129912D+00     -0.144547D+00
   zy        -0.272233D+01     -0.403408D+00     -0.448852D+00
   zz         0.404013D+02      0.598685D+01      0.666127D+01

 ----------------------------------------------------------------------

 Dipole orientation:
     6          0.62495670         -1.72973089         -1.90379601
     9         -0.81658649         -0.49563044         -3.56298116
     9          0.16799837         -4.20206142         -2.12791588
     6          0.09871724         -0.83775029          0.71755720
     9          0.42355166          3.60227607          0.23305866
     9          3.04743000         -1.36615262         -2.56725249
     9         -0.96435526          2.09725482          3.77216495
     9         -3.30892135          2.00860662          0.41903849
     6         -0.95053150          1.73270321          1.24611829
     8          1.37027304         -2.06705299          2.51348381
     1          1.05640044         -1.29631217          4.13626306

 Electric dipole moment (dipole orientation):
 (Debye = 10**-18 statcoulomb cm , SI units = C m)
                  (au)            (Debye)         (10**-30 SI)
   Tot        0.950495D+00      0.241592D+01      0.805863D+01
   x          0.000000D+00      0.000000D+00      0.000000D+00
   y          0.000000D+00      0.000000D+00      0.000000D+00
   z          0.950495D+00      0.241592D+01      0.805863D+01

 Dipole polarizability, Alpha (dipole orientation).
 (esu units = cm**3 , SI units = C**2 m**2 J**-1)
 Alpha(0;0):
               (au)            (10**-24 esu)      (10**-40 SI)
   iso        0.445947D+02      0.660826D+01      0.735268D+01
   aniso      0.809223D+01      0.119914D+01      0.133423D+01
   xx         0.415076D+02      0.615080D+01      0.684369D+01
   yx        -0.342919D+01     -0.508154D+00     -0.565397D+00
   yy         0.448758D+02      0.664990D+01      0.739901D+01
   zx         0.107448D+01      0.159222D+00      0.177158D+00
   zy         0.415612D+00      0.615873D-01      0.685251D-01
   zz         0.474008D+02      0.702407D+01      0.781533D+01

 ----------------------------------------------------------------------
 1\1\GINC-CCLEARTI\Freq\UwB97XD\6-311+G(2d)\C3H1F6O1(2)\RAPPE\16-Nov-20
 25\0\\#N Geom=AllCheck Guess=TCheck SCRF=Check GenChk UwB97XD/6-311+G(
 2d) Freq\\Title Card Required\\0,2\C,1.1831474497,-0.7425985472,0.1042
 281172\F,1.8629962815,0.2028011722,-0.546395467\F,1.5260475858,-1.9324
 14646,-0.3967183263\C,-0.2848982581,-0.5116351537,-0.0224932172\F,-0.4
 608662553,1.7674353611,0.6024788497\F,1.5879773879,-0.7279324934,1.384
 6533119\F,-2.2014814557,0.7671248738,-0.2042279334\F,-0.5487790895,1.3
 065256297,-1.4955934761\C,-0.8556285363,0.8454510371,-0.2857810375\O,-
 1.042899099,-1.4521045926,0.5432654059\H,-1.9728949827,-1.1990415995,0
 .4939377623\\Version=EM64M-G16RevA.03\State=2-A\HF=-789.1889839\S2=0.7
 53875\S2-1=0.\S2A=0.750011\RMSD=2.765e-09\RMSF=1.321e-05\ZeroPoint=0.0
 495486\Thermal=0.0587987\Dipole=-0.9308979,-0.1886353,0.0358603\Dipole
 Deriv=1.722204,-0.122136,0.0377564,-0.0872755,1.663974,0.0239532,0.060
 4709,0.0214141,1.6927384,-0.5446958,-0.2490042,0.187629,-0.1796625,-0.
 588044,0.2152383,0.1237008,0.2182445,-0.4162282,-0.4582109,0.2546064,0
 .0786889,0.2264942,-0.8230866,-0.220669,0.0373537,-0.2174702,-0.364985
 4,0.1662319,0.3912532,-0.222297,0.3404475,0.2196104,-0.2176636,-0.2366
 635,-0.2357769,-0.0722628,-0.3235365,-0.077463,-0.1074241,-0.0745542,-
 0.7884993,-0.2807335,-0.1184763,-0.2845483,-0.5394449,-0.5318408,0.043
 3654,-0.2564911,0.0542406,-0.2860765,0.006992,-0.274914,0.0199176,-0.8
 684675,-0.9774179,-0.0146703,0.0213365,0.0716873,-0.3866661,0.0309639,
 0.0194185,0.0221767,-0.2851958,-0.285393,-0.0204468,0.091028,-0.028358
 7,-0.4848318,0.2846609,0.1252722,0.2345033,-0.8071135,1.5492827,0.0349
 25,0.0192213,-0.0735313,1.7424496,-0.0122207,0.0548039,0.0063257,1.697
 4656,-0.676978,-0.3087755,0.1837664,-0.3022926,-0.6179219,0.1571734,0.
 2425949,0.2088555,-0.3767655,0.3603541,0.0683459,-0.0332143,0.0528052,
 0.3490923,0.012305,-0.033561,0.006358,0.3402597\Polar=47.3688474,-0.02
 66347,46.0140562,-0.8766913,-2.7223345,40.4012702\Quadrupole=2.6090173
 ,-1.9382093,-0.670808,2.4936068,-1.026458,0.3686479\PG=C01 [X(C3H1F6O1
 )]\NImag=0\\0.61416949,-0.00724096,0.52559992,-0.01369422,-0.01974959,
 0.46590293,-0.16385721,-0.07495546,0.05486708,0.16482408,-0.08034209,-
 0.15665952,0.06011103,0.11986275,0.24333785,0.05866059,0.05886027,-0.1
 1198373,-0.08206838,-0.11488818,0.15837271,-0.10781918,0.06092685,0.02
 720124,0.01767045,-0.02233301,-0.00493436,0.09295332,0.06073433,-0.214
 43604,-0.06076700,-0.00942021,-0.07876376,0.00319985,-0.07242030,0.332
 24107,0.02651494,-0.05489801,-0.09331821,-0.00444205,0.01163515,0.0161
 4908,-0.02873471,0.10805814,0.12544629,-0.21808806,0.03298095,-0.02095
 638,-0.02082483,-0.01135793,0.00643641,-0.01510727,0.01773902,0.002151
 28,0.64478111,0.01283872,-0.07355894,0.01270709,-0.03748261,-0.0048372
 9,0.00937413,0.04523201,-0.03091581,-0.00782299,0.03088247,0.57256803,
 0.01130050,0.00497089,-0.04400421,0.02227509,0.00675653,0.00082126,0.0
 0588244,-0.00210680,0.00700901,-0.07698983,-0.19939647,0.20770476,-0.0
 0253800,-0.00419072,-0.00140719,-0.00008121,0.00218589,0.00028762,0.00
 082408,0.00032103,0.00025123,0.01168661,0.00112639,0.00134193,0.102654
 95,-0.01528582,-0.00103733,-0.00151561,0.00346223,0.00267449,-0.001035
 26,0.00315492,-0.00158748,0.00032809,0.00237758,-0.03523414,-0.0300350
 7,0.06761952,0.21445734,-0.00420060,-0.00107794,-0.00370236,0.00105462
 ,0.00024735,0.00067477,0.00077453,-0.00009855,0.00050686,-0.00051756,-
 0.00905621,0.00337106,0.06154809,0.13970553,0.21542658,-0.10951147,-0.
 00028845,-0.06947110,0.01837300,-0.00400631,0.02054119,0.01806176,-0.0
 0216468,0.00382736,-0.02116642,0.01235159,-0.04455191,0.00037277,0.004
 68373,0.00168185,0.09542805,0.00109772,-0.07019787,0.00472953,0.001114
 01,-0.00282371,0.04310999,-0.00805040,-0.01525055,-0.05711963,0.003917
 35,0.00737998,0.00809576,0.00068076,-0.00045535,0.00040152,0.00105677,
 0.07861585,-0.06375951,-0.00041047,-0.21419699,0.00731358,0.03431671,-
 0.06338345,-0.00397023,-0.04221440,-0.05535847,-0.02012198,0.01235832,
 -0.02600830,0.00066838,0.00415149,0.00278237,0.08453164,0.00415216,0.3
 5376205,0.00760798,0.00179678,0.00012215,0.00000705,0.00077708,-0.0004
 2812,-0.00343418,0.00337990,0.00109183,-0.05583184,0.00241086,0.005096
 13,-0.04577829,-0.03247165,-0.02754496,-0.00214122,0.00021606,-0.00234
 673,0.36921144,-0.00664030,-0.00513388,0.00109537,0.00108676,0.0015309
 2,-0.00067301,0.00247187,-0.00107525,-0.00061102,0.03392866,-0.0027532
 0,0.00175728,-0.04700059,-0.00355720,-0.01423233,0.00218718,0.00047010
 ,0.00169433,0.01130234,0.08678926,0.00110951,0.00108816,0.00016753,-0.
 00034957,-0.00055223,0.00062929,-0.00096014,0.00049123,0.00021709,-0.0
 0201693,0.00313062,0.00666803,-0.03555817,-0.01277310,0.00131883,0.000
 53107,-0.00006091,0.00078034,-0.01557085,-0.00335297,0.07901376,-0.003
 09393,-0.00387624,0.00335470,-0.00188016,0.00354777,-0.00274248,0.0005
 0146,0.00044898,-0.00011780,0.01372512,0.00000317,-0.00378159,0.014094
 58,-0.00044767,-0.00828519,0.00090727,0.00019308,-0.00028339,-0.037660
 44,-0.02578872,0.05410030,0.09486644,-0.00865194,-0.00208580,0.0008623
 0,0.00328713,0.00196260,-0.00080787,0.00162644,-0.00056912,-0.00010207
 ,-0.00349000,-0.01783263,0.02851087,0.00046909,0.01748523,-0.03164257,
 0.00271390,0.00012533,0.00180738,-0.01670133,0.00797980,0.01017187,0.0
 3036286,0.11398226,0.00717297,0.00212229,-0.00487064,-0.00280104,-0.00
 213026,0.00241940,-0.00165820,0.00082842,0.00067688,0.00550399,0.01977
 881,-0.01320693,-0.00056437,-0.01483521,-0.08425283,-0.00177251,0.0000
 2120,0.00024929,0.04189215,0.01257047,-0.01716601,-0.07208025,-0.09952
 108,0.35209491,-0.00480210,0.03555897,-0.00538494,-0.00046985,-0.00534
 466,0.00192648,-0.00338809,-0.00128464,0.00056306,-0.10122343,0.068856
 71,-0.01864519,-0.08181239,-0.02921873,-0.02371092,0.00025026,-0.00276
 493,0.00116191,-0.23698521,0.01834888,0.00362197,-0.08096333,-0.010528
 84,0.02716702,0.51174927,0.03840658,0.00799510,-0.00190257,-0.00679944
 ,-0.00804122,0.00312977,-0.00884605,0.00457491,0.00085645,0.02575611,-
 0.17977844,0.05379402,-0.02514350,-0.18360751,-0.07976930,-0.01335649,
 -0.00041067,-0.01103797,0.02346714,-0.08217437,0.00263935,-0.00808789,
 -0.11369654,0.07742187,-0.03204175,0.56932973,-0.01337328,0.00260149,0
 .01175773,0.00222649,0.00342071,-0.00574117,0.00540869,-0.00461068,-0.
 00193971,0.00288015,0.02315115,-0.05476892,-0.02638612,-0.08771779,-0.
 13575815,0.00026812,-0.00171813,-0.00416624,0.00182652,0.00274492,-0.0
 7094810,0.03172771,0.08398560,-0.23154534,-0.00274709,-0.04206771,0.49
 137909,-0.00958924,-0.03863849,0.02346936,-0.01357900,-0.00316563,0.00
 237462,-0.00126607,0.00301999,-0.00094592,-0.20801166,-0.14113285,0.09
 837549,0.00152637,-0.00556030,-0.00114662,-0.00200903,0.00260183,-0.00
 384205,0.00795525,0.00732077,-0.00395900,0.00057580,-0.00080667,-0.001
 68579,-0.00819523,0.01062438,-0.00213032,0.70239670,0.00488642,-0.0060
 4960,0.00078418,0.00223559,0.00227916,-0.00081702,-0.00185234,0.005276
 81,-0.00002750,-0.09441211,-0.23987297,0.12718534,0.00242430,-0.009014
 21,-0.00498111,-0.00337947,0.00234079,-0.00463634,-0.00047542,-0.00200
 675,0.00034147,0.00226590,-0.00799070,0.00557246,-0.02929261,-0.012992
 03,0.01850537,0.01338723,0.34054691,-0.00976350,0.00358346,-0.00690514
 ,0.00097188,0.00075973,0.00231548,0.00166410,-0.00320164,0.00072584,0.
 08012651,0.14056164,-0.08567676,0.00038592,0.00483400,0.00058911,0.004
 05231,-0.00135712,0.00532981,-0.00195101,-0.00004198,0.00073395,-0.001
 57168,0.00681018,-0.00438469,0.01275422,-0.00565625,0.00030312,-0.0725
 0992,-0.16747932,0.10294294,-0.00247827,-0.00207324,0.00189931,-0.0001
 8231,0.00017614,-0.00005357,0.00100371,-0.00035341,-0.00015922,-0.0299
 3933,0.00491355,-0.00030305,-0.00094947,0.00168618,0.00034675,0.001435
 02,-0.00006224,0.00064839,-0.00295055,0.00278315,-0.00094819,-0.001072
 80,0.00171935,-0.00117398,0.00584012,-0.00397909,0.00029915,-0.4698038
 9,0.10421251,-0.01415882,0.49909777,0.00019734,-0.00443603,0.00364528,
 -0.00239075,-0.00065952,0.00054732,0.00009003,0.00050520,-0.00029661,-
 0.03832210,0.00483540,0.00046765,0.00150782,-0.00012385,0.00050361,0.0
 0020223,0.00020609,-0.00018122,0.00629824,-0.00006944,-0.00112350,0.00
 137876,0.00063956,-0.00182897,-0.01228841,-0.00119896,0.00170508,0.152
 34972,-0.07251742,0.02118731,-0.10902288,0.07281897,0.00003261,0.00290
 945,0.00115309,0.00095230,0.00032345,-0.00027364,-0.00067336,0.0004214
 4,-0.00011467,0.02350434,-0.00478609,-0.00190900,-0.00056733,-0.001107
 05,-0.00095625,0.00036198,-0.00025437,0.00020957,-0.00218710,-0.000951
 08,-0.00141471,-0.00032032,-0.00007462,-0.00001402,0.00329349,0.002592
 35,0.00142770,-0.03799985,0.02555248,-0.01597366,0.01360324,-0.0246259
 5,0.01786559\\-0.00005152,-0.00000605,0.00001641,-0.00000887,0.0000123
 7,0.00000076,0.00000651,0.00000586,0.00000975,0.00000868,0.00000015,-0
 .00001490,0.00001284,0.00000972,0.00001713,0.00000826,-0.00000703,-0.0
 0000652,0.00000689,-0.00000752,0.00000404,0.00001281,0.00000172,-0.000
 00256,-0.00001228,-0.00000709,-0.00002201,0.00001380,-0.00000900,0.000
 00522,0.00000288,0.00000686,-0.00000731\\\@


 IT IS WELL TO REMEMBER THAT MAN IS A PART OF NATURE AND THAT HIS WORKS,
 WHATEVER THEY MAY BE, ARE NO MORE "UNNATURAL" THAN 
 THE FLIGHT OF AN EAGLE OR THE PASSAGE OF A TORNADO.

                                    -- CHARLES MCCARRY IN "THE GREAT SOUTHWEST"
 Job cpu time:       0 days  2 hours 47 minutes  8.6 seconds.
 Elapsed time:       0 days  0 hours  7 minutes  5.5 seconds.
 File lengths (MBytes):  RWF=    174 Int=      0 D2E=      0 Chk=      9 Scr=      1
 Normal termination of Gaussian 16 at Sun Nov 16 14:55:53 2025.
