 Entering Gaussian System, Link 0=g16
 Initial command:
 /usr/local/src/g16/l1.exe "/home/rappe/Gau-6434.inp" -scrdir="/home/rappe/"
 Entering Link 1 = /usr/local/src/g16/l1.exe PID=      6435.
  
 Copyright (c) 1988,1990,1992,1993,1995,1998,2003,2009,2016,
            Gaussian, Inc.  All Rights Reserved.
  
 This is part of the Gaussian(R) 16 program.  It is based on
 the Gaussian(R) 09 system (copyright 2009, Gaussian, Inc.),
 the Gaussian(R) 03 system (copyright 2003, Gaussian, Inc.),
 the Gaussian(R) 98 system (copyright 1998, Gaussian, Inc.),
 the Gaussian(R) 94 system (copyright 1995, Gaussian, Inc.),
 the Gaussian 92(TM) system (copyright 1992, Gaussian, Inc.),
 the Gaussian 90(TM) system (copyright 1990, Gaussian, Inc.),
 the Gaussian 88(TM) system (copyright 1988, Gaussian, Inc.),
 the Gaussian 86(TM) system (copyright 1986, Carnegie Mellon
 University), and the Gaussian 82(TM) system (copyright 1983,
 Carnegie Mellon University). Gaussian is a federally registered
 trademark of Gaussian, Inc.
  
 This software contains proprietary and confidential information,
 including trade secrets, belonging to Gaussian, Inc.
  
 This software is provided under written license and may be
 used, copied, transmitted, or stored only in accord with that
 written license.
  
 The following legend is applicable only to US Government
 contracts under FAR:
  
                    RESTRICTED RIGHTS LEGEND
  
 Use, reproduction and disclosure by the US Government is
 subject to restrictions as set forth in subparagraphs (a)
 and (c) of the Commercial Computer Software - Restricted
 Rights clause in FAR 52.227-19.
  
 Gaussian, Inc.
 340 Quinnipiac St., Bldg. 40, Wallingford CT 06492
  
  
 ---------------------------------------------------------------
 Warning -- This program may not be used in any manner that
 competes with the business of Gaussian, Inc. or will provide
 assistance to any competitor of Gaussian, Inc.  The licensee
 of this program is prohibited from giving any competitor of
 Gaussian, Inc. access to this program.  By using this program,
 the user acknowledges that Gaussian, Inc. is engaged in the
 business of creating and licensing software in the field of
 computational chemistry and represents and warrants to the
 licensee that it is not a competitor of Gaussian, Inc. and that
 it will not use this program in any manner prohibited above.
 ---------------------------------------------------------------
  

 Cite this work as:
 Gaussian 16, Revision A.03,
 M. J. Frisch, G. W. Trucks, H. B. Schlegel, G. E. Scuseria, 
 M. A. Robb, J. R. Cheeseman, G. Scalmani, V. Barone, 
 G. A. Petersson, H. Nakatsuji, X. Li, M. Caricato, A. V. Marenich, 
 J. Bloino, B. G. Janesko, R. Gomperts, B. Mennucci, H. P. Hratchian, 
 J. V. Ortiz, A. F. Izmaylov, J. L. Sonnenberg, D. Williams-Young, 
 F. Ding, F. Lipparini, F. Egidi, J. Goings, B. Peng, A. Petrone, 
 T. Henderson, D. Ranasinghe, V. G. Zakrzewski, J. Gao, N. Rega, 
 G. Zheng, W. Liang, M. Hada, M. Ehara, K. Toyota, R. Fukuda, 
 J. Hasegawa, M. Ishida, T. Nakajima, Y. Honda, O. Kitao, H. Nakai, 
 T. Vreven, K. Throssell, J. A. Montgomery, Jr., J. E. Peralta, 
 F. Ogliaro, M. J. Bearpark, J. J. Heyd, E. N. Brothers, K. N. Kudin, 
 V. N. Staroverov, T. A. Keith, R. Kobayashi, J. Normand, 
 K. Raghavachari, A. P. Rendell, J. C. Burant, S. S. Iyengar, 
 J. Tomasi, M. Cossi, J. M. Millam, M. Klene, C. Adamo, R. Cammi, 
 J. W. Ochterski, R. L. Martin, K. Morokuma, O. Farkas, 
 J. B. Foresman, and D. J. Fox, Gaussian, Inc., Wallingford CT, 2016.
 
 ******************************************
 Gaussian 16:  ES64L-G16RevA.03 25-Dec-2016
                30-Dec-2025 
 ******************************************
 %nprocshared=56
 Will use up to   56 processors via shared memory.
 %mem=220GB
 %chk=nmefosaa.chk
 ---------------------------------
 #p opt wb97xd/6-311+g(2d,2p) freq
 ---------------------------------
 1/18=20,19=15,26=3,38=1/1,3;
 2/9=110,12=2,17=6,18=5,40=1/2;
 3/5=4,6=6,7=212,11=2,25=1,30=1,71=1,74=-58/1,2,3;
 4//1;
 5/5=2,38=5/2;
 6/7=2,8=2,9=2,10=2,28=1/1;
 7//1,2,3,16;
 1/18=20,19=15,26=3/3(2);
 2/9=110/2;
 99//99;
 2/9=110/2;
 3/5=4,6=6,7=212,11=2,25=1,30=1,71=1,74=-58/1,2,3;
 4/5=5,16=3,69=1/1;
 5/5=2,38=5/2;
 7//1,2,3,16;
 1/18=20,19=15,26=3/3(-5);
 2/9=110/2;
 6/7=2,8=2,9=2,10=2,19=2,28=1/1;
 99/9=1/99;
 Leave Link    1 at Tue Dec 30 12:38:18 2025, MaxMem= 29527900160 cpu:               6.8 elap:               0.1
 (Enter /usr/local/src/g16/l101.exe)
 -------------------
 Title Card Required
 -------------------
 Symbolic Z-matrix:
 Charge =  0 Multiplicity = 1
 C                    -3.81589  -0.00479  -0.20022 
 C                    -2.39672   0.63477  -0.15779 
 C                    -1.23813  -0.39433   0.02232 
 C                     0.10287   0.26948   0.45344 
 S                     1.59159  -0.82532   0.17373 
 O                     1.33119  -2.03384   0.88294 
 O                     1.86248  -0.76046  -1.23634 
 F                    -2.37432   1.50796   0.86038 
 F                    -2.21039   1.29508  -1.30495 
 F                    -4.15999  -0.46601   0.99245 
 F                    -3.85098  -0.99709  -1.0802 
 F                    -4.68866   0.92504  -0.56501 
 N                     2.76711  -0.02507   0.92813 
 H                     2.9572   -0.32898   1.86832 
 C                     3.58058   1.01821   0.31905 
 H                     2.98943   1.54289  -0.43055 
 H                     3.86232   1.7326    1.08636 
 H                     3.80163  -0.67057  -1.40583 
 C                     4.86887   0.50757  -0.33471 
 O                     4.7324   -0.45296  -1.24777 
 O                     5.93595   0.96614  -0.05165 
 F                     0.06181   0.55477   1.75665 
 F                    -1.5823   -1.28468   0.95854 
 F                    -1.05178  -1.02958  -1.13987 
 F                     0.30645   1.4021   -0.23187 
 
 ITRead=  0  0  0  0  0  0  0  0  0  0  0  0  0  0  0  0  0  0  0  0
 ITRead=  0  0  0  0  0
 MicOpt= -1 -1 -1 -1 -1 -1 -1 -1 -1 -1 -1 -1 -1 -1 -1 -1 -1 -1 -1 -1
 MicOpt= -1 -1 -1 -1 -1
 NAtoms=     25 NQM=       25 NQMF=       0 NMMI=      0 NMMIF=      0
                NMic=       0 NMicF=      0.
                    Isotopes and Nuclear Properties:
 (Nuclear quadrupole moments (NQMom) in fm**2, nuclear magnetic moments (NMagM)
  in nuclear magnetons)

  Atom         1           2           3           4           5           6           7           8           9          10
 IAtWgt=          12          12          12          12          32          16          16          19          19          19
 AtmWgt=  12.0000000  12.0000000  12.0000000  12.0000000  31.9720718  15.9949146  15.9949146  18.9984033  18.9984033  18.9984033
 NucSpn=           0           0           0           0           0           0           0           1           1           1
 AtZEff=  -0.0000000  -0.0000000  -0.0000000  -0.0000000  -0.0000000  -0.0000000  -0.0000000  -0.0000000  -0.0000000  -0.0000000
 NQMom=    0.0000000   0.0000000   0.0000000   0.0000000   0.0000000   0.0000000   0.0000000   0.0000000   0.0000000   0.0000000
 NMagM=    0.0000000   0.0000000   0.0000000   0.0000000   0.0000000   0.0000000   0.0000000   2.6288670   2.6288670   2.6288670
 AtZNuc=   6.0000000   6.0000000   6.0000000   6.0000000  16.0000000   8.0000000   8.0000000   9.0000000   9.0000000   9.0000000

  Atom        11          12          13          14          15          16          17          18          19          20
 IAtWgt=          19          19          14           1          12           1           1           1          12          16
 AtmWgt=  18.9984033  18.9984033  14.0030740   1.0078250  12.0000000   1.0078250   1.0078250   1.0078250  12.0000000  15.9949146
 NucSpn=           1           1           2           1           0           1           1           1           0           0
 AtZEff=  -0.0000000  -0.0000000  -0.0000000  -0.0000000  -0.0000000  -0.0000000  -0.0000000  -0.0000000  -0.0000000  -0.0000000
 NQMom=    0.0000000   0.0000000   2.0440000   0.0000000   0.0000000   0.0000000   0.0000000   0.0000000   0.0000000   0.0000000
 NMagM=    2.6288670   2.6288670   0.4037610   2.7928460   0.0000000   2.7928460   2.7928460   2.7928460   0.0000000   0.0000000
 AtZNuc=   9.0000000   9.0000000   7.0000000   1.0000000   6.0000000   1.0000000   1.0000000   1.0000000   6.0000000   8.0000000

  Atom        21          22          23          24          25
 IAtWgt=          16          19          19          19          19
 AtmWgt=  15.9949146  18.9984033  18.9984033  18.9984033  18.9984033
 NucSpn=           0           1           1           1           1
 AtZEff=  -0.0000000  -0.0000000  -0.0000000  -0.0000000  -0.0000000
 NQMom=    0.0000000   0.0000000   0.0000000   0.0000000   0.0000000
 NMagM=    0.0000000   2.6288670   2.6288670   2.6288670   2.6288670
 AtZNuc=   8.0000000   9.0000000   9.0000000   9.0000000   9.0000000
 Leave Link  101 at Tue Dec 30 12:38:18 2025, MaxMem= 29527900160 cpu:              24.2 elap:               0.5
 (Enter /usr/local/src/g16/l103.exe)

 GradGradGradGradGradGradGradGradGradGradGradGradGradGradGradGradGradGrad
 Berny optimization.
 Initialization pass.
                           ----------------------------
                           !    Initial Parameters    !
                           ! (Angstroms and Degrees)  !
 --------------------------                            --------------------------
 ! Name  Definition              Value          Derivative Info.                !
 --------------------------------------------------------------------------------
 ! R1    R(1,2)                  1.5572         estimate D2E/DX2                !
 ! R2    R(1,10)                 1.3242         estimate D2E/DX2                !
 ! R3    R(1,11)                 1.3267         estimate D2E/DX2                !
 ! R4    R(1,12)                 1.3264         estimate D2E/DX2                !
 ! R5    R(2,3)                  1.5601         estimate D2E/DX2                !
 ! R6    R(2,8)                  1.3415         estimate D2E/DX2                !
 ! R7    R(2,9)                  1.3367         estimate D2E/DX2                !
 ! R8    R(3,4)                  1.5572         estimate D2E/DX2                !
 ! R9    R(3,23)                 1.337          estimate D2E/DX2                !
 ! R10   R(3,24)                 1.3375         estimate D2E/DX2                !
 ! R11   R(4,5)                  1.869          estimate D2E/DX2                !
 ! R12   R(4,22)                 1.3347         estimate D2E/DX2                !
 ! R13   R(4,25)                 1.3394         estimate D2E/DX2                !
 ! R14   R(5,6)                  1.4252         estimate D2E/DX2                !
 ! R15   R(5,7)                  1.4373         estimate D2E/DX2                !
 ! R16   R(5,13)                 1.6098         estimate D2E/DX2                !
 ! R17   R(13,14)                1.0062         estimate D2E/DX2                !
 ! R18   R(13,15)                1.4564         estimate D2E/DX2                !
 ! R19   R(15,16)                1.0893         estimate D2E/DX2                !
 ! R20   R(15,17)                1.0856         estimate D2E/DX2                !
 ! R21   R(15,19)                1.5323         estimate D2E/DX2                !
 ! R22   R(18,20)                0.9688         estimate D2E/DX2                !
 ! R23   R(19,20)                1.3323         estimate D2E/DX2                !
 ! R24   R(19,21)                1.1954         estimate D2E/DX2                !
 ! A1    A(2,1,10)             110.8136         estimate D2E/DX2                !
 ! A2    A(2,1,11)             110.4481         estimate D2E/DX2                !
 ! A3    A(2,1,12)             108.6172         estimate D2E/DX2                !
 ! A4    A(10,1,11)            109.2689         estimate D2E/DX2                !
 ! A5    A(10,1,12)            108.7153         estimate D2E/DX2                !
 ! A6    A(11,1,12)            108.9343         estimate D2E/DX2                !
 ! A7    A(1,2,3)              114.1449         estimate D2E/DX2                !
 ! A8    A(1,2,8)              107.6518         estimate D2E/DX2                !
 ! A9    A(1,2,9)              107.8515         estimate D2E/DX2                !
 ! A10   A(3,2,8)              109.2287         estimate D2E/DX2                !
 ! A11   A(3,2,9)              108.7488         estimate D2E/DX2                !
 ! A12   A(8,2,9)              109.1167         estimate D2E/DX2                !
 ! A13   A(2,3,4)              112.9742         estimate D2E/DX2                !
 ! A14   A(2,3,23)             109.2042         estimate D2E/DX2                !
 ! A15   A(2,3,24)             108.4482         estimate D2E/DX2                !
 ! A16   A(4,3,23)             108.161          estimate D2E/DX2                !
 ! A17   A(4,3,24)             108.8477         estimate D2E/DX2                !
 ! A18   A(23,3,24)            109.1489         estimate D2E/DX2                !
 ! A19   A(3,4,5)              113.2542         estimate D2E/DX2                !
 ! A20   A(3,4,22)             109.5695         estimate D2E/DX2                !
 ! A21   A(3,4,25)             110.4706         estimate D2E/DX2                !
 ! A22   A(5,4,22)             107.2075         estimate D2E/DX2                !
 ! A23   A(5,4,25)             107.3198         estimate D2E/DX2                !
 ! A24   A(22,4,25)            108.8761         estimate D2E/DX2                !
 ! A25   A(4,5,6)              106.0633         estimate D2E/DX2                !
 ! A26   A(4,5,7)              105.6943         estimate D2E/DX2                !
 ! A27   A(4,5,13)             102.7285         estimate D2E/DX2                !
 ! A28   A(6,5,7)              124.1163         estimate D2E/DX2                !
 ! A29   A(6,5,13)             108.7691         estimate D2E/DX2                !
 ! A30   A(7,5,13)             107.4387         estimate D2E/DX2                !
 ! A31   A(5,13,14)            115.1941         estimate D2E/DX2                !
 ! A32   A(5,13,15)            124.6104         estimate D2E/DX2                !
 ! A33   A(14,13,15)           120.1067         estimate D2E/DX2                !
 ! A34   A(13,15,16)           109.2507         estimate D2E/DX2                !
 ! A35   A(13,15,17)           108.7094         estimate D2E/DX2                !
 ! A36   A(13,15,19)           114.1617         estimate D2E/DX2                !
 ! A37   A(16,15,17)           108.0749         estimate D2E/DX2                !
 ! A38   A(16,15,19)           108.8551         estimate D2E/DX2                !
 ! A39   A(17,15,19)           107.6178         estimate D2E/DX2                !
 ! A40   A(15,19,20)           116.523          estimate D2E/DX2                !
 ! A41   A(15,19,21)           121.4422         estimate D2E/DX2                !
 ! A42   A(20,19,21)           122.0242         estimate D2E/DX2                !
 ! A43   A(18,20,19)           111.8488         estimate D2E/DX2                !
 ! D1    D(10,1,2,3)            70.4025         estimate D2E/DX2                !
 ! D2    D(10,1,2,8)           -51.0231         estimate D2E/DX2                !
 ! D3    D(10,1,2,9)          -168.6389         estimate D2E/DX2                !
 ! D4    D(11,1,2,3)           -50.8302         estimate D2E/DX2                !
 ! D5    D(11,1,2,8)          -172.2559         estimate D2E/DX2                !
 ! D6    D(11,1,2,9)            70.1283         estimate D2E/DX2                !
 ! D7    D(12,1,2,3)          -170.2385         estimate D2E/DX2                !
 ! D8    D(12,1,2,8)            68.3358         estimate D2E/DX2                !
 ! D9    D(12,1,2,9)           -49.28           estimate D2E/DX2                !
 ! D10   D(1,2,3,4)           -164.0547         estimate D2E/DX2                !
 ! D11   D(1,2,3,23)           -43.6464         estimate D2E/DX2                !
 ! D12   D(1,2,3,24)            75.1937         estimate D2E/DX2                !
 ! D13   D(8,2,3,4)            -43.5046         estimate D2E/DX2                !
 ! D14   D(8,2,3,23)            76.9037         estimate D2E/DX2                !
 ! D15   D(8,2,3,24)          -164.2562         estimate D2E/DX2                !
 ! D16   D(9,2,3,4)             75.4864         estimate D2E/DX2                !
 ! D17   D(9,2,3,23)          -164.1053         estimate D2E/DX2                !
 ! D18   D(9,2,3,24)           -45.2652         estimate D2E/DX2                !
 ! D19   D(2,3,4,5)           -162.4643         estimate D2E/DX2                !
 ! D20   D(2,3,4,22)            77.8996         estimate D2E/DX2                !
 ! D21   D(2,3,4,25)           -42.0476         estimate D2E/DX2                !
 ! D22   D(23,3,4,5)            76.5335         estimate D2E/DX2                !
 ! D23   D(23,3,4,22)          -43.1026         estimate D2E/DX2                !
 ! D24   D(23,3,4,25)         -163.0499         estimate D2E/DX2                !
 ! D25   D(24,3,4,5)           -41.9403         estimate D2E/DX2                !
 ! D26   D(24,3,4,22)         -161.5764         estimate D2E/DX2                !
 ! D27   D(24,3,4,25)           78.4764         estimate D2E/DX2                !
 ! D28   D(3,4,5,6)            -56.2667         estimate D2E/DX2                !
 ! D29   D(3,4,5,7)             77.14           estimate D2E/DX2                !
 ! D30   D(3,4,5,13)          -170.3651         estimate D2E/DX2                !
 ! D31   D(22,4,5,6)            64.7129         estimate D2E/DX2                !
 ! D32   D(22,4,5,7)          -161.8805         estimate D2E/DX2                !
 ! D33   D(22,4,5,13)          -49.3855         estimate D2E/DX2                !
 ! D34   D(25,4,5,6)          -178.4571         estimate D2E/DX2                !
 ! D35   D(25,4,5,7)           -45.0505         estimate D2E/DX2                !
 ! D36   D(25,4,5,13)           67.4445         estimate D2E/DX2                !
 ! D37   D(4,5,13,14)           96.0985         estimate D2E/DX2                !
 ! D38   D(4,5,13,15)          -87.3388         estimate D2E/DX2                !
 ! D39   D(6,5,13,14)          -16.0102         estimate D2E/DX2                !
 ! D40   D(6,5,13,15)          160.5526         estimate D2E/DX2                !
 ! D41   D(7,5,13,14)         -152.7009         estimate D2E/DX2                !
 ! D42   D(7,5,13,15)           23.8619         estimate D2E/DX2                !
 ! D43   D(5,13,15,16)          30.9202         estimate D2E/DX2                !
 ! D44   D(5,13,15,17)         148.646          estimate D2E/DX2                !
 ! D45   D(5,13,15,19)         -91.2107         estimate D2E/DX2                !
 ! D46   D(14,13,15,16)       -152.6753         estimate D2E/DX2                !
 ! D47   D(14,13,15,17)        -34.9495         estimate D2E/DX2                !
 ! D48   D(14,13,15,19)         85.1938         estimate D2E/DX2                !
 ! D49   D(13,15,19,20)         54.8636         estimate D2E/DX2                !
 ! D50   D(13,15,19,21)       -126.2984         estimate D2E/DX2                !
 ! D51   D(16,15,19,20)        -67.4839         estimate D2E/DX2                !
 ! D52   D(16,15,19,21)        111.3541         estimate D2E/DX2                !
 ! D53   D(17,15,19,20)        175.6161         estimate D2E/DX2                !
 ! D54   D(17,15,19,21)         -5.5459         estimate D2E/DX2                !
 ! D55   D(15,19,20,18)          2.8521         estimate D2E/DX2                !
 ! D56   D(21,19,20,18)       -175.9786         estimate D2E/DX2                !
 --------------------------------------------------------------------------------
 Trust Radius=3.00D-01 FncErr=1.00D-07 GrdErr=1.00D-06 EigMax=2.50D+02 EigMin=1.00D-04
 Number of steps in this run=    133 maximum allowed number of steps=    150.
 GradGradGradGradGradGradGradGradGradGradGradGradGradGradGradGradGradGrad

 Leave Link  103 at Tue Dec 30 12:38:18 2025, MaxMem= 29527900160 cpu:               2.9 elap:               0.1
 (Enter /usr/local/src/g16/l202.exe)
                          Input orientation:                          
 ---------------------------------------------------------------------
 Center     Atomic      Atomic             Coordinates (Angstroms)
 Number     Number       Type             X           Y           Z
 ---------------------------------------------------------------------
      1          6           0       -3.815885   -0.004794   -0.200222
      2          6           0       -2.396722    0.634765   -0.157793
      3          6           0       -1.238127   -0.394331    0.022320
      4          6           0        0.102870    0.269483    0.453436
      5         16           0        1.591588   -0.825324    0.173733
      6          8           0        1.331187   -2.033836    0.882939
      7          8           0        1.862480   -0.760460   -1.236344
      8          9           0       -2.374321    1.507961    0.860384
      9          9           0       -2.210388    1.295077   -1.304945
     10          9           0       -4.159994   -0.466011    0.992446
     11          9           0       -3.850980   -0.997090   -1.080204
     12          9           0       -4.688655    0.925039   -0.565010
     13          7           0        2.767114   -0.025071    0.928125
     14          1           0        2.957196   -0.328983    1.868323
     15          6           0        3.580576    1.018207    0.319052
     16          1           0        2.989433    1.542885   -0.430548
     17          1           0        3.862323    1.732599    1.086361
     18          1           0        3.801631   -0.670569   -1.405832
     19          6           0        4.868867    0.507570   -0.334705
     20          8           0        4.732399   -0.452955   -1.247768
     21          8           0        5.935952    0.966139   -0.051648
     22          9           0        0.061810    0.554766    1.756652
     23          9           0       -1.582298   -1.284676    0.958541
     24          9           0       -1.051782   -1.029578   -1.139865
     25          9           0        0.306451    1.402095   -0.231873
 ---------------------------------------------------------------------
                    Distance matrix (angstroms):
                    1          2          3          4          5
     1  C    0.000000
     2  C    1.557196   0.000000
     3  C    2.616505   1.560071   0.000000
     4  C    3.982353   2.599037   1.557171   0.000000
     5  S    5.482142   4.260092   2.866351   1.868988   0.000000
     6  O    5.637606   4.701262   3.167020   2.645470   1.425231
     7  O    5.821375   4.609851   3.366311   2.648087   1.437326
     8  F    2.343378   1.341513   2.368967   2.799269   4.652327
     9  F    2.342584   1.336671   2.358182   3.081381   4.597566
    10  F    1.324232   2.375686   3.079544   4.359300   5.820661
    11  F    1.326745   2.372480   2.899289   4.425968   5.587791
    12  F    1.326419   2.345856   3.740566   4.942236   6.561323
    13  N    6.679031   5.317876   4.122959   2.722184   1.609774
    14  H    7.089330   5.805032   4.583965   3.241488   2.232235
    15  C    7.484906   6.008536   5.030230   3.559928   2.715842
    16  H    6.982887   5.468980   4.672276   3.276466   2.815589
    17  H    7.976761   6.475245   5.627664   4.083478   3.540070
    18  H    7.741014   6.456088   5.245482   4.245163   2.720894
    19  C    8.700892   7.268855   6.183548   4.836588   3.574307
    20  O    8.623883   7.293528   6.104403   4.984832   3.467567
    21  O    9.801179   8.339936   7.302312   5.896209   4.704640
    22  F    4.379381   3.117030   2.366121   1.334708   2.598173
    23  F    2.823073   2.365109   1.337041   2.347410   3.301588
    24  F    3.094087   2.354436   1.337512   2.357836   2.958828
    25  F    4.355915   2.810948   2.382747   1.339367   2.603361
                    6          7          8          9         10
     6  O    0.000000
     7  O    2.528857   0.000000
     8  F    5.125975   5.243328   0.000000
     9  F    5.330221   4.562696   2.181936   0.000000
    10  F    5.711667   6.428406   2.665077   3.490043   0.000000
    11  F    5.637697   5.720489   3.495953   2.827734   2.161808
    12  F    6.862215   6.797718   2.779872   2.612707   2.154106
    13  N    2.469629   2.458472   5.365550   5.612924   6.941426
    14  H    2.553705   3.320171   5.728471   6.277828   7.172191
    15  C    3.833104   2.921432   5.999475   6.020738   7.910296
    16  H    4.155474   2.687885   5.517027   5.278647   7.561407
    17  H    4.542473   3.950908   6.244778   6.541222   8.318670
    18  H    3.633189   1.948618   6.929943   6.326003   8.317515
    19  C    4.522895   3.385146   7.408967   7.188698   9.177664
    20  O    4.313623   2.886369   7.667788   7.159691   9.170244
    21  O    5.574690   4.580155   8.377709   8.248746  10.250332
    22  F    3.012566   3.732326   2.765251   3.883854   4.410173
    23  F    3.009211   4.118109   2.904437   3.488981   2.704788
    24  F    3.283110   2.928251   3.491305   2.602622   3.811212
    25  F    3.754798   2.847250   2.896683   2.738141   4.993787
                   11         12         13         14         15
    11  F    0.000000
    12  F    2.159098   0.000000
    13  N    6.984080   7.662940   0.000000
    14  H    7.449258   8.121128   1.006214   0.000000
    15  C    7.826070   8.316876   1.456406   2.145638   0.000000
    16  H    7.325625   7.704080   2.086601   2.964749   1.089329
    17  H    8.464056   8.746337   2.076999   2.383451   1.085588
    18  H    7.666492   8.679741   2.633296   3.398506   2.424057
    19  C    8.880062   9.569407   2.509146   3.034409   1.532267
    20  O    8.602241   9.545747   2.963096   3.588417   2.438430
    21  O   10.034751  10.637082   3.461790   3.773144   2.384937
    22  F    5.076016   5.300390   2.888137   3.029314   3.829254
    23  F    3.063675   4.105302   4.528235   4.727373   5.689243
    24  F    2.800022   4.168673   4.457531   5.060823   5.270731
    25  F    4.874422   5.028881   3.072012   3.799198   3.342272
                   16         17         18         19         20
    16  H    0.000000
    17  H    1.760381   0.000000
    18  H    2.551514   3.462647   0.000000
    19  C    2.147868   2.129144   1.916851   0.000000
    20  O    2.772933   3.313885   0.968849   1.332260   0.000000
    21  O    3.026248   2.486456   3.011304   1.195440   2.212029
    22  F    3.785657   4.034908   5.048664   5.242499   5.644151
    23  F    5.552062   6.226089   5.912197   6.819249   6.740546
    24  F    4.842738   6.060869   4.873935   6.169699   5.813853
    25  F    2.694009   3.806731   4.229704   4.650418   4.905331
                   21         22         23         24         25
    21  O    0.000000
    22  F    6.159929   0.000000
    23  F    7.912694   2.592994   0.000000
    24  F    7.348165   3.484257   2.179410   0.000000
    25  F    5.649232   2.175327   3.493307   2.929553   0.000000
 Stoichiometry    C6H4F9NO4S
 Framework group  C1[X(C6H4F9NO4S)]
 Deg. of freedom    69
 Full point group                 C1      NOp   1
 Largest Abelian subgroup         C1      NOp   1
 Largest concise Abelian subgroup C1      NOp   1
                         Standard orientation:                         
 ---------------------------------------------------------------------
 Center     Atomic      Atomic             Coordinates (Angstroms)
 Number     Number       Type             X           Y           Z
 ---------------------------------------------------------------------
      1          6           0        3.815885    0.004794   -0.200222
      2          6           0        2.396722   -0.634765   -0.157793
      3          6           0        1.238127    0.394331    0.022320
      4          6           0       -0.102870   -0.269483    0.453436
      5         16           0       -1.591588    0.825324    0.173733
      6          8           0       -1.331187    2.033836    0.882939
      7          8           0       -1.862480    0.760460   -1.236344
      8          9           0        2.374321   -1.507961    0.860384
      9          9           0        2.210388   -1.295077   -1.304945
     10          9           0        4.159994    0.466011    0.992446
     11          9           0        3.850980    0.997090   -1.080204
     12          9           0        4.688655   -0.925039   -0.565010
     13          7           0       -2.767114    0.025071    0.928125
     14          1           0       -2.957196    0.328983    1.868323
     15          6           0       -3.580576   -1.018207    0.319052
     16          1           0       -2.989433   -1.542885   -0.430548
     17          1           0       -3.862323   -1.732599    1.086361
     18          1           0       -3.801631    0.670569   -1.405832
     19          6           0       -4.868867   -0.507570   -0.334705
     20          8           0       -4.732399    0.452955   -1.247768
     21          8           0       -5.935952   -0.966139   -0.051648
     22          9           0       -0.061810   -0.554766    1.756652
     23          9           0        1.582298    1.284676    0.958541
     24          9           0        1.051782    1.029578   -1.139865
     25          9           0       -0.306451   -1.402095   -0.231873
 ---------------------------------------------------------------------
 Rotational constants (GHZ):           0.7943177           0.1435744           0.1407435
 Leave Link  202 at Tue Dec 30 12:38:18 2025, MaxMem= 29527900160 cpu:               1.1 elap:               0.0
 (Enter /usr/local/src/g16/l301.exe)
 Standard basis: 6-311+G(2d,2p) (5D, 7F)
 Ernie: Thresh=  0.10000D-02 Tol=  0.10000D-05 Strict=F.
 There are   653 symmetry adapted cartesian basis functions of A   symmetry.
 There are   611 symmetry adapted basis functions of A   symmetry.
   611 basis functions,   940 primitive gaussians,   653 cartesian basis functions
    88 alpha electrons       88 beta electrons
       nuclear repulsion energy      2335.1387364125 Hartrees.
 IExCor= 4639 DFT=T Ex+Corr=wB97XD ExCW=0 ScaHFX=  1.000000
 ScaDFX=  1.000000  1.000000  1.000000  1.000000 ScalE2=  1.000000  1.000000
 IRadAn=      5 IRanWt=     -1 IRanGd=            0 ICorTp=0 IEmpDi=121
 HFx  wShort=  0.000000 wLong=  0.200000 cFull=  0.222036 cShort=  0.000000 cLong=  0.777964
 DFx  wShort=  0.000000 wLong=  0.200000 cFull=  0.000000 cShort=  0.000000 cLong=  1.000000
 NAtoms=   25 NActive=   25 NUniq=   25 SFac= 1.00D+00 NAtFMM=   60 NAOKFM=F Big=F
 Integral buffers will be    131072 words long.
 Raffenetti 2 integral format.
 Two-electron integral symmetry is turned on.
 R6Disp:  Grimme-D2 Dispersion energy=       -0.0178788168 Hartrees.
 Nuclear repulsion after empirical dispersion term =     2335.1208575957 Hartrees.
 Leave Link  301 at Tue Dec 30 12:38:18 2025, MaxMem= 29527900160 cpu:               5.4 elap:               0.1
 (Enter /usr/local/src/g16/l302.exe)
 NPDir=0 NMtPBC=     1 NCelOv=     1 NCel=       1 NClECP=     1 NCelD=      1
         NCelK=      1 NCelE2=     1 NClLst=     1 CellRange=     0.0.
 One-electron integrals computed using PRISM.
 One-electron integral symmetry used in STVInt
 NBasis=   611 RedAO= T EigKep=  4.88D-06  NBF=   611
 NBsUse=   611 1.00D-06 EigRej= -1.00D+00 NBFU=   611
 Precomputing XC quadrature grid using
 IXCGrd= 4 IRadAn=           5 IRanWt=          -1 IRanGd=           0 AccXCQ= 0.00D+00.
 Generated NRdTot=       0 NPtTot=           0 NUsed=           0 NTot=          32
 NSgBfM=   635   635   635   635   635 MxSgAt=    25 MxSgA2=    25.
 Leave Link  302 at Tue Dec 30 12:38:19 2025, MaxMem= 29527900160 cpu:              58.8 elap:               1.1
 (Enter /usr/local/src/g16/l303.exe)
 DipDrv:  MaxL=1.
 Leave Link  303 at Tue Dec 30 12:38:20 2025, MaxMem= 29527900160 cpu:               7.8 elap:               0.2
 (Enter /usr/local/src/g16/l401.exe)
 ExpMin= 4.05D-02 ExpMax= 9.34D+04 ExpMxC= 3.17D+03 IAcc=3 IRadAn=         5 AccDes= 0.00D+00
 Harris functional with IExCor= 4639 and IRadAn=       5 diagonalized for initial guess.
 HarFok:  IExCor= 4639 AccDes= 0.00D+00 IRadAn=         5 IDoV= 1 UseB2=F ITyADJ=14
 ICtDFT=  3500011 ScaDFX=  1.000000  1.000000  1.000000  1.000000
 FoFCou: FMM=F IPFlag=           0 FMFlag=      100000 FMFlg1=           0
         NFxFlg=           0 DoJE=T BraDBF=F KetDBF=T FulRan=T
         wScrn=  0.000000 ICntrl=       500 IOpCl=  0 I1Cent=   200000004 NGrid=           0
         NMat0=    1 NMatS0=      1 NMatT0=    0 NMatD0=    1 NMtDS0=    0 NMtDT0=    0
 Petite list used in FoFCou.
 Harris En= -1827.14969878085    
 JPrj=0 DoOrth=F DoCkMO=F.
 Leave Link  401 at Tue Dec 30 12:38:22 2025, MaxMem= 29527900160 cpu:             136.3 elap:               2.5
 (Enter /usr/local/src/g16/l502.exe)
 Integral symmetry usage will be decided dynamically.
 Closed shell SCF:
 Using DIIS extrapolation, IDIIS=  1040.
 NGot= 29527900160 LenX= 29527005124 LenY= 29526578062
 Requested convergence on RMS density matrix=1.00D-08 within 128 cycles.
 Requested convergence on MAX density matrix=1.00D-06.
 Requested convergence on             energy=1.00D-06.
 No special actions if energy rises.
 Fock matrices will be formed incrementally for  20 cycles.

 Cycle   1  Pass 1  IDiag  1:
 FoFJK:  IHMeth= 1 ICntrl=       0 DoSepK=T KAlg= 0 I1Cent=           0 FoldK=F
 IRaf=         1 NMat=       1 IRICut=       1 DoRegI=T DoRafI=F ISym2E= 0 IDoP0=0 IntGTp=1.
 FoFCou: FMM=F IPFlag=           0 FMFlag=      100000 FMFlg1=           0
         NFxFlg=           0 DoJE=T BraDBF=F KetDBF=F FulRan=T
         wScrn=  0.000000 ICntrl=       500 IOpCl=  0 I1Cent=           0 NGrid=           0
         NMat0=    1 NMatS0=      1 NMatT0=    0 NMatD0=    1 NMtDS0=    0 NMtDT0=    0
 Symmetry not used in FoFCou.
 E= -1882.47146543335    
 DIIS: error= 9.58D-02 at cycle   1 NSaved=   1.
 NSaved= 1 IEnMin= 1 EnMin= -1882.47146543335     IErMin= 1 ErrMin= 9.58D-02
 ErrMax= 9.58D-02  0.00D+00 EMaxC= 1.00D-01 BMatC= 5.02D+00 BMatP= 5.02D+00
 IDIUse=3 WtCom= 4.20D-02 WtEn= 9.58D-01
 Coeff-Com:  0.100D+01
 Coeff-En:   0.100D+01
 Coeff:      0.100D+01
 Gap=     0.666 Goal=   None    Shift=    0.000
 GapD=    0.666 DampG=2.000 DampE=0.500 DampFc=1.0000 IDamp=-1.
 RMSDP=6.95D-03 MaxDP=1.67D+00              OVMax= 1.36D-01

 Cycle   2  Pass 1  IDiag  1:
 RMSU=  4.01D-03    CP:  7.64D-01
 E= -1882.91589366101     Delta-E=       -0.444428227662 Rises=F Damp=F
 DIIS: error= 4.52D-02 at cycle   2 NSaved=   2.
 NSaved= 2 IEnMin= 2 EnMin= -1882.91589366101     IErMin= 2 ErrMin= 4.52D-02
 ErrMax= 4.52D-02  0.00D+00 EMaxC= 1.00D-01 BMatC= 1.24D+00 BMatP= 5.02D+00
 IDIUse=3 WtCom= 5.48D-01 WtEn= 4.52D-01
 Coeff-Com:  0.300D+00 0.700D+00
 Coeff-En:   0.317D+00 0.683D+00
 Coeff:      0.308D+00 0.692D+00
 Gap=     0.450 Goal=   None    Shift=    0.000
 RMSDP=4.31D-03 MaxDP=1.05D+00 DE=-4.44D-01 OVMax= 9.09D-02

 Cycle   3  Pass 1  IDiag  1:
 RMSU=  1.73D-03    CP:  9.16D-01  6.31D-01
 E= -1883.36470448027     Delta-E=       -0.448810819251 Rises=F Damp=F
 DIIS: error= 1.42D-02 at cycle   3 NSaved=   3.
 NSaved= 3 IEnMin= 3 EnMin= -1883.36470448027     IErMin= 3 ErrMin= 1.42D-02
 ErrMax= 1.42D-02  0.00D+00 EMaxC= 1.00D-01 BMatC= 2.15D-01 BMatP= 1.24D+00
 IDIUse=3 WtCom= 8.58D-01 WtEn= 1.42D-01
 Coeff-Com:  0.575D-01 0.311D+00 0.631D+00
 Coeff-En:   0.000D+00 0.120D+00 0.880D+00
 Coeff:      0.494D-01 0.284D+00 0.667D+00
 Gap=     0.415 Goal=   None    Shift=    0.000
 RMSDP=1.17D-03 MaxDP=1.88D-01 DE=-4.49D-01 OVMax= 5.57D-02

 Cycle   4  Pass 1  IDiag  1:
 RMSU=  7.11D-04    CP:  8.89D-01  7.29D-01  7.01D-01
 E= -1883.47275095301     Delta-E=       -0.108046472740 Rises=F Damp=F
 DIIS: error= 5.97D-03 at cycle   4 NSaved=   4.
 NSaved= 4 IEnMin= 4 EnMin= -1883.47275095301     IErMin= 4 ErrMin= 5.97D-03
 ErrMax= 5.97D-03  0.00D+00 EMaxC= 1.00D-01 BMatC= 2.55D-02 BMatP= 2.15D-01
 IDIUse=3 WtCom= 9.40D-01 WtEn= 5.97D-02
 Coeff-Com:  0.517D-02 0.807D-01 0.327D+00 0.587D+00
 Coeff-En:   0.000D+00 0.000D+00 0.660D-01 0.934D+00
 Coeff:      0.486D-02 0.758D-01 0.312D+00 0.608D+00
 Gap=     0.408 Goal=   None    Shift=    0.000
 RMSDP=4.62D-04 MaxDP=1.02D-01 DE=-1.08D-01 OVMax= 2.04D-02

 Cycle   5  Pass 1  IDiag  1:
 RMSU=  1.79D-04    CP:  8.77D-01  7.39D-01  7.73D-01  5.89D-01
 E= -1883.48872233609     Delta-E=       -0.015971383084 Rises=F Damp=F
 DIIS: error= 7.29D-04 at cycle   5 NSaved=   5.
 NSaved= 5 IEnMin= 5 EnMin= -1883.48872233609     IErMin= 5 ErrMin= 7.29D-04
 ErrMax= 7.29D-04  0.00D+00 EMaxC= 1.00D-01 BMatC= 1.03D-03 BMatP= 2.55D-02
 IDIUse=3 WtCom= 9.93D-01 WtEn= 7.29D-03
 Coeff-Com:  0.383D-03 0.245D-01 0.128D+00 0.304D+00 0.543D+00
 Coeff-En:   0.000D+00 0.000D+00 0.000D+00 0.000D+00 0.100D+01
 Coeff:      0.380D-03 0.243D-01 0.127D+00 0.302D+00 0.546D+00
 Gap=     0.402 Goal=   None    Shift=    0.000
 RMSDP=9.98D-05 MaxDP=1.77D-02 DE=-1.60D-02 OVMax= 6.10D-03

 Cycle   6  Pass 1  IDiag  1:
 RMSU=  6.12D-05    CP:  8.74D-01  7.48D-01  7.70D-01  6.35D-01  9.49D-01
 E= -1883.48937989628     Delta-E=       -0.000657560186 Rises=F Damp=F
 DIIS: error= 2.94D-04 at cycle   6 NSaved=   6.
 NSaved= 6 IEnMin= 6 EnMin= -1883.48937989628     IErMin= 6 ErrMin= 2.94D-04
 ErrMax= 2.94D-04  0.00D+00 EMaxC= 1.00D-01 BMatC= 5.92D-05 BMatP= 1.03D-03
 IDIUse=3 WtCom= 9.97D-01 WtEn= 2.94D-03
 Coeff-Com: -0.544D-03-0.306D-02-0.344D-03 0.282D-01 0.217D+00 0.758D+00
 Coeff-En:   0.000D+00 0.000D+00 0.000D+00 0.000D+00 0.000D+00 0.100D+01
 Coeff:     -0.543D-03-0.305D-02-0.343D-03 0.281D-01 0.217D+00 0.759D+00
 Gap=     0.403 Goal=   None    Shift=    0.000
 RMSDP=4.81D-05 MaxDP=1.22D-02 DE=-6.58D-04 OVMax= 1.46D-03

 Cycle   7  Pass 1  IDiag  1:
 RMSU=  1.62D-05    CP:  8.73D-01  7.50D-01  7.70D-01  6.46D-01  1.07D+00
                    CP:  1.03D+00
 E= -1883.48942567748     Delta-E=       -0.000045781203 Rises=F Damp=F
 DIIS: error= 5.41D-05 at cycle   7 NSaved=   7.
 NSaved= 7 IEnMin= 7 EnMin= -1883.48942567748     IErMin= 7 ErrMin= 5.41D-05
 ErrMax= 5.41D-05  0.00D+00 EMaxC= 1.00D-01 BMatC= 4.38D-06 BMatP= 5.92D-05
 IDIUse=1 WtCom= 1.00D+00 WtEn= 0.00D+00
 Coeff-Com: -0.210D-03-0.299D-02-0.968D-02-0.119D-01 0.400D-01 0.281D+00
 Coeff-Com:  0.704D+00
 Coeff:     -0.210D-03-0.299D-02-0.968D-02-0.119D-01 0.400D-01 0.281D+00
 Coeff:      0.704D+00
 Gap=     0.403 Goal=   None    Shift=    0.000
 RMSDP=1.37D-05 MaxDP=3.62D-03 DE=-4.58D-05 OVMax= 6.34D-04

 Cycle   8  Pass 1  IDiag  1:
 RMSU=  4.31D-06    CP:  8.72D-01  7.50D-01  7.71D-01  6.45D-01  1.10D+00
                    CP:  1.07D+00  9.51D-01
 E= -1883.48942886250     Delta-E=       -0.000003185020 Rises=F Damp=F
 DIIS: error= 1.76D-05 at cycle   8 NSaved=   8.
 NSaved= 8 IEnMin= 8 EnMin= -1883.48942886250     IErMin= 8 ErrMin= 1.76D-05
 ErrMax= 1.76D-05  0.00D+00 EMaxC= 1.00D-01 BMatC= 8.70D-07 BMatP= 4.38D-06
 IDIUse=1 WtCom= 1.00D+00 WtEn= 0.00D+00
 Coeff-Com: -0.431D-04-0.120D-02-0.511D-02-0.101D-01-0.778D-02 0.453D-01
 Coeff-Com:  0.349D+00 0.630D+00
 Coeff:     -0.431D-04-0.120D-02-0.511D-02-0.101D-01-0.778D-02 0.453D-01
 Coeff:      0.349D+00 0.630D+00
 Gap=     0.403 Goal=   None    Shift=    0.000
 RMSDP=4.55D-06 MaxDP=1.07D-03 DE=-3.19D-06 OVMax= 2.11D-04

 Cycle   9  Pass 1  IDiag  1:
 RMSU=  1.79D-06    CP:  8.72D-01  7.51D-01  7.71D-01  6.46D-01  1.11D+00
                    CP:  1.09D+00  1.03D+00  9.55D-01
 E= -1883.48942953356     Delta-E=       -0.000000671062 Rises=F Damp=F
 DIIS: error= 4.52D-06 at cycle   9 NSaved=   9.
 NSaved= 9 IEnMin= 9 EnMin= -1883.48942953356     IErMin= 9 ErrMin= 4.52D-06
 ErrMax= 4.52D-06  0.00D+00 EMaxC= 1.00D-01 BMatC= 5.07D-08 BMatP= 8.70D-07
 IDIUse=1 WtCom= 1.00D+00 WtEn= 0.00D+00
 Coeff-Com: -0.449D-05-0.237D-03-0.116D-02-0.289D-02-0.520D-02-0.355D-02
 Coeff-Com:  0.732D-01 0.226D+00 0.714D+00
 Coeff:     -0.449D-05-0.237D-03-0.116D-02-0.289D-02-0.520D-02-0.355D-02
 Coeff:      0.732D-01 0.226D+00 0.714D+00
 Gap=     0.403 Goal=   None    Shift=    0.000
 RMSDP=9.03D-07 MaxDP=7.88D-05 DE=-6.71D-07 OVMax= 8.00D-05

 Cycle  10  Pass 1  IDiag  1:
 RMSU=  5.48D-07    CP:  8.72D-01  7.51D-01  7.71D-01  6.46D-01  1.11D+00
                    CP:  1.09D+00  1.06D+00  1.05D+00  1.06D+00
 E= -1883.48942958560     Delta-E=       -0.000000052045 Rises=F Damp=F
 DIIS: error= 2.28D-06 at cycle  10 NSaved=  10.
 NSaved=10 IEnMin=10 EnMin= -1883.48942958560     IErMin=10 ErrMin= 2.28D-06
 ErrMax= 2.28D-06  0.00D+00 EMaxC= 1.00D-01 BMatC= 1.22D-08 BMatP= 5.07D-08
 IDIUse=1 WtCom= 1.00D+00 WtEn= 0.00D+00
 Coeff-Com:  0.482D-05 0.108D-03 0.395D-03 0.452D-03-0.127D-02-0.119D-01
 Coeff-Com: -0.331D-01-0.198D-01 0.324D+00 0.741D+00
 Coeff:      0.482D-05 0.108D-03 0.395D-03 0.452D-03-0.127D-02-0.119D-01
 Coeff:     -0.331D-01-0.198D-01 0.324D+00 0.741D+00
 Gap=     0.403 Goal=   None    Shift=    0.000
 RMSDP=5.41D-07 MaxDP=6.78D-05 DE=-5.20D-08 OVMax= 3.98D-05

 Cycle  11  Pass 1  IDiag  1:
 RMSU=  1.89D-07    CP:  8.72D-01  7.51D-01  7.71D-01  6.46D-01  1.11D+00
                    CP:  1.09D+00  1.06D+00  1.08D+00  1.26D+00  1.12D+00
 E= -1883.48942959824     Delta-E=       -0.000000012640 Rises=F Damp=F
 DIIS: error= 7.10D-07 at cycle  11 NSaved=  11.
 NSaved=11 IEnMin=11 EnMin= -1883.48942959824     IErMin=11 ErrMin= 7.10D-07
 ErrMax= 7.10D-07  0.00D+00 EMaxC= 1.00D-01 BMatC= 8.46D-10 BMatP= 1.22D-08
 IDIUse=1 WtCom= 1.00D+00 WtEn= 0.00D+00
 Coeff-Com:  0.198D-05 0.590D-04 0.249D-03 0.462D-03 0.276D-03-0.314D-02
 Coeff-Com: -0.181D-01-0.305D-01 0.421D-01 0.246D+00 0.762D+00
 Coeff:      0.198D-05 0.590D-04 0.249D-03 0.462D-03 0.276D-03-0.314D-02
 Coeff:     -0.181D-01-0.305D-01 0.421D-01 0.246D+00 0.762D+00
 Gap=     0.403 Goal=   None    Shift=    0.000
 RMSDP=2.49D-07 MaxDP=5.94D-05 DE=-1.26D-08 OVMax= 1.46D-05

 Cycle  12  Pass 1  IDiag  1:
 RMSU=  7.62D-08    CP:  8.72D-01  7.51D-01  7.71D-01  6.46D-01  1.11D+00
                    CP:  1.09D+00  1.06D+00  1.09D+00  1.29D+00  1.27D+00
                    CP:  1.10D+00
 E= -1883.48942959929     Delta-E=       -0.000000001048 Rises=F Damp=F
 DIIS: error= 2.31D-07 at cycle  12 NSaved=  12.
 NSaved=12 IEnMin=12 EnMin= -1883.48942959929     IErMin=12 ErrMin= 2.31D-07
 ErrMax= 2.31D-07  0.00D+00 EMaxC= 1.00D-01 BMatC= 1.30D-10 BMatP= 8.46D-10
 IDIUse=1 WtCom= 1.00D+00 WtEn= 0.00D+00
 Coeff-Com:  0.193D-06 0.464D-05 0.243D-04 0.886D-04 0.320D-03 0.601D-03
 Coeff-Com: -0.149D-02-0.813D-02-0.315D-01-0.237D-01 0.263D+00 0.800D+00
 Coeff:      0.193D-06 0.464D-05 0.243D-04 0.886D-04 0.320D-03 0.601D-03
 Coeff:     -0.149D-02-0.813D-02-0.315D-01-0.237D-01 0.263D+00 0.800D+00
 Gap=     0.403 Goal=   None    Shift=    0.000
 RMSDP=7.80D-08 MaxDP=1.26D-05 DE=-1.05D-09 OVMax= 7.04D-06

 Cycle  13  Pass 1  IDiag  1:
 RMSU=  2.69D-08    CP:  8.72D-01  7.51D-01  7.71D-01  6.46D-01  1.11D+00
                    CP:  1.09D+00  1.06D+00  1.09D+00  1.31D+00  1.31D+00
                    CP:  1.23D+00  1.10D+00
 E= -1883.48942959933     Delta-E=       -0.000000000035 Rises=F Damp=F
 DIIS: error= 1.10D-07 at cycle  13 NSaved=  13.
 NSaved=13 IEnMin=13 EnMin= -1883.48942959933     IErMin=13 ErrMin= 1.10D-07
 ErrMax= 1.10D-07  0.00D+00 EMaxC= 1.00D-01 BMatC= 1.71D-11 BMatP= 1.30D-10
 IDIUse=1 WtCom= 1.00D+00 WtEn= 0.00D+00
 Coeff-Com: -0.324D-07-0.322D-05-0.141D-04-0.118D-04 0.106D-03 0.449D-03
 Coeff-Com:  0.117D-02-0.277D-03-0.155D-01-0.301D-01 0.116D-01 0.262D+00
 Coeff-Com:  0.771D+00
 Coeff:     -0.324D-07-0.322D-05-0.141D-04-0.118D-04 0.106D-03 0.449D-03
 Coeff:      0.117D-02-0.277D-03-0.155D-01-0.301D-01 0.116D-01 0.262D+00
 Coeff:      0.771D+00
 Gap=     0.403 Goal=   None    Shift=    0.000
 RMSDP=1.84D-08 MaxDP=1.20D-06 DE=-3.46D-11 OVMax= 3.25D-06

 Cycle  14  Pass 1  IDiag  1:
 RMSU=  1.08D-08    CP:  8.72D-01  7.51D-01  7.71D-01  6.46D-01  1.11D+00
                    CP:  1.09D+00  1.06D+00  1.09D+00  1.31D+00  1.32D+00
                    CP:  1.26D+00  1.21D+00  1.20D+00
 E= -1883.48942959941     Delta-E=       -0.000000000085 Rises=F Damp=F
 DIIS: error= 5.13D-08 at cycle  14 NSaved=  14.
 NSaved=14 IEnMin=14 EnMin= -1883.48942959941     IErMin=14 ErrMin= 5.13D-08
 ErrMax= 5.13D-08  0.00D+00 EMaxC= 1.00D-01 BMatC= 5.36D-12 BMatP= 1.71D-11
 IDIUse=1 WtCom= 1.00D+00 WtEn= 0.00D+00
 Coeff-Com: -0.319D-07-0.196D-05-0.999D-05-0.221D-04-0.133D-04 0.448D-04
 Coeff-Com:  0.818D-03 0.153D-02 0.353D-03-0.641D-02-0.522D-01-0.506D-01
 Coeff-Com:  0.405D+00 0.701D+00
 Coeff:     -0.319D-07-0.196D-05-0.999D-05-0.221D-04-0.133D-04 0.448D-04
 Coeff:      0.818D-03 0.153D-02 0.353D-03-0.641D-02-0.522D-01-0.506D-01
 Coeff:      0.405D+00 0.701D+00
 Gap=     0.403 Goal=   None    Shift=    0.000
 RMSDP=1.03D-08 MaxDP=2.14D-06 DE=-8.55D-11 OVMax= 1.67D-06

 Cycle  15  Pass 1  IDiag  1:
 RMSU=  4.64D-09    CP:  8.72D-01  7.51D-01  7.71D-01  6.46D-01  1.11D+00
                    CP:  1.09D+00  1.06D+00  1.09D+00  1.31D+00  1.32D+00
                    CP:  1.27D+00  1.23D+00  1.32D+00  1.11D+00
 E= -1883.48942959950     Delta-E=       -0.000000000085 Rises=F Damp=F
 DIIS: error= 2.25D-08 at cycle  15 NSaved=  15.
 NSaved=15 IEnMin=15 EnMin= -1883.48942959950     IErMin=15 ErrMin= 2.25D-08
 ErrMax= 2.25D-08  0.00D+00 EMaxC= 1.00D-01 BMatC= 4.14D-13 BMatP= 5.36D-12
 IDIUse=1 WtCom= 1.00D+00 WtEn= 0.00D+00
 Coeff-Com: -0.204D-07-0.214D-06-0.912D-06-0.461D-05-0.193D-04-0.389D-04
 Coeff-Com:  0.776D-04 0.464D-03 0.185D-02 0.128D-02-0.157D-01-0.458D-01
 Coeff-Com:  0.592D-02 0.191D+00 0.861D+00
 Coeff:     -0.204D-07-0.214D-06-0.912D-06-0.461D-05-0.193D-04-0.389D-04
 Coeff:      0.776D-04 0.464D-03 0.185D-02 0.128D-02-0.157D-01-0.458D-01
 Coeff:      0.592D-02 0.191D+00 0.861D+00
 Gap=     0.403 Goal=   None    Shift=    0.000
 RMSDP=6.17D-09 MaxDP=1.53D-06 DE=-8.55D-11 OVMax= 8.54D-07

 Cycle  16  Pass 1  IDiag  1:
 RMSU=  1.94D-09    CP:  8.72D-01  7.51D-01  7.71D-01  6.46D-01  1.11D+00
                    CP:  1.09D+00  1.06D+00  1.09D+00  1.31D+00  1.32D+00
                    CP:  1.27D+00  1.24D+00  1.37D+00  1.23D+00  1.18D+00
 E= -1883.48942959929     Delta-E=        0.000000000206 Rises=F Damp=F
 DIIS: error= 8.45D-09 at cycle  16 NSaved=  16.
 NSaved=16 IEnMin=15 EnMin= -1883.48942959950     IErMin=16 ErrMin= 8.45D-09
 ErrMax= 8.45D-09  0.00D+00 EMaxC= 1.00D-01 BMatC= 1.12D-13 BMatP= 4.14D-13
 IDIUse=1 WtCom= 1.00D+00 WtEn= 0.00D+00
 Coeff-Com: -0.645D-08 0.225D-06 0.142D-05 0.210D-05-0.717D-05-0.231D-04
 Coeff-Com: -0.120D-03-0.632D-04 0.780D-03 0.161D-02 0.378D-02-0.827D-02
 Coeff-Com: -0.797D-01-0.640D-01 0.364D+00 0.782D+00
 Coeff:     -0.645D-08 0.225D-06 0.142D-05 0.210D-05-0.717D-05-0.231D-04
 Coeff:     -0.120D-03-0.632D-04 0.780D-03 0.161D-02 0.378D-02-0.827D-02
 Coeff:     -0.797D-01-0.640D-01 0.364D+00 0.782D+00
 Gap=     0.403 Goal=   None    Shift=    0.000
 RMSDP=2.05D-09 MaxDP=3.79D-07 DE= 2.06D-10 OVMax= 4.06D-07

 SCF Done:  E(RwB97XD) =  -1883.48942960     A.U. after   16 cycles
            NFock= 16  Conv=0.21D-08     -V/T= 2.0024
 KE= 1.878942580060D+03 PE=-9.132362731981D+03 EE= 3.034809864726D+03
 Leave Link  502 at Tue Dec 30 12:40:47 2025, MaxMem= 29527900160 cpu:            8105.4 elap:             144.9
 (Enter /usr/local/src/g16/l601.exe)
 Copying SCF densities to generalized density rwf, IOpCl= 0 IROHF=0.

 **********************************************************************

            Population analysis using the SCF density.

 **********************************************************************

 Orbital symmetries:
       Occupied  (A) (A) (A) (A) (A) (A) (A) (A) (A) (A) (A) (A)
                 (A) (A) (A) (A) (A) (A) (A) (A) (A) (A) (A) (A)
                 (A) (A) (A) (A) (A) (A) (A) (A) (A) (A) (A) (A)
                 (A) (A) (A) (A) (A) (A) (A) (A) (A) (A) (A) (A)
                 (A) (A) (A) (A) (A) (A) (A) (A) (A) (A) (A) (A)
                 (A) (A) (A) (A) (A) (A) (A) (A) (A) (A) (A) (A)
                 (A) (A) (A) (A) (A) (A) (A) (A) (A) (A) (A) (A)
                 (A) (A) (A) (A)
       Virtual   (A) (A) (A) (A) (A) (A) (A) (A) (A) (A) (A) (A)
                 (A) (A) (A) (A) (A) (A) (A) (A) (A) (A) (A) (A)
                 (A) (A) (A) (A) (A) (A) (A) (A) (A) (A) (A) (A)
                 (A) (A) (A) (A) (A) (A) (A) (A) (A) (A) (A) (A)
                 (A) (A) (A) (A) (A) (A) (A) (A) (A) (A) (A) (A)
                 (A) (A) (A) (A) (A) (A) (A) (A) (A) (A) (A) (A)
                 (A) (A) (A) (A) (A) (A) (A) (A) (A) (A) (A) (A)
                 (A) (A) (A) (A) (A) (A) (A) (A) (A) (A) (A) (A)
                 (A) (A) (A) (A) (A) (A) (A) (A) (A) (A) (A) (A)
                 (A) (A) (A) (A) (A) (A) (A) (A) (A) (A) (A) (A)
                 (A) (A) (A) (A) (A) (A) (A) (A) (A) (A) (A) (A)
                 (A) (A) (A) (A) (A) (A) (A) (A) (A) (A) (A) (A)
                 (A) (A) (A) (A) (A) (A) (A) (A) (A) (A) (A) (A)
                 (A) (A) (A) (A) (A) (A) (A) (A) (A) (A) (A) (A)
                 (A) (A) (A) (A) (A) (A) (A) (A) (A) (A) (A) (A)
                 (A) (A) (A) (A) (A) (A) (A) (A) (A) (A) (A) (A)
                 (A) (A) (A) (A) (A) (A) (A) (A) (A) (A) (A) (A)
                 (A) (A) (A) (A) (A) (A) (A) (A) (A) (A) (A) (A)
                 (A) (A) (A) (A) (A) (A) (A) (A) (A) (A) (A) (A)
                 (A) (A) (A) (A) (A) (A) (A) (A) (A) (A) (A) (A)
                 (A) (A) (A) (A) (A) (A) (A) (A) (A) (A) (A) (A)
                 (A) (A) (A) (A) (A) (A) (A) (A) (A) (A) (A) (A)
                 (A) (A) (A) (A) (A) (A) (A) (A) (A) (A) (A) (A)
                 (A) (A) (A) (A) (A) (A) (A) (A) (A) (A) (A) (A)
                 (A) (A) (A) (A) (A) (A) (A) (A) (A) (A) (A) (A)
                 (A) (A) (A) (A) (A) (A) (A) (A) (A) (A) (A) (A)
                 (A) (A) (A) (A) (A) (A) (A) (A) (A) (A) (A) (A)
                 (A) (A) (A) (A) (A) (A) (A) (A) (A) (A) (A) (A)
                 (A) (A) (A) (A) (A) (A) (A) (A) (A) (A) (A) (A)
                 (A) (A) (A) (A) (A) (A) (A) (A) (A) (A) (A) (A)
                 (A) (A) (A) (A) (A) (A) (A) (A) (A) (A) (A) (A)
                 (A) (A) (A) (A) (A) (A) (A) (A) (A) (A) (A) (A)
                 (A) (A) (A) (A) (A) (A) (A) (A) (A) (A) (A) (A)
                 (A) (A) (A) (A) (A) (A) (A) (A) (A) (A) (A) (A)
                 (A) (A) (A) (A) (A) (A) (A) (A) (A) (A) (A) (A)
                 (A) (A) (A) (A) (A) (A) (A) (A) (A) (A) (A) (A)
                 (A) (A) (A) (A) (A) (A) (A) (A) (A) (A) (A) (A)
                 (A) (A) (A) (A) (A) (A) (A) (A) (A) (A) (A) (A)
                 (A) (A) (A) (A) (A) (A) (A) (A) (A) (A) (A) (A)
                 (A) (A) (A) (A) (A) (A) (A) (A) (A) (A) (A) (A)
                 (A) (A) (A) (A) (A) (A) (A) (A) (A) (A) (A) (A)
                 (A) (A) (A) (A) (A) (A) (A) (A) (A) (A) (A) (A)
                 (A) (A) (A) (A) (A) (A) (A) (A) (A) (A) (A) (A)
                 (A) (A) (A) (A) (A) (A) (A)
 The electronic state is 1-A.
 Alpha  occ. eigenvalues --  -89.28323 -24.89837 -24.89658 -24.88905 -24.88792
 Alpha  occ. eigenvalues --  -24.88789 -24.88704 -24.88689 -24.88596 -24.88515
 Alpha  occ. eigenvalues --  -19.31063 -19.30681 -19.30189 -19.25406 -14.52842
 Alpha  occ. eigenvalues --  -10.59114 -10.54552 -10.54165 -10.53763 -10.44070
 Alpha  occ. eigenvalues --  -10.38159  -8.29568  -6.24433  -6.24312  -6.24294
 Alpha  occ. eigenvalues --   -1.48150  -1.46078  -1.44305  -1.43540  -1.39418
 Alpha  occ. eigenvalues --   -1.38813  -1.38324  -1.37942  -1.37498  -1.29564
 Alpha  occ. eigenvalues --   -1.23288  -1.18373  -1.14878  -1.09769  -0.96423
 Alpha  occ. eigenvalues --   -0.92586  -0.89657  -0.85821  -0.81375  -0.79051
 Alpha  occ. eigenvalues --   -0.76438  -0.76130  -0.75047  -0.73908  -0.73851
 Alpha  occ. eigenvalues --   -0.73575  -0.72982  -0.71467  -0.71445  -0.69559
 Alpha  occ. eigenvalues --   -0.68231  -0.66564  -0.63510  -0.62728  -0.62011
 Alpha  occ. eigenvalues --   -0.61638  -0.61026  -0.60735  -0.60335  -0.59564
 Alpha  occ. eigenvalues --   -0.59349  -0.59110  -0.58399  -0.58204  -0.57737
 Alpha  occ. eigenvalues --   -0.56812  -0.56243  -0.55736  -0.55651  -0.55240
 Alpha  occ. eigenvalues --   -0.54988  -0.54448  -0.52929  -0.52424  -0.50402
 Alpha  occ. eigenvalues --   -0.50178  -0.48482  -0.47646  -0.46068  -0.43759
 Alpha  occ. eigenvalues --   -0.43312  -0.42687  -0.37644
 Alpha virt. eigenvalues --    0.02652   0.04810   0.05506   0.06022   0.06698
 Alpha virt. eigenvalues --    0.07418   0.07674   0.08904   0.09651   0.09975
 Alpha virt. eigenvalues --    0.10163   0.10314   0.10744   0.11477   0.11843
 Alpha virt. eigenvalues --    0.12160   0.12992   0.13287   0.13463   0.13632
 Alpha virt. eigenvalues --    0.14440   0.14688   0.15143   0.15687   0.16486
 Alpha virt. eigenvalues --    0.16663   0.17418   0.18101   0.18253   0.18654
 Alpha virt. eigenvalues --    0.19552   0.20364   0.20839   0.21279   0.22135
 Alpha virt. eigenvalues --    0.22531   0.23033   0.23474   0.24729   0.24803
 Alpha virt. eigenvalues --    0.25116   0.25922   0.26333   0.26571   0.27089
 Alpha virt. eigenvalues --    0.27817   0.28001   0.28714   0.29156   0.29632
 Alpha virt. eigenvalues --    0.29916   0.30175   0.30638   0.30940   0.31232
 Alpha virt. eigenvalues --    0.31293   0.31715   0.32340   0.32779   0.33254
 Alpha virt. eigenvalues --    0.33633   0.34196   0.34714   0.34954   0.35852
 Alpha virt. eigenvalues --    0.36084   0.36654   0.36805   0.37125   0.37289
 Alpha virt. eigenvalues --    0.37980   0.38721   0.39091   0.39461   0.39684
 Alpha virt. eigenvalues --    0.40260   0.40620   0.40864   0.41406   0.41596
 Alpha virt. eigenvalues --    0.42276   0.42538   0.42987   0.43367   0.44123
 Alpha virt. eigenvalues --    0.44546   0.44989   0.45571   0.45954   0.46461
 Alpha virt. eigenvalues --    0.46872   0.46976   0.47555   0.48085   0.48716
 Alpha virt. eigenvalues --    0.49481   0.49900   0.50835   0.51398   0.52570
 Alpha virt. eigenvalues --    0.53010   0.53504   0.53587   0.53880   0.55234
 Alpha virt. eigenvalues --    0.56089   0.56629   0.57063   0.58229   0.59838
 Alpha virt. eigenvalues --    0.60559   0.61987   0.62968   0.63292   0.63825
 Alpha virt. eigenvalues --    0.64442   0.65823   0.66290   0.67457   0.68733
 Alpha virt. eigenvalues --    0.69480   0.70387   0.70415   0.71634   0.72136
 Alpha virt. eigenvalues --    0.73528   0.74010   0.74680   0.75665   0.75877
 Alpha virt. eigenvalues --    0.76756   0.77737   0.78767   0.79760   0.80343
 Alpha virt. eigenvalues --    0.81586   0.82623   0.83388   0.83743   0.84611
 Alpha virt. eigenvalues --    0.85337   0.87221   0.87982   0.88892   0.90914
 Alpha virt. eigenvalues --    0.91900   0.92456   0.93451   0.95388   0.97541
 Alpha virt. eigenvalues --    0.98866   1.01257   1.02644   1.04191   1.05442
 Alpha virt. eigenvalues --    1.06721   1.08798   1.09402   1.10245   1.11044
 Alpha virt. eigenvalues --    1.12057   1.12964   1.13203   1.14187   1.15274
 Alpha virt. eigenvalues --    1.16186   1.16535   1.16957   1.17787   1.19542
 Alpha virt. eigenvalues --    1.20059   1.21110   1.21847   1.23240   1.23858
 Alpha virt. eigenvalues --    1.24338   1.24932   1.25995   1.27197   1.27608
 Alpha virt. eigenvalues --    1.28250   1.30360   1.30963   1.31741   1.32530
 Alpha virt. eigenvalues --    1.32661   1.33887   1.34631   1.36430   1.37575
 Alpha virt. eigenvalues --    1.38055   1.38651   1.39892   1.40728   1.41132
 Alpha virt. eigenvalues --    1.41797   1.42999   1.43732   1.44335   1.45141
 Alpha virt. eigenvalues --    1.45737   1.46347   1.46661   1.46992   1.48118
 Alpha virt. eigenvalues --    1.48735   1.49138   1.49767   1.50139   1.51334
 Alpha virt. eigenvalues --    1.51918   1.52328   1.52814   1.53526   1.53859
 Alpha virt. eigenvalues --    1.54175   1.55014   1.55481   1.57261   1.58419
 Alpha virt. eigenvalues --    1.58970   1.59595   1.59824   1.61297   1.62323
 Alpha virt. eigenvalues --    1.63615   1.64692   1.64766   1.66101   1.67300
 Alpha virt. eigenvalues --    1.68680   1.69188   1.69909   1.71139   1.72050
 Alpha virt. eigenvalues --    1.73139   1.74278   1.75938   1.77289   1.79988
 Alpha virt. eigenvalues --    1.83145   1.83896   1.84790   1.86309   1.88195
 Alpha virt. eigenvalues --    1.90431   1.91257   1.93797   1.95035   1.98159
 Alpha virt. eigenvalues --    1.99526   2.01539   2.02996   2.03309   2.04468
 Alpha virt. eigenvalues --    2.05268   2.05772   2.07307   2.08913   2.09610
 Alpha virt. eigenvalues --    2.11267   2.11758   2.11920   2.13277   2.13870
 Alpha virt. eigenvalues --    2.14448   2.15410   2.16780   2.17580   2.18280
 Alpha virt. eigenvalues --    2.19497   2.20690   2.23581   2.24752   2.25123
 Alpha virt. eigenvalues --    2.26401   2.28627   2.30206   2.30492   2.32610
 Alpha virt. eigenvalues --    2.33273   2.34008   2.35812   2.36756   2.37504
 Alpha virt. eigenvalues --    2.38817   2.39307   2.41397   2.43482   2.43769
 Alpha virt. eigenvalues --    2.45038   2.46154   2.48667   2.50106   2.53480
 Alpha virt. eigenvalues --    2.56548   2.57568   2.58578   2.59416   2.62398
 Alpha virt. eigenvalues --    2.65141   2.66892   2.67968   2.70204   2.71567
 Alpha virt. eigenvalues --    2.74170   2.74884   2.76408   2.76987   2.80612
 Alpha virt. eigenvalues --    2.83299   2.84982   2.87450   2.88500   2.91735
 Alpha virt. eigenvalues --    2.92269   2.94742   2.96843   2.98051   3.00256
 Alpha virt. eigenvalues --    3.01643   3.03530   3.06704   3.10222   3.14210
 Alpha virt. eigenvalues --    3.16641   3.24117   3.24802   3.26410   3.30611
 Alpha virt. eigenvalues --    3.33875   3.35771   3.42992   3.44427   3.44810
 Alpha virt. eigenvalues --    3.45722   3.47835   3.49232   3.50788   3.51930
 Alpha virt. eigenvalues --    3.53398   3.54537   3.56479   3.57570   3.59053
 Alpha virt. eigenvalues --    3.59932   3.61407   3.62470   3.64400   3.65080
 Alpha virt. eigenvalues --    3.66825   3.67516   3.68678   3.71946   3.73416
 Alpha virt. eigenvalues --    3.73878   3.76237   3.76990   3.79865   3.81430
 Alpha virt. eigenvalues --    3.84142   3.87271   3.89093   3.92197   3.95616
 Alpha virt. eigenvalues --    3.96923   4.00337   4.03414   4.08226   4.09130
 Alpha virt. eigenvalues --    4.16545   4.18488   4.21095   4.26861   4.30077
 Alpha virt. eigenvalues --    4.31316   4.31833   4.34795   4.36161   4.38054
 Alpha virt. eigenvalues --    4.39416   4.39809   4.42294   4.44835   4.48591
 Alpha virt. eigenvalues --    4.62694   4.70723   5.04430   5.06435   5.11129
 Alpha virt. eigenvalues --    5.11916   5.14071   5.17077   5.18641   5.21533
 Alpha virt. eigenvalues --    5.23809   5.29694   5.33473   5.38007   5.40029
 Alpha virt. eigenvalues --    5.49256   5.58507   5.60057   5.86361   6.04483
 Alpha virt. eigenvalues --    6.37151   6.40657   6.42475   6.43679   6.44580
 Alpha virt. eigenvalues --    6.45237   6.47622   6.47820   6.48888   6.50569
 Alpha virt. eigenvalues --    6.51318   6.51641   6.52355   6.53462   6.54813
 Alpha virt. eigenvalues --    6.55742   6.57791   6.60177   6.61951   6.65464
 Alpha virt. eigenvalues --    6.68351   6.72358   6.73182   6.83303   6.85201
 Alpha virt. eigenvalues --    6.87006   6.87467   6.87877   6.88428   6.91473
 Alpha virt. eigenvalues --    6.91995   6.95802   6.96045   6.96427   6.98749
 Alpha virt. eigenvalues --    7.02399   7.04378   7.08594   7.15695   7.17374
 Alpha virt. eigenvalues --    7.19131   7.21794   7.30465   7.31990   7.41272
 Alpha virt. eigenvalues --    7.43844   7.45961   7.67859   8.46879   9.07973
 Alpha virt. eigenvalues --    9.08755   9.09203   9.10189   9.10848   9.11615
 Alpha virt. eigenvalues --    9.13798   9.16153   9.17305   9.18387   9.19207
 Alpha virt. eigenvalues --    9.20051   9.20777   9.21736   9.23619   9.23650
 Alpha virt. eigenvalues --    9.24509   9.25222   9.26167   9.26323   9.27703
 Alpha virt. eigenvalues --    9.28288   9.34134   9.34833   9.38907   9.40732
 Alpha virt. eigenvalues --    9.42947   9.43653   9.49139   9.50520   9.60984
 Alpha virt. eigenvalues --    9.64083   9.66652   9.67269   9.68169   9.72409
 Alpha virt. eigenvalues --    9.75556   9.75973   9.77166   9.78691   9.81279
 Alpha virt. eigenvalues --    9.83121   9.87291   9.89725   9.91523  17.67706
 Alpha virt. eigenvalues --   17.78720  17.82638  23.92831  23.96976  24.00787
 Alpha virt. eigenvalues --   24.04434  24.06464  24.19753  35.66344  50.02864
 Alpha virt. eigenvalues --   50.07314  50.09218  50.16414  66.92968  66.94037
 Alpha virt. eigenvalues --   66.94483  66.95637  66.97539  66.99245  66.99893
 Alpha virt. eigenvalues --   67.03494  67.04419 189.72985
          Condensed to atoms (all electrons):
               1          2          3          4          5          6
     1  C    6.051408  -1.888678   1.250294  -0.938571  -0.029292  -0.007013
     2  C   -1.888678  10.795295  -4.750484   1.792969  -0.350268   0.023147
     3  C    1.250294  -4.750484  15.659395  -6.888448   0.148676  -0.090966
     4  C   -0.938571   1.792969  -6.888448  12.315795  -0.833808  -0.057419
     5  S   -0.029292  -0.350268   0.148676  -0.833808  14.757311   0.508867
     6  O   -0.007013   0.023147  -0.090966  -0.057419   0.508867   8.139906
     7  O    0.007370  -0.025811   0.075523  -0.201845   0.512229  -0.037774
     8  F   -0.159373   0.304337  -0.154170   0.049367   0.029279  -0.000485
     9  F   -0.168133   0.376221  -0.122017   0.027045  -0.002911   0.000237
    10  F    0.288981  -0.078964   0.026051  -0.026599   0.001243  -0.000087
    11  F    0.213411  -0.070495  -0.048387   0.075664   0.001673   0.000081
    12  F    0.196323  -0.119374   0.042342   0.019395   0.000216   0.000002
    13  N    0.000567  -0.037275   0.074317  -0.115099   0.270494  -0.088122
    14  H    0.000070  -0.000371   0.004754  -0.016737  -0.006233   0.036731
    15  C    0.005359  -0.015100   0.048628   0.085139  -0.330561   0.018027
    16  H   -0.000141   0.000558  -0.001418   0.013785   0.018437   0.001043
    17  H    0.000002   0.000023  -0.000091  -0.001997  -0.003664  -0.000747
    18  H   -0.000011   0.000255  -0.010246  -0.003508   0.026815  -0.003479
    19  C   -0.000905  -0.003572  -0.098494  -0.053153   0.134243   0.008365
    20  O    0.000003   0.000048   0.006239   0.009824  -0.029132  -0.004349
    21  O   -0.000000   0.000066   0.000187   0.002135   0.005092   0.000264
    22  F   -0.012920  -0.019379  -0.194791   0.463911  -0.005619   0.007898
    23  F    0.040472  -0.197488   0.437351  -0.136381  -0.047326   0.021410
    24  F   -0.001699  -0.164310   0.455079  -0.204340   0.043069  -0.007450
    25  F    0.022867  -0.024025  -0.120246   0.369403  -0.063502  -0.003832
               7          8          9         10         11         12
     1  C    0.007370  -0.159373  -0.168133   0.288981   0.213411   0.196323
     2  C   -0.025811   0.304337   0.376221  -0.078964  -0.070495  -0.119374
     3  C    0.075523  -0.154170  -0.122017   0.026051  -0.048387   0.042342
     4  C   -0.201845   0.049367   0.027045  -0.026599   0.075664   0.019395
     5  S    0.512229   0.029279  -0.002911   0.001243   0.001673   0.000216
     6  O   -0.037774  -0.000485   0.000237  -0.000087   0.000081   0.000002
     7  O    8.270465   0.000256  -0.001268   0.000037  -0.000095   0.000012
     8  F    0.000256   9.117861   0.001204   0.020319   0.001665   0.020293
     9  F   -0.001268   0.001204   9.070843  -0.000631   0.016102   0.023591
    10  F    0.000037   0.020319  -0.000631   9.035435   0.007559  -0.007869
    11  F   -0.000095   0.001665   0.016102   0.007559   9.069304   0.002789
    12  F    0.000012   0.020293   0.023591  -0.007869   0.002789   9.111499
    13  N   -0.096546   0.000157   0.000069   0.000019   0.000050  -0.000006
    14  H   -0.006386  -0.000009  -0.000004  -0.000001  -0.000000   0.000000
    15  C    0.009430   0.000290   0.000447  -0.000051   0.000071   0.000003
    16  H    0.002932   0.000009   0.000003  -0.000000  -0.000000  -0.000000
    17  H    0.000932   0.000001  -0.000000   0.000000   0.000000  -0.000000
    18  H    0.049535  -0.000001   0.000005   0.000000  -0.000000   0.000000
    19  C   -0.009940   0.000093   0.000040  -0.000003   0.000008   0.000000
    20  O    0.001384   0.000000  -0.000000  -0.000000   0.000000  -0.000000
    21  O    0.000521   0.000000   0.000000  -0.000000  -0.000000   0.000000
    22  F   -0.005429   0.010647  -0.000866  -0.000450  -0.000113   0.000060
    23  F   -0.003436   0.012172   0.000096   0.006004   0.006793   0.000247
    24  F    0.015512   0.000764   0.020611  -0.003260   0.009146  -0.000968
    25  F    0.018455   0.017193   0.010402   0.000121  -0.000047  -0.000092
              13         14         15         16         17         18
     1  C    0.000567   0.000070   0.005359  -0.000141   0.000002  -0.000011
     2  C   -0.037275  -0.000371  -0.015100   0.000558   0.000023   0.000255
     3  C    0.074317   0.004754   0.048628  -0.001418  -0.000091  -0.010246
     4  C   -0.115099  -0.016737   0.085139   0.013785  -0.001997  -0.003508
     5  S    0.270494  -0.006233  -0.330561   0.018437  -0.003664   0.026815
     6  O   -0.088122   0.036731   0.018027   0.001043  -0.000747  -0.003479
     7  O   -0.096546  -0.006386   0.009430   0.002932   0.000932   0.049535
     8  F    0.000157  -0.000009   0.000290   0.000009   0.000001  -0.000001
     9  F    0.000069  -0.000004   0.000447   0.000003  -0.000000   0.000005
    10  F    0.000019  -0.000001  -0.000051  -0.000000   0.000000   0.000000
    11  F    0.000050  -0.000000   0.000071  -0.000000   0.000000  -0.000000
    12  F   -0.000006   0.000000   0.000003  -0.000000  -0.000000   0.000000
    13  N    7.088903   0.323669  -0.025998  -0.031609  -0.020473  -0.016262
    14  H    0.323669   0.443123   0.018172   0.002537  -0.008656   0.000275
    15  C   -0.025998   0.018172   5.816445   0.416152   0.420419   0.023000
    16  H   -0.031609   0.002537   0.416152   0.489802  -0.008075  -0.004250
    17  H   -0.020473  -0.008656   0.420419  -0.008075   0.491414  -0.000144
    18  H   -0.016262   0.000275   0.023000  -0.004250  -0.000144   0.447011
    19  C   -0.066192  -0.011257  -0.346472  -0.062027  -0.026471   0.010213
    20  O    0.053585  -0.003124  -0.087174   0.006351   0.006591   0.205545
    21  O    0.003096   0.001405  -0.015155   0.001656   0.000371  -0.002753
    22  F    0.018189  -0.002765  -0.009981  -0.001044   0.000065   0.000222
    23  F   -0.001498   0.000034   0.002039   0.000031   0.000004   0.000019
    24  F    0.006345  -0.000040  -0.000481  -0.000035  -0.000002   0.000123
    25  F    0.015883  -0.000124  -0.009667   0.000678  -0.000019  -0.000934
              19         20         21         22         23         24
     1  C   -0.000905   0.000003  -0.000000  -0.012920   0.040472  -0.001699
     2  C   -0.003572   0.000048   0.000066  -0.019379  -0.197488  -0.164310
     3  C   -0.098494   0.006239   0.000187  -0.194791   0.437351   0.455079
     4  C   -0.053153   0.009824   0.002135   0.463911  -0.136381  -0.204340
     5  S    0.134243  -0.029132   0.005092  -0.005619  -0.047326   0.043069
     6  O    0.008365  -0.004349   0.000264   0.007898   0.021410  -0.007450
     7  O   -0.009940   0.001384   0.000521  -0.005429  -0.003436   0.015512
     8  F    0.000093   0.000000   0.000000   0.010647   0.012172   0.000764
     9  F    0.000040  -0.000000   0.000000  -0.000866   0.000096   0.020611
    10  F   -0.000003  -0.000000  -0.000000  -0.000450   0.006004  -0.003260
    11  F    0.000008   0.000000  -0.000000  -0.000113   0.006793   0.009146
    12  F    0.000000  -0.000000   0.000000   0.000060   0.000247  -0.000968
    13  N   -0.066192   0.053585   0.003096   0.018189  -0.001498   0.006345
    14  H   -0.011257  -0.003124   0.001405  -0.002765   0.000034  -0.000040
    15  C   -0.346472  -0.087174  -0.015155  -0.009981   0.002039  -0.000481
    16  H   -0.062027   0.006351   0.001656  -0.001044   0.000031  -0.000035
    17  H   -0.026471   0.006591   0.000371   0.000065   0.000004  -0.000002
    18  H    0.010213   0.205545  -0.002753   0.000222   0.000019   0.000123
    19  C    5.543691   0.258475   0.346142  -0.000793  -0.000299   0.000414
    20  O    0.258475   8.014004  -0.048128  -0.000184  -0.000000  -0.000038
    21  O    0.346142  -0.048128   8.112588  -0.000019   0.000001  -0.000001
    22  F   -0.000793  -0.000184  -0.000019   8.960121   0.025865   0.000359
    23  F   -0.000299  -0.000000   0.000001   0.025865   9.053287   0.006538
    24  F    0.000414  -0.000038  -0.000001   0.000359   0.006538   9.026639
    25  F    0.004259   0.000163  -0.000050   0.004661  -0.001138   0.014854
              25
     1  C    0.022867
     2  C   -0.024025
     3  C   -0.120246
     4  C    0.369403
     5  S   -0.063502
     6  O   -0.003832
     7  O    0.018455
     8  F    0.017193
     9  F    0.010402
    10  F    0.000121
    11  F   -0.000047
    12  F   -0.000092
    13  N    0.015883
    14  H   -0.000124
    15  C   -0.009667
    16  H    0.000678
    17  H   -0.000019
    18  H   -0.000934
    19  C    0.004259
    20  O    0.000163
    21  O   -0.000050
    22  F    0.004661
    23  F   -0.001138
    24  F    0.014854
    25  F    8.997587
 Mulliken charges:
               1
     1  C    1.129609
     2  C    0.452675
     3  C    0.250922
     4  C    0.253474
     5  S    1.244671
     6  O   -0.464257
     7  O   -0.576061
     8  F   -0.271872
     9  F   -0.251085
    10  F   -0.267855
    11  F   -0.285178
    12  F   -0.288462
    13  N   -0.356263
    14  H    0.224936
    15  C   -0.022979
    16  H    0.154627
    17  H    0.150514
    18  H    0.278570
    19  C    0.373635
    20  O   -0.390083
    21  O   -0.407417
    22  F   -0.237644
    23  F   -0.224797
    24  F   -0.216829
    25  F   -0.252850
 Sum of Mulliken charges =  -0.00000
 Mulliken charges with hydrogens summed into heavy atoms:
               1
     1  C    1.129609
     2  C    0.452675
     3  C    0.250922
     4  C    0.253474
     5  S    1.244671
     6  O   -0.464257
     7  O   -0.576061
     8  F   -0.271872
     9  F   -0.251085
    10  F   -0.267855
    11  F   -0.285178
    12  F   -0.288462
    13  N   -0.131327
    15  C    0.282162
    19  C    0.373635
    20  O   -0.111514
    21  O   -0.407417
    22  F   -0.237644
    23  F   -0.224797
    24  F   -0.216829
    25  F   -0.252850
 Electronic spatial extent (au):  <R**2>=           7164.2482
 Charge=              0.0000 electrons
 Dipole moment (field-independent basis, Debye):
    X=              2.4711    Y=             -1.6625    Z=              2.0161  Tot=              3.5965
 Quadrupole moment (field-independent basis, Debye-Ang):
   XX=           -152.1987   YY=           -125.2234   ZZ=           -120.0420
   XY=              0.5634   XZ=             -8.6412   YZ=             -0.4719
 Traceless Quadrupole moment (field-independent basis, Debye-Ang):
   XX=            -19.7107   YY=              7.2647   ZZ=             12.4460
   XY=              0.5634   XZ=             -8.6412   YZ=             -0.4719
 Octapole moment (field-independent basis, Debye-Ang**2):
  XXX=            325.8555  YYY=            -14.6471  ZZZ=              8.6439  XYY=             26.5306
  XXY=             23.2568  XXZ=             35.0954  XZZ=             11.5961  YZZ=             -3.4692
  YYZ=             -5.0787  XYZ=             -2.6238
 Hexadecapole moment (field-independent basis, Debye-Ang**3):
 XXXX=          -8574.8984 YYYY=           -765.8480 ZZZZ=           -575.0444 XXXY=           -206.8338
 XXXZ=           -166.0526 YYYX=              4.6193 YYYZ=            -13.7002 ZZZX=            -39.5336
 ZZZY=              1.4134 XXYY=          -1280.5469 XXZZ=          -1199.7127 YYZZ=           -225.8785
 XXYZ=             14.2298 YYXZ=              5.7338 ZZXY=              0.4984
 N-N= 2.335120857596D+03 E-N=-9.132362730907D+03  KE= 1.878942580060D+03
 No NMR shielding tensors so no spin-rotation constants.
 Leave Link  601 at Tue Dec 30 12:40:47 2025, MaxMem= 29527900160 cpu:              26.0 elap:               0.5
 (Enter /usr/local/src/g16/l701.exe)
 ... and contract with generalized density number  0.
 Compute integral first derivatives.
 R6Disp: Adding Grimme-D2 dispersion energy 1st derivatives to the gradient.
 Leave Link  701 at Tue Dec 30 12:40:48 2025, MaxMem= 29527900160 cpu:              29.6 elap:               0.6
 (Enter /usr/local/src/g16/l702.exe)
 L702 exits ... SP integral derivatives will be done elsewhere.
 Leave Link  702 at Tue Dec 30 12:40:48 2025, MaxMem= 29527900160 cpu:               3.2 elap:               0.1
 (Enter /usr/local/src/g16/l703.exe)
 Integral derivatives from FoFJK, PRISM(SPDF).
 Compute integral first derivatives, UseDBF=F ICtDFT=           0.
 Calling FoFJK, ICntrl=      2127 FMM=F ISym2X=0 I1Cent= 0 IOpClX= 0 NMat=1 NMatS=1 NMatT=0.
 FoFJK:  IHMeth= 1 ICntrl=    2127 DoSepK=T KAlg= 0 I1Cent=           0 FoldK=F
 IRaf=         1 NMat=       1 IRICut=       1 DoRegI=T DoRafI=F ISym2E= 0 IDoP0=0 IntGTp=1.
 FoFCou: FMM=F IPFlag=           0 FMFlag=      100000 FMFlg1=         800
         NFxFlg=           0 DoJE=F BraDBF=F KetDBF=F FulRan=T
         wScrn=  0.000000 ICntrl=      2527 IOpCl=  0 I1Cent=           0 NGrid=           0
         NMat0=    1 NMatS0=      1 NMatT0=    0 NMatD0=    1 NMtDS0=    0 NMtDT0=    0
 Symmetry not used in FoFCou.
 Leave Link  703 at Tue Dec 30 12:41:40 2025, MaxMem= 29527900160 cpu:            2905.7 elap:              51.9
 (Enter /usr/local/src/g16/l716.exe)
 Dipole        = 9.72223630D-01-6.54059475D-01 7.93211111D-01
 ***** Axes restored to original set *****
 -------------------------------------------------------------------
 Center     Atomic                   Forces (Hartrees/Bohr)
 Number     Number              X              Y              Z
 -------------------------------------------------------------------
      1        6          -0.000008605    0.000013953    0.000007327
      2        6           0.000004588   -0.000008883   -0.000003572
      3        6           0.000004010    0.000002144   -0.000012587
      4        6          -0.000004658   -0.000026659    0.000016559
      5       16           0.000005611    0.000017554   -0.000022035
      6        8          -0.000000015   -0.000007497    0.000001364
      7        8          -0.000003433   -0.000002322    0.000012352
      8        9           0.000002915    0.000003389    0.000011912
      9        9          -0.000001348   -0.000002512   -0.000004943
     10        9          -0.000001869   -0.000006652    0.000001264
     11        9           0.000000614   -0.000006574   -0.000004565
     12        9           0.000004693   -0.000002478    0.000003298
     13        7           0.000013756    0.000009524    0.000000034
     14        1          -0.000003640   -0.000001087   -0.000004025
     15        6          -0.000013271   -0.000026079   -0.000000731
     16        1           0.000001967    0.000004531    0.000000547
     17        1           0.000002804    0.000002294   -0.000000907
     18        1          -0.000001820    0.000005005    0.000002208
     19        6          -0.000007103    0.000003235    0.000005915
     20        8           0.000001087   -0.000001496   -0.000004667
     21        8           0.000005695    0.000002126   -0.000002408
     22        9           0.000002733   -0.000004638    0.000000424
     23        9          -0.000004564    0.000002856    0.000001203
     24        9           0.000000119    0.000012733    0.000009442
     25        9          -0.000000267    0.000017532   -0.000013410
 -------------------------------------------------------------------
 Cartesian Forces:  Max     0.000026659 RMS     0.000008344
 Leave Link  716 at Tue Dec 30 12:41:40 2025, MaxMem= 29527900160 cpu:               3.9 elap:               0.1
 (Enter /usr/local/src/g16/l103.exe)

 GradGradGradGradGradGradGradGradGradGradGradGradGradGradGradGradGradGrad
 Berny optimization.
 FormGI is forming the generalized inverse of G from B-inverse, IUseBI=4.
 Internal  Forces:  Max     0.000022099 RMS     0.000004592
 Search for a local minimum.
 Step number   1 out of a maximum of  133
 All quantities printed in internal units (Hartrees-Bohrs-Radians)
 RMS Force = .45920D-05 SwitMx=.10000D-02 MixMth= 2
 Mixed Optimization -- En-DIIS/RFO-DIIS
 Second derivative matrix not updated -- first step.
 ITU=  0
     Eigenvalues ---    0.00230   0.00230   0.00230   0.00230   0.00339
     Eigenvalues ---    0.00908   0.00946   0.01688   0.02490   0.02588
     Eigenvalues ---    0.04785   0.05196   0.05307   0.05362   0.06453
     Eigenvalues ---    0.06928   0.06952   0.06981   0.08501   0.08897
     Eigenvalues ---    0.09119   0.09441   0.10175   0.12278   0.12783
     Eigenvalues ---    0.12894   0.13087   0.13402   0.15978   0.16000
     Eigenvalues ---    0.17990   0.18932   0.18989   0.19150   0.21357
     Eigenvalues ---    0.22004   0.22069   0.24997   0.25000   0.25000
     Eigenvalues ---    0.25000   0.25000   0.25000   0.25000   0.25000
     Eigenvalues ---    0.25000   0.26812   0.27048   0.27050   0.29215
     Eigenvalues ---    0.34890   0.35328   0.37418   0.46612   0.49373
     Eigenvalues ---    0.53613   0.56867   0.57347   0.57766   0.57873
     Eigenvalues ---    0.57957   0.58408   0.58975   0.60281   0.60360
     Eigenvalues ---    0.60889   1.01828   1.07148   1.07907
 RFO step:  Lambda=-1.44840867D-08 EMin= 2.30000000D-03
 Linear search not attempted -- first point.
 Iteration  1 RMS(Cart)=  0.00020781 RMS(Int)=  0.00000002
 Iteration  2 RMS(Cart)=  0.00000003 RMS(Int)=  0.00000000
 ITry= 1 IFail=0 DXMaxC= 8.19D-04 DCOld= 1.00D+10 DXMaxT= 3.00D-01 DXLimC= 3.00D+00 Rises=F
 Variable       Old X    -DE/DX   Delta X   Delta X   Delta X     New X
                                 (Linear)    (Quad)   (Total)
    R1        2.94267   0.00001   0.00000   0.00002   0.00002   2.94269
    R2        2.50243   0.00000   0.00000   0.00000   0.00000   2.50244
    R3        2.50718   0.00001   0.00000   0.00001   0.00001   2.50720
    R4        2.50657  -0.00001   0.00000  -0.00001  -0.00001   2.50656
    R5        2.94811  -0.00001   0.00000  -0.00003  -0.00003   2.94808
    R6        2.53509   0.00001   0.00000   0.00002   0.00002   2.53511
    R7        2.52594   0.00000   0.00000   0.00001   0.00001   2.52595
    R8        2.94263  -0.00000   0.00000  -0.00001  -0.00001   2.94261
    R9        2.52664   0.00000   0.00000   0.00000   0.00000   2.52664
   R10        2.52753  -0.00001   0.00000  -0.00002  -0.00002   2.52751
   R11        3.53188  -0.00000   0.00000  -0.00001  -0.00001   3.53187
   R12        2.52223  -0.00000   0.00000  -0.00000  -0.00000   2.52223
   R13        2.53104   0.00002   0.00000   0.00004   0.00004   2.53108
   R14        2.69330   0.00001   0.00000   0.00001   0.00001   2.69330
   R15        2.71615  -0.00001   0.00000  -0.00001  -0.00001   2.71614
   R16        3.04203  -0.00000   0.00000  -0.00000  -0.00000   3.04203
   R17        1.90147  -0.00000   0.00000  -0.00001  -0.00001   1.90146
   R18        2.75221  -0.00002   0.00000  -0.00005  -0.00005   2.75216
   R19        2.05853   0.00000   0.00000   0.00000   0.00000   2.05854
   R20        2.05146   0.00000   0.00000   0.00001   0.00001   2.05147
   R21        2.89556  -0.00001   0.00000  -0.00002  -0.00002   2.89555
   R22        1.83086  -0.00000   0.00000  -0.00000  -0.00000   1.83086
   R23        2.51761  -0.00000   0.00000  -0.00000  -0.00000   2.51760
   R24        2.25905   0.00001   0.00000   0.00001   0.00001   2.25906
    A1        1.93406   0.00001   0.00000   0.00003   0.00003   1.93409
    A2        1.92768  -0.00000   0.00000  -0.00002  -0.00002   1.92766
    A3        1.89573  -0.00000   0.00000  -0.00001  -0.00001   1.89572
    A4        1.90710  -0.00000   0.00000  -0.00002  -0.00002   1.90708
    A5        1.89744   0.00000   0.00000   0.00002   0.00002   1.89746
    A6        1.90126   0.00000   0.00000   0.00000   0.00000   1.90127
    A7        1.99220   0.00000   0.00000   0.00000   0.00000   1.99221
    A8        1.87888   0.00000   0.00000   0.00001   0.00001   1.87889
    A9        1.88236  -0.00000   0.00000  -0.00002  -0.00002   1.88235
   A10        1.90640  -0.00000   0.00000  -0.00002  -0.00002   1.90638
   A11        1.89802  -0.00000   0.00000  -0.00001  -0.00001   1.89801
   A12        1.90445   0.00000   0.00000   0.00004   0.00004   1.90448
   A13        1.97177   0.00001   0.00000   0.00003   0.00003   1.97180
   A14        1.90597  -0.00001   0.00000  -0.00004  -0.00004   1.90593
   A15        1.89278  -0.00000   0.00000  -0.00001  -0.00001   1.89277
   A16        1.88777   0.00000   0.00000   0.00001   0.00001   1.88777
   A17        1.89975  -0.00000   0.00000  -0.00002  -0.00002   1.89973
   A18        1.90501   0.00000   0.00000   0.00004   0.00004   1.90504
   A19        1.97666   0.00000   0.00000   0.00001   0.00001   1.97667
   A20        1.91235   0.00000   0.00000   0.00001   0.00001   1.91236
   A21        1.92808  -0.00001   0.00000  -0.00004  -0.00004   1.92804
   A22        1.87112  -0.00000   0.00000  -0.00002  -0.00002   1.87111
   A23        1.87308   0.00000   0.00000   0.00000   0.00000   1.87309
   A24        1.90025   0.00000   0.00000   0.00002   0.00002   1.90027
   A25        1.85115  -0.00000   0.00000  -0.00002  -0.00002   1.85113
   A26        1.84471   0.00000   0.00000   0.00002   0.00002   1.84474
   A27        1.79295   0.00000   0.00000   0.00002   0.00002   1.79297
   A28        2.16624  -0.00000   0.00000  -0.00002  -0.00002   2.16622
   A29        1.89838  -0.00000   0.00000  -0.00002  -0.00002   1.89836
   A30        1.87516   0.00000   0.00000   0.00002   0.00002   1.87518
   A31        2.01052  -0.00000   0.00000  -0.00001  -0.00001   2.01051
   A32        2.17486  -0.00000   0.00000  -0.00002  -0.00002   2.17485
   A33        2.09626   0.00000   0.00000   0.00002   0.00002   2.09628
   A34        1.90678   0.00000   0.00000   0.00003   0.00003   1.90681
   A35        1.89734   0.00000   0.00000   0.00003   0.00003   1.89737
   A36        1.99250  -0.00000   0.00000  -0.00000  -0.00000   1.99249
   A37        1.88626  -0.00000   0.00000  -0.00003  -0.00003   1.88624
   A38        1.89988  -0.00000   0.00000  -0.00001  -0.00001   1.89988
   A39        1.87828  -0.00000   0.00000  -0.00002  -0.00002   1.87826
   A40        2.03371  -0.00001   0.00000  -0.00004  -0.00004   2.03367
   A41        2.11957   0.00001   0.00000   0.00003   0.00003   2.11959
   A42        2.12972   0.00000   0.00000   0.00001   0.00001   2.12973
   A43        1.95213  -0.00001   0.00000  -0.00006  -0.00006   1.95207
    D1        1.22876  -0.00000   0.00000  -0.00024  -0.00024   1.22852
    D2       -0.89052  -0.00000   0.00000  -0.00022  -0.00022  -0.89075
    D3       -2.94330  -0.00000   0.00000  -0.00027  -0.00027  -2.94357
    D4       -0.88715  -0.00000   0.00000  -0.00022  -0.00022  -0.88737
    D5       -3.00643   0.00000   0.00000  -0.00020  -0.00020  -3.00664
    D6        1.22397  -0.00000   0.00000  -0.00024  -0.00024   1.22372
    D7       -2.97122   0.00000   0.00000  -0.00021  -0.00021  -2.97143
    D8        1.19269   0.00000   0.00000  -0.00019  -0.00019   1.19249
    D9       -0.86010  -0.00000   0.00000  -0.00023  -0.00023  -0.86033
   D10       -2.86329  -0.00000   0.00000   0.00035   0.00035  -2.86295
   D11       -0.76177   0.00000   0.00000   0.00035   0.00035  -0.76142
   D12        1.31238   0.00000   0.00000   0.00036   0.00036   1.31274
   D13       -0.75930  -0.00000   0.00000   0.00035   0.00035  -0.75895
   D14        1.34222   0.00000   0.00000   0.00035   0.00035   1.34257
   D15       -2.86681   0.00000   0.00000   0.00036   0.00036  -2.86645
   D16        1.31749   0.00000   0.00000   0.00038   0.00038   1.31786
   D17       -2.86418   0.00000   0.00000   0.00038   0.00038  -2.86380
   D18       -0.79003   0.00000   0.00000   0.00039   0.00039  -0.78964
   D19       -2.83554  -0.00000   0.00000   0.00004   0.00004  -2.83550
   D20        1.35960  -0.00000   0.00000   0.00004   0.00004   1.35965
   D21       -0.73387  -0.00000   0.00000   0.00003   0.00003  -0.73384
   D22        1.33576   0.00000   0.00000   0.00007   0.00007   1.33583
   D23       -0.75228   0.00000   0.00000   0.00007   0.00007  -0.75221
   D24       -2.84576   0.00000   0.00000   0.00006   0.00006  -2.84570
   D25       -0.73200  -0.00000   0.00000   0.00003   0.00003  -0.73197
   D26       -2.82004  -0.00000   0.00000   0.00003   0.00003  -2.82001
   D27        1.36967  -0.00000   0.00000   0.00002   0.00002   1.36969
   D28       -0.98204  -0.00000   0.00000  -0.00006  -0.00006  -0.98210
   D29        1.34635  -0.00000   0.00000  -0.00007  -0.00007   1.34627
   D30       -2.97343  -0.00000   0.00000  -0.00004  -0.00004  -2.97347
   D31        1.12945  -0.00000   0.00000  -0.00004  -0.00004   1.12941
   D32       -2.82535  -0.00000   0.00000  -0.00006  -0.00006  -2.82541
   D33       -0.86194   0.00000   0.00000  -0.00002  -0.00002  -0.86196
   D34       -3.11466   0.00000   0.00000  -0.00002  -0.00002  -3.11469
   D35       -0.78628   0.00000   0.00000  -0.00004  -0.00004  -0.78632
   D36        1.17713   0.00000   0.00000  -0.00000  -0.00000   1.17712
   D37        1.67723  -0.00000   0.00000  -0.00008  -0.00008   1.67716
   D38       -1.52435  -0.00000   0.00000  -0.00012  -0.00012  -1.52447
   D39       -0.27943  -0.00000   0.00000  -0.00006  -0.00006  -0.27949
   D40        2.80217  -0.00000   0.00000  -0.00010  -0.00010   2.80207
   D41       -2.66513   0.00000   0.00000  -0.00003  -0.00003  -2.66517
   D42        0.41647   0.00000   0.00000  -0.00008  -0.00008   0.41639
   D43        0.53966   0.00000   0.00000   0.00003   0.00003   0.53969
   D44        2.59436   0.00000   0.00000   0.00003   0.00003   2.59439
   D45       -1.59193  -0.00000   0.00000   0.00002   0.00002  -1.59191
   D46       -2.66469  -0.00000   0.00000  -0.00002  -0.00002  -2.66471
   D47       -0.60998   0.00000   0.00000  -0.00002  -0.00002  -0.61000
   D48        1.48691  -0.00000   0.00000  -0.00003  -0.00003   1.48688
   D49        0.95755  -0.00000   0.00000  -0.00015  -0.00015   0.95740
   D50       -2.20432  -0.00000   0.00000  -0.00024  -0.00024  -2.20456
   D51       -1.17782  -0.00000   0.00000  -0.00018  -0.00018  -1.17799
   D52        1.94350  -0.00000   0.00000  -0.00027  -0.00027   1.94323
   D53        3.06508   0.00000   0.00000  -0.00013  -0.00013   3.06495
   D54       -0.09679   0.00000   0.00000  -0.00022  -0.00022  -0.09702
   D55        0.04978  -0.00000   0.00000  -0.00006  -0.00006   0.04972
   D56       -3.07141   0.00000   0.00000   0.00003   0.00003  -3.07137
         Item               Value     Threshold  Converged?
 Maximum Force            0.000022     0.000450     YES
 RMS     Force            0.000005     0.000300     YES
 Maximum Displacement     0.000819     0.001800     YES
 RMS     Displacement     0.000208     0.001200     YES
 Predicted change in Energy=-7.242051D-09
 Optimization completed.
    -- Stationary point found.
                           ----------------------------
                           !   Optimized Parameters   !
                           ! (Angstroms and Degrees)  !
 --------------------------                            --------------------------
 ! Name  Definition              Value          Derivative Info.                !
 --------------------------------------------------------------------------------
 ! R1    R(1,2)                  1.5572         -DE/DX =    0.0                 !
 ! R2    R(1,10)                 1.3242         -DE/DX =    0.0                 !
 ! R3    R(1,11)                 1.3267         -DE/DX =    0.0                 !
 ! R4    R(1,12)                 1.3264         -DE/DX =    0.0                 !
 ! R5    R(2,3)                  1.5601         -DE/DX =    0.0                 !
 ! R6    R(2,8)                  1.3415         -DE/DX =    0.0                 !
 ! R7    R(2,9)                  1.3367         -DE/DX =    0.0                 !
 ! R8    R(3,4)                  1.5572         -DE/DX =    0.0                 !
 ! R9    R(3,23)                 1.337          -DE/DX =    0.0                 !
 ! R10   R(3,24)                 1.3375         -DE/DX =    0.0                 !
 ! R11   R(4,5)                  1.869          -DE/DX =    0.0                 !
 ! R12   R(4,22)                 1.3347         -DE/DX =    0.0                 !
 ! R13   R(4,25)                 1.3394         -DE/DX =    0.0                 !
 ! R14   R(5,6)                  1.4252         -DE/DX =    0.0                 !
 ! R15   R(5,7)                  1.4373         -DE/DX =    0.0                 !
 ! R16   R(5,13)                 1.6098         -DE/DX =    0.0                 !
 ! R17   R(13,14)                1.0062         -DE/DX =    0.0                 !
 ! R18   R(13,15)                1.4564         -DE/DX =    0.0                 !
 ! R19   R(15,16)                1.0893         -DE/DX =    0.0                 !
 ! R20   R(15,17)                1.0856         -DE/DX =    0.0                 !
 ! R21   R(15,19)                1.5323         -DE/DX =    0.0                 !
 ! R22   R(18,20)                0.9688         -DE/DX =    0.0                 !
 ! R23   R(19,20)                1.3323         -DE/DX =    0.0                 !
 ! R24   R(19,21)                1.1954         -DE/DX =    0.0                 !
 ! A1    A(2,1,10)             110.8136         -DE/DX =    0.0                 !
 ! A2    A(2,1,11)             110.4481         -DE/DX =    0.0                 !
 ! A3    A(2,1,12)             108.6172         -DE/DX =    0.0                 !
 ! A4    A(10,1,11)            109.2689         -DE/DX =    0.0                 !
 ! A5    A(10,1,12)            108.7153         -DE/DX =    0.0                 !
 ! A6    A(11,1,12)            108.9343         -DE/DX =    0.0                 !
 ! A7    A(1,2,3)              114.1449         -DE/DX =    0.0                 !
 ! A8    A(1,2,8)              107.6518         -DE/DX =    0.0                 !
 ! A9    A(1,2,9)              107.8515         -DE/DX =    0.0                 !
 ! A10   A(3,2,8)              109.2287         -DE/DX =    0.0                 !
 ! A11   A(3,2,9)              108.7488         -DE/DX =    0.0                 !
 ! A12   A(8,2,9)              109.1167         -DE/DX =    0.0                 !
 ! A13   A(2,3,4)              112.9742         -DE/DX =    0.0                 !
 ! A14   A(2,3,23)             109.2042         -DE/DX =    0.0                 !
 ! A15   A(2,3,24)             108.4482         -DE/DX =    0.0                 !
 ! A16   A(4,3,23)             108.161          -DE/DX =    0.0                 !
 ! A17   A(4,3,24)             108.8477         -DE/DX =    0.0                 !
 ! A18   A(23,3,24)            109.1489         -DE/DX =    0.0                 !
 ! A19   A(3,4,5)              113.2542         -DE/DX =    0.0                 !
 ! A20   A(3,4,22)             109.5695         -DE/DX =    0.0                 !
 ! A21   A(3,4,25)             110.4706         -DE/DX =    0.0                 !
 ! A22   A(5,4,22)             107.2075         -DE/DX =    0.0                 !
 ! A23   A(5,4,25)             107.3198         -DE/DX =    0.0                 !
 ! A24   A(22,4,25)            108.8761         -DE/DX =    0.0                 !
 ! A25   A(4,5,6)              106.0633         -DE/DX =    0.0                 !
 ! A26   A(4,5,7)              105.6943         -DE/DX =    0.0                 !
 ! A27   A(4,5,13)             102.7285         -DE/DX =    0.0                 !
 ! A28   A(6,5,7)              124.1163         -DE/DX =    0.0                 !
 ! A29   A(6,5,13)             108.7691         -DE/DX =    0.0                 !
 ! A30   A(7,5,13)             107.4387         -DE/DX =    0.0                 !
 ! A31   A(5,13,14)            115.1941         -DE/DX =    0.0                 !
 ! A32   A(5,13,15)            124.6104         -DE/DX =    0.0                 !
 ! A33   A(14,13,15)           120.1067         -DE/DX =    0.0                 !
 ! A34   A(13,15,16)           109.2507         -DE/DX =    0.0                 !
 ! A35   A(13,15,17)           108.7094         -DE/DX =    0.0                 !
 ! A36   A(13,15,19)           114.1617         -DE/DX =    0.0                 !
 ! A37   A(16,15,17)           108.0749         -DE/DX =    0.0                 !
 ! A38   A(16,15,19)           108.8551         -DE/DX =    0.0                 !
 ! A39   A(17,15,19)           107.6178         -DE/DX =    0.0                 !
 ! A40   A(15,19,20)           116.523          -DE/DX =    0.0                 !
 ! A41   A(15,19,21)           121.4422         -DE/DX =    0.0                 !
 ! A42   A(20,19,21)           122.0242         -DE/DX =    0.0                 !
 ! A43   A(18,20,19)           111.8488         -DE/DX =    0.0                 !
 ! D1    D(10,1,2,3)            70.4025         -DE/DX =    0.0                 !
 ! D2    D(10,1,2,8)           -51.0231         -DE/DX =    0.0                 !
 ! D3    D(10,1,2,9)          -168.6389         -DE/DX =    0.0                 !
 ! D4    D(11,1,2,3)           -50.8302         -DE/DX =    0.0                 !
 ! D5    D(11,1,2,8)          -172.2559         -DE/DX =    0.0                 !
 ! D6    D(11,1,2,9)            70.1283         -DE/DX =    0.0                 !
 ! D7    D(12,1,2,3)          -170.2385         -DE/DX =    0.0                 !
 ! D8    D(12,1,2,8)            68.3358         -DE/DX =    0.0                 !
 ! D9    D(12,1,2,9)           -49.28           -DE/DX =    0.0                 !
 ! D10   D(1,2,3,4)           -164.0547         -DE/DX =    0.0                 !
 ! D11   D(1,2,3,23)           -43.6464         -DE/DX =    0.0                 !
 ! D12   D(1,2,3,24)            75.1937         -DE/DX =    0.0                 !
 ! D13   D(8,2,3,4)            -43.5046         -DE/DX =    0.0                 !
 ! D14   D(8,2,3,23)            76.9037         -DE/DX =    0.0                 !
 ! D15   D(8,2,3,24)          -164.2562         -DE/DX =    0.0                 !
 ! D16   D(9,2,3,4)             75.4864         -DE/DX =    0.0                 !
 ! D17   D(9,2,3,23)          -164.1053         -DE/DX =    0.0                 !
 ! D18   D(9,2,3,24)           -45.2652         -DE/DX =    0.0                 !
 ! D19   D(2,3,4,5)           -162.4643         -DE/DX =    0.0                 !
 ! D20   D(2,3,4,22)            77.8996         -DE/DX =    0.0                 !
 ! D21   D(2,3,4,25)           -42.0476         -DE/DX =    0.0                 !
 ! D22   D(23,3,4,5)            76.5335         -DE/DX =    0.0                 !
 ! D23   D(23,3,4,22)          -43.1026         -DE/DX =    0.0                 !
 ! D24   D(23,3,4,25)         -163.0499         -DE/DX =    0.0                 !
 ! D25   D(24,3,4,5)           -41.9403         -DE/DX =    0.0                 !
 ! D26   D(24,3,4,22)         -161.5764         -DE/DX =    0.0                 !
 ! D27   D(24,3,4,25)           78.4764         -DE/DX =    0.0                 !
 ! D28   D(3,4,5,6)            -56.2667         -DE/DX =    0.0                 !
 ! D29   D(3,4,5,7)             77.14           -DE/DX =    0.0                 !
 ! D30   D(3,4,5,13)          -170.3651         -DE/DX =    0.0                 !
 ! D31   D(22,4,5,6)            64.7129         -DE/DX =    0.0                 !
 ! D32   D(22,4,5,7)          -161.8805         -DE/DX =    0.0                 !
 ! D33   D(22,4,5,13)          -49.3855         -DE/DX =    0.0                 !
 ! D34   D(25,4,5,6)          -178.4571         -DE/DX =    0.0                 !
 ! D35   D(25,4,5,7)           -45.0505         -DE/DX =    0.0                 !
 ! D36   D(25,4,5,13)           67.4445         -DE/DX =    0.0                 !
 ! D37   D(4,5,13,14)           96.0985         -DE/DX =    0.0                 !
 ! D38   D(4,5,13,15)          -87.3388         -DE/DX =    0.0                 !
 ! D39   D(6,5,13,14)          -16.0102         -DE/DX =    0.0                 !
 ! D40   D(6,5,13,15)          160.5526         -DE/DX =    0.0                 !
 ! D41   D(7,5,13,14)         -152.7009         -DE/DX =    0.0                 !
 ! D42   D(7,5,13,15)           23.8619         -DE/DX =    0.0                 !
 ! D43   D(5,13,15,16)          30.9202         -DE/DX =    0.0                 !
 ! D44   D(5,13,15,17)         148.646          -DE/DX =    0.0                 !
 ! D45   D(5,13,15,19)         -91.2107         -DE/DX =    0.0                 !
 ! D46   D(14,13,15,16)       -152.6753         -DE/DX =    0.0                 !
 ! D47   D(14,13,15,17)        -34.9495         -DE/DX =    0.0                 !
 ! D48   D(14,13,15,19)         85.1938         -DE/DX =    0.0                 !
 ! D49   D(13,15,19,20)         54.8636         -DE/DX =    0.0                 !
 ! D50   D(13,15,19,21)       -126.2984         -DE/DX =    0.0                 !
 ! D51   D(16,15,19,20)        -67.4839         -DE/DX =    0.0                 !
 ! D52   D(16,15,19,21)        111.3541         -DE/DX =    0.0                 !
 ! D53   D(17,15,19,20)        175.6161         -DE/DX =    0.0                 !
 ! D54   D(17,15,19,21)         -5.5459         -DE/DX =    0.0                 !
 ! D55   D(15,19,20,18)          2.8521         -DE/DX =    0.0                 !
 ! D56   D(21,19,20,18)       -175.9786         -DE/DX =    0.0                 !
 --------------------------------------------------------------------------------
 Lowest energy point so far.  Saving SCF results.
 Largest change from initial coordinates is atom   21       0.000 Angstoms.
 GradGradGradGradGradGradGradGradGradGradGradGradGradGradGradGradGradGrad

 Leave Link  103 at Tue Dec 30 12:41:40 2025, MaxMem= 29527900160 cpu:              10.2 elap:               0.2
 (Enter /usr/local/src/g16/l202.exe)
                          Input orientation:                          
 ---------------------------------------------------------------------
 Center     Atomic      Atomic             Coordinates (Angstroms)
 Number     Number       Type             X           Y           Z
 ---------------------------------------------------------------------
      1          6           0       -3.815885   -0.004794   -0.200222
      2          6           0       -2.396722    0.634765   -0.157793
      3          6           0       -1.238127   -0.394331    0.022320
      4          6           0        0.102870    0.269483    0.453436
      5         16           0        1.591588   -0.825324    0.173733
      6          8           0        1.331187   -2.033836    0.882939
      7          8           0        1.862480   -0.760460   -1.236344
      8          9           0       -2.374321    1.507961    0.860384
      9          9           0       -2.210388    1.295077   -1.304945
     10          9           0       -4.159994   -0.466011    0.992446
     11          9           0       -3.850980   -0.997090   -1.080204
     12          9           0       -4.688655    0.925039   -0.565010
     13          7           0        2.767114   -0.025071    0.928125
     14          1           0        2.957196   -0.328983    1.868323
     15          6           0        3.580576    1.018207    0.319052
     16          1           0        2.989433    1.542885   -0.430548
     17          1           0        3.862323    1.732599    1.086361
     18          1           0        3.801631   -0.670569   -1.405832
     19          6           0        4.868867    0.507570   -0.334705
     20          8           0        4.732399   -0.452955   -1.247768
     21          8           0        5.935952    0.966139   -0.051648
     22          9           0        0.061810    0.554766    1.756652
     23          9           0       -1.582298   -1.284676    0.958541
     24          9           0       -1.051782   -1.029578   -1.139865
     25          9           0        0.306451    1.402095   -0.231873
 ---------------------------------------------------------------------
                    Distance matrix (angstroms):
                    1          2          3          4          5
     1  C    0.000000
     2  C    1.557196   0.000000
     3  C    2.616505   1.560071   0.000000
     4  C    3.982353   2.599037   1.557171   0.000000
     5  S    5.482142   4.260092   2.866351   1.868988   0.000000
     6  O    5.637606   4.701262   3.167020   2.645470   1.425231
     7  O    5.821375   4.609851   3.366311   2.648087   1.437326
     8  F    2.343378   1.341513   2.368967   2.799269   4.652327
     9  F    2.342584   1.336671   2.358182   3.081381   4.597566
    10  F    1.324232   2.375686   3.079544   4.359300   5.820661
    11  F    1.326745   2.372480   2.899289   4.425968   5.587791
    12  F    1.326419   2.345856   3.740566   4.942236   6.561323
    13  N    6.679031   5.317876   4.122959   2.722184   1.609774
    14  H    7.089330   5.805032   4.583965   3.241488   2.232235
    15  C    7.484906   6.008536   5.030230   3.559928   2.715842
    16  H    6.982887   5.468980   4.672276   3.276466   2.815589
    17  H    7.976761   6.475245   5.627664   4.083478   3.540070
    18  H    7.741014   6.456088   5.245482   4.245163   2.720894
    19  C    8.700892   7.268855   6.183548   4.836588   3.574307
    20  O    8.623883   7.293528   6.104403   4.984832   3.467567
    21  O    9.801179   8.339936   7.302312   5.896209   4.704640
    22  F    4.379381   3.117030   2.366121   1.334708   2.598173
    23  F    2.823073   2.365109   1.337041   2.347410   3.301588
    24  F    3.094087   2.354436   1.337512   2.357836   2.958828
    25  F    4.355915   2.810948   2.382747   1.339367   2.603361
                    6          7          8          9         10
     6  O    0.000000
     7  O    2.528857   0.000000
     8  F    5.125975   5.243328   0.000000
     9  F    5.330221   4.562696   2.181936   0.000000
    10  F    5.711667   6.428406   2.665077   3.490043   0.000000
    11  F    5.637697   5.720489   3.495953   2.827734   2.161808
    12  F    6.862215   6.797718   2.779872   2.612707   2.154106
    13  N    2.469629   2.458472   5.365550   5.612924   6.941426
    14  H    2.553705   3.320171   5.728471   6.277828   7.172191
    15  C    3.833104   2.921432   5.999475   6.020738   7.910296
    16  H    4.155474   2.687885   5.517027   5.278647   7.561407
    17  H    4.542473   3.950908   6.244778   6.541222   8.318670
    18  H    3.633189   1.948618   6.929943   6.326003   8.317515
    19  C    4.522895   3.385146   7.408967   7.188698   9.177664
    20  O    4.313623   2.886369   7.667788   7.159691   9.170244
    21  O    5.574690   4.580155   8.377709   8.248746  10.250332
    22  F    3.012566   3.732326   2.765251   3.883854   4.410173
    23  F    3.009211   4.118109   2.904437   3.488981   2.704788
    24  F    3.283110   2.928251   3.491305   2.602622   3.811212
    25  F    3.754798   2.847250   2.896683   2.738141   4.993787
                   11         12         13         14         15
    11  F    0.000000
    12  F    2.159098   0.000000
    13  N    6.984080   7.662940   0.000000
    14  H    7.449258   8.121128   1.006214   0.000000
    15  C    7.826070   8.316876   1.456406   2.145638   0.000000
    16  H    7.325625   7.704080   2.086601   2.964749   1.089329
    17  H    8.464056   8.746337   2.076999   2.383451   1.085588
    18  H    7.666492   8.679741   2.633296   3.398506   2.424057
    19  C    8.880062   9.569407   2.509146   3.034409   1.532267
    20  O    8.602241   9.545747   2.963096   3.588417   2.438430
    21  O   10.034751  10.637082   3.461790   3.773144   2.384937
    22  F    5.076016   5.300390   2.888137   3.029314   3.829254
    23  F    3.063675   4.105302   4.528235   4.727373   5.689243
    24  F    2.800022   4.168673   4.457531   5.060823   5.270731
    25  F    4.874422   5.028881   3.072012   3.799198   3.342272
                   16         17         18         19         20
    16  H    0.000000
    17  H    1.760381   0.000000
    18  H    2.551514   3.462647   0.000000
    19  C    2.147868   2.129144   1.916851   0.000000
    20  O    2.772933   3.313885   0.968849   1.332260   0.000000
    21  O    3.026248   2.486456   3.011304   1.195440   2.212029
    22  F    3.785657   4.034908   5.048664   5.242499   5.644151
    23  F    5.552062   6.226089   5.912197   6.819249   6.740546
    24  F    4.842738   6.060869   4.873935   6.169699   5.813853
    25  F    2.694009   3.806731   4.229704   4.650418   4.905331
                   21         22         23         24         25
    21  O    0.000000
    22  F    6.159929   0.000000
    23  F    7.912694   2.592994   0.000000
    24  F    7.348165   3.484257   2.179410   0.000000
    25  F    5.649232   2.175327   3.493307   2.929553   0.000000
 Stoichiometry    C6H4F9NO4S
 Framework group  C1[X(C6H4F9NO4S)]
 Deg. of freedom    69
 Full point group                 C1      NOp   1
 RotChk:  IX=0 Diff= 8.83D-16
 Largest Abelian subgroup         C1      NOp   1
 Largest concise Abelian subgroup C1      NOp   1
                         Standard orientation:                         
 ---------------------------------------------------------------------
 Center     Atomic      Atomic             Coordinates (Angstroms)
 Number     Number       Type             X           Y           Z
 ---------------------------------------------------------------------
      1          6           0        3.815885    0.004794   -0.200222
      2          6           0        2.396722   -0.634765   -0.157793
      3          6           0        1.238127    0.394331    0.022320
      4          6           0       -0.102870   -0.269483    0.453436
      5         16           0       -1.591588    0.825324    0.173733
      6          8           0       -1.331187    2.033836    0.882939
      7          8           0       -1.862480    0.760460   -1.236344
      8          9           0        2.374321   -1.507961    0.860384
      9          9           0        2.210388   -1.295077   -1.304945
     10          9           0        4.159994    0.466011    0.992446
     11          9           0        3.850980    0.997090   -1.080204
     12          9           0        4.688655   -0.925039   -0.565010
     13          7           0       -2.767114    0.025071    0.928125
     14          1           0       -2.957196    0.328983    1.868323
     15          6           0       -3.580576   -1.018207    0.319052
     16          1           0       -2.989433   -1.542885   -0.430548
     17          1           0       -3.862323   -1.732599    1.086361
     18          1           0       -3.801631    0.670569   -1.405832
     19          6           0       -4.868867   -0.507570   -0.334705
     20          8           0       -4.732399    0.452955   -1.247768
     21          8           0       -5.935952   -0.966139   -0.051648
     22          9           0       -0.061810   -0.554766    1.756652
     23          9           0        1.582298    1.284676    0.958541
     24          9           0        1.051782    1.029578   -1.139865
     25          9           0       -0.306451   -1.402095   -0.231873
 ---------------------------------------------------------------------
 Rotational constants (GHZ):           0.7943177           0.1435744           0.1407435
 Leave Link  202 at Tue Dec 30 12:41:41 2025, MaxMem= 29527900160 cpu:               5.4 elap:               0.1
 (Enter /usr/local/src/g16/l9999.exe)
 1\1\GINC-PURPLE\FOpt\RwB97XD\6-311+G(2d,2p)\C6H4F9N1O4S1\RAPPE\30-Dec-
 2025\0\\#p opt wb97xd/6-311+g(2d,2p) freq\\Title Card Required\\0,1\C,
 -3.815885,-0.004794,-0.200222\C,-2.396722,0.634765,-0.157793\C,-1.2381
 27,-0.394331,0.02232\C,0.10287,0.269483,0.453436\S,1.591588,-0.825324,
 0.173733\O,1.331187,-2.033836,0.882939\O,1.86248,-0.76046,-1.236344\F,
 -2.374321,1.507961,0.860384\F,-2.210388,1.295077,-1.304945\F,-4.159994
 ,-0.466011,0.992446\F,-3.85098,-0.99709,-1.080204\F,-4.688655,0.925039
 ,-0.56501\N,2.767114,-0.025071,0.928125\H,2.957196,-0.328983,1.868323\
 C,3.580576,1.018207,0.319052\H,2.989433,1.542885,-0.430548\H,3.862323,
 1.732599,1.086361\H,3.801631,-0.670569,-1.405832\C,4.868867,0.50757,-0
 .334705\O,4.732399,-0.452955,-1.247768\O,5.935952,0.966139,-0.051648\F
 ,0.06181,0.554766,1.756652\F,-1.582298,-1.284676,0.958541\F,-1.051782,
 -1.029578,-1.139865\F,0.306451,1.402095,-0.231873\\Version=ES64L-G16Re
 vA.03\State=1-A\HF=-1883.4894296\RMSD=2.051e-09\RMSF=8.344e-06\Dipole=
 -0.9722236,0.6540595,0.7932111\Quadrupole=-14.6544164,5.4011068,9.2533
 097,0.418865,6.4245431,0.3508377\PG=C01 [X(C6H4F9N1O4S1)]\\@


 POCKETA-POCKETA
 BARON VON RICHTOFEN
 SLAUGHTERED THE ALLIES WITH
 HARDLY A CARE.
 KILLED EIGHTY-ONE WITH HIS
 BLOOD-COLORED TRIPLANE, THEN
 UN-AEROBATICALLY
 PLUNGED FROM THE AIR.
   -- TONY HOFFMAN
 Leave Link 9999 at Tue Dec 30 12:41:41 2025, MaxMem= 29527900160 cpu:               5.2 elap:               0.1
 Job cpu time:       0 days  3 hours  8 minutes 58.0 seconds.
 Elapsed time:       0 days  0 hours  3 minutes 23.1 seconds.
 File lengths (MBytes):  RWF=    197 Int=      0 D2E=      0 Chk=     26 Scr=      1
 Normal termination of Gaussian 16 at Tue Dec 30 12:41:41 2025.
 (Enter /usr/local/src/g16/l1.exe)
 Link1:  Proceeding to internal job step number  2.
 ----------------------------------------------------------------------
 #P Geom=AllCheck Guess=TCheck SCRF=Check GenChk RwB97XD/6-311+G(2d,2p)
  Freq
 ----------------------------------------------------------------------
 1/10=4,29=7,30=1,38=1,40=1/1,3;
 2/12=2,40=1/2;
 3/5=4,6=6,7=212,11=2,14=-4,25=1,30=1,70=2,71=2,74=-58,116=1,140=1/1,2,3;
 4/5=101/1;
 5/5=2,38=6,98=1/2;
 8/6=4,10=90,11=11/1;
 11/6=1,8=1,9=11,15=111,16=1/1,2,10;
 10/6=1/2;
 6/7=2,8=2,9=2,10=2,28=1/1;
 7/8=1,10=1,25=1/1,2,3,16;
 1/10=4,30=1/3;
 99//99;
 Leave Link    1 at Tue Dec 30 12:41:41 2025, MaxMem= 29527900160 cpu:               3.1 elap:               0.1
 (Enter /usr/local/src/g16/l101.exe)
 Structure from the checkpoint file:  "nmefosaa.chk"
 -------------------
 Title Card Required
 -------------------
 Charge =  0 Multiplicity = 1
 Redundant internal coordinates found in file.  (old form).
 C,0,-3.815885,-0.004794,-0.200222
 C,0,-2.396722,0.634765,-0.157793
 C,0,-1.238127,-0.394331,0.02232
 C,0,0.10287,0.269483,0.453436
 S,0,1.591588,-0.825324,0.173733
 O,0,1.331187,-2.033836,0.882939
 O,0,1.86248,-0.76046,-1.236344
 F,0,-2.374321,1.507961,0.860384
 F,0,-2.210388,1.295077,-1.304945
 F,0,-4.159994,-0.466011,0.992446
 F,0,-3.85098,-0.99709,-1.080204
 F,0,-4.688655,0.925039,-0.56501
 N,0,2.767114,-0.025071,0.928125
 H,0,2.957196,-0.328983,1.868323
 C,0,3.580576,1.018207,0.319052
 H,0,2.989433,1.542885,-0.430548
 H,0,3.862323,1.732599,1.086361
 H,0,3.801631,-0.670569,-1.405832
 C,0,4.868867,0.50757,-0.334705
 O,0,4.732399,-0.452955,-1.247768
 O,0,5.935952,0.966139,-0.051648
 F,0,0.06181,0.554766,1.756652
 F,0,-1.582298,-1.284676,0.958541
 F,0,-1.051782,-1.029578,-1.139865
 F,0,0.306451,1.402095,-0.231873
 Recover connectivity data from disk.
 ITRead=  0  0  0  0  0  0  0  0  0  0  0  0  0  0  0  0  0  0  0  0
 ITRead=  0  0  0  0  0
 MicOpt= -1 -1 -1 -1 -1 -1 -1 -1 -1 -1 -1 -1 -1 -1 -1 -1 -1 -1 -1 -1
 MicOpt= -1 -1 -1 -1 -1
 NAtoms=     25 NQM=       25 NQMF=       0 NMMI=      0 NMMIF=      0
                NMic=       0 NMicF=      0.
                    Isotopes and Nuclear Properties:
 (Nuclear quadrupole moments (NQMom) in fm**2, nuclear magnetic moments (NMagM)
  in nuclear magnetons)

  Atom         1           2           3           4           5           6           7           8           9          10
 IAtWgt=          12          12          12          12          32          16          16          19          19          19
 AtmWgt=  12.0000000  12.0000000  12.0000000  12.0000000  31.9720718  15.9949146  15.9949146  18.9984033  18.9984033  18.9984033
 NucSpn=           0           0           0           0           0           0           0           1           1           1
 AtZEff=   3.6000000   3.6000000   3.6000000   3.6000000  13.6000000   5.6000000   5.6000000   6.7500000   6.7500000   6.7500000
 NQMom=    0.0000000   0.0000000   0.0000000   0.0000000   0.0000000   0.0000000   0.0000000   0.0000000   0.0000000   0.0000000
 NMagM=    0.0000000   0.0000000   0.0000000   0.0000000   0.0000000   0.0000000   0.0000000   2.6288670   2.6288670   2.6288670
 AtZNuc=   6.0000000   6.0000000   6.0000000   6.0000000  16.0000000   8.0000000   8.0000000   9.0000000   9.0000000   9.0000000

  Atom        11          12          13          14          15          16          17          18          19          20
 IAtWgt=          19          19          14           1          12           1           1           1          12          16
 AtmWgt=  18.9984033  18.9984033  14.0030740   1.0078250  12.0000000   1.0078250   1.0078250   1.0078250  12.0000000  15.9949146
 NucSpn=           1           1           2           1           0           1           1           1           0           0
 AtZEff=   6.7500000   6.7500000   4.5500000   1.0000000   3.6000000   1.0000000   1.0000000   1.0000000   3.6000000   5.6000000
 NQMom=    0.0000000   0.0000000   2.0440000   0.0000000   0.0000000   0.0000000   0.0000000   0.0000000   0.0000000   0.0000000
 NMagM=    2.6288670   2.6288670   0.4037610   2.7928460   0.0000000   2.7928460   2.7928460   2.7928460   0.0000000   0.0000000
 AtZNuc=   9.0000000   9.0000000   7.0000000   1.0000000   6.0000000   1.0000000   1.0000000   1.0000000   6.0000000   8.0000000

  Atom        21          22          23          24          25
 IAtWgt=          16          19          19          19          19
 AtmWgt=  15.9949146  18.9984033  18.9984033  18.9984033  18.9984033
 NucSpn=           0           1           1           1           1
 AtZEff=   5.6000000   6.7500000   6.7500000   6.7500000   6.7500000
 NQMom=    0.0000000   0.0000000   0.0000000   0.0000000   0.0000000
 NMagM=    0.0000000   2.6288670   2.6288670   2.6288670   2.6288670
 AtZNuc=   8.0000000   9.0000000   9.0000000   9.0000000   9.0000000
 Leave Link  101 at Tue Dec 30 12:41:41 2025, MaxMem= 29527900160 cpu:              21.2 elap:               0.4
 (Enter /usr/local/src/g16/l103.exe)

 GradGradGradGradGradGradGradGradGradGradGradGradGradGradGradGradGradGrad
 Berny optimization.
 Initialization pass.
                           ----------------------------
                           !    Initial Parameters    !
                           ! (Angstroms and Degrees)  !
 --------------------------                            --------------------------
 ! Name  Definition              Value          Derivative Info.                !
 --------------------------------------------------------------------------------
 ! R1    R(1,2)                  1.5572         calculate D2E/DX2 analytically  !
 ! R2    R(1,10)                 1.3242         calculate D2E/DX2 analytically  !
 ! R3    R(1,11)                 1.3267         calculate D2E/DX2 analytically  !
 ! R4    R(1,12)                 1.3264         calculate D2E/DX2 analytically  !
 ! R5    R(2,3)                  1.5601         calculate D2E/DX2 analytically  !
 ! R6    R(2,8)                  1.3415         calculate D2E/DX2 analytically  !
 ! R7    R(2,9)                  1.3367         calculate D2E/DX2 analytically  !
 ! R8    R(3,4)                  1.5572         calculate D2E/DX2 analytically  !
 ! R9    R(3,23)                 1.337          calculate D2E/DX2 analytically  !
 ! R10   R(3,24)                 1.3375         calculate D2E/DX2 analytically  !
 ! R11   R(4,5)                  1.869          calculate D2E/DX2 analytically  !
 ! R12   R(4,22)                 1.3347         calculate D2E/DX2 analytically  !
 ! R13   R(4,25)                 1.3394         calculate D2E/DX2 analytically  !
 ! R14   R(5,6)                  1.4252         calculate D2E/DX2 analytically  !
 ! R15   R(5,7)                  1.4373         calculate D2E/DX2 analytically  !
 ! R16   R(5,13)                 1.6098         calculate D2E/DX2 analytically  !
 ! R17   R(13,14)                1.0062         calculate D2E/DX2 analytically  !
 ! R18   R(13,15)                1.4564         calculate D2E/DX2 analytically  !
 ! R19   R(15,16)                1.0893         calculate D2E/DX2 analytically  !
 ! R20   R(15,17)                1.0856         calculate D2E/DX2 analytically  !
 ! R21   R(15,19)                1.5323         calculate D2E/DX2 analytically  !
 ! R22   R(18,20)                0.9688         calculate D2E/DX2 analytically  !
 ! R23   R(19,20)                1.3323         calculate D2E/DX2 analytically  !
 ! R24   R(19,21)                1.1954         calculate D2E/DX2 analytically  !
 ! A1    A(2,1,10)             110.8136         calculate D2E/DX2 analytically  !
 ! A2    A(2,1,11)             110.4481         calculate D2E/DX2 analytically  !
 ! A3    A(2,1,12)             108.6172         calculate D2E/DX2 analytically  !
 ! A4    A(10,1,11)            109.2689         calculate D2E/DX2 analytically  !
 ! A5    A(10,1,12)            108.7153         calculate D2E/DX2 analytically  !
 ! A6    A(11,1,12)            108.9343         calculate D2E/DX2 analytically  !
 ! A7    A(1,2,3)              114.1449         calculate D2E/DX2 analytically  !
 ! A8    A(1,2,8)              107.6518         calculate D2E/DX2 analytically  !
 ! A9    A(1,2,9)              107.8515         calculate D2E/DX2 analytically  !
 ! A10   A(3,2,8)              109.2287         calculate D2E/DX2 analytically  !
 ! A11   A(3,2,9)              108.7488         calculate D2E/DX2 analytically  !
 ! A12   A(8,2,9)              109.1167         calculate D2E/DX2 analytically  !
 ! A13   A(2,3,4)              112.9742         calculate D2E/DX2 analytically  !
 ! A14   A(2,3,23)             109.2042         calculate D2E/DX2 analytically  !
 ! A15   A(2,3,24)             108.4482         calculate D2E/DX2 analytically  !
 ! A16   A(4,3,23)             108.161          calculate D2E/DX2 analytically  !
 ! A17   A(4,3,24)             108.8477         calculate D2E/DX2 analytically  !
 ! A18   A(23,3,24)            109.1489         calculate D2E/DX2 analytically  !
 ! A19   A(3,4,5)              113.2542         calculate D2E/DX2 analytically  !
 ! A20   A(3,4,22)             109.5695         calculate D2E/DX2 analytically  !
 ! A21   A(3,4,25)             110.4706         calculate D2E/DX2 analytically  !
 ! A22   A(5,4,22)             107.2075         calculate D2E/DX2 analytically  !
 ! A23   A(5,4,25)             107.3198         calculate D2E/DX2 analytically  !
 ! A24   A(22,4,25)            108.8761         calculate D2E/DX2 analytically  !
 ! A25   A(4,5,6)              106.0633         calculate D2E/DX2 analytically  !
 ! A26   A(4,5,7)              105.6943         calculate D2E/DX2 analytically  !
 ! A27   A(4,5,13)             102.7285         calculate D2E/DX2 analytically  !
 ! A28   A(6,5,7)              124.1163         calculate D2E/DX2 analytically  !
 ! A29   A(6,5,13)             108.7691         calculate D2E/DX2 analytically  !
 ! A30   A(7,5,13)             107.4387         calculate D2E/DX2 analytically  !
 ! A31   A(5,13,14)            115.1941         calculate D2E/DX2 analytically  !
 ! A32   A(5,13,15)            124.6104         calculate D2E/DX2 analytically  !
 ! A33   A(14,13,15)           120.1067         calculate D2E/DX2 analytically  !
 ! A34   A(13,15,16)           109.2507         calculate D2E/DX2 analytically  !
 ! A35   A(13,15,17)           108.7094         calculate D2E/DX2 analytically  !
 ! A36   A(13,15,19)           114.1617         calculate D2E/DX2 analytically  !
 ! A37   A(16,15,17)           108.0749         calculate D2E/DX2 analytically  !
 ! A38   A(16,15,19)           108.8551         calculate D2E/DX2 analytically  !
 ! A39   A(17,15,19)           107.6178         calculate D2E/DX2 analytically  !
 ! A40   A(15,19,20)           116.523          calculate D2E/DX2 analytically  !
 ! A41   A(15,19,21)           121.4422         calculate D2E/DX2 analytically  !
 ! A42   A(20,19,21)           122.0242         calculate D2E/DX2 analytically  !
 ! A43   A(18,20,19)           111.8488         calculate D2E/DX2 analytically  !
 ! D1    D(10,1,2,3)            70.4025         calculate D2E/DX2 analytically  !
 ! D2    D(10,1,2,8)           -51.0231         calculate D2E/DX2 analytically  !
 ! D3    D(10,1,2,9)          -168.6389         calculate D2E/DX2 analytically  !
 ! D4    D(11,1,2,3)           -50.8302         calculate D2E/DX2 analytically  !
 ! D5    D(11,1,2,8)          -172.2559         calculate D2E/DX2 analytically  !
 ! D6    D(11,1,2,9)            70.1283         calculate D2E/DX2 analytically  !
 ! D7    D(12,1,2,3)          -170.2385         calculate D2E/DX2 analytically  !
 ! D8    D(12,1,2,8)            68.3358         calculate D2E/DX2 analytically  !
 ! D9    D(12,1,2,9)           -49.28           calculate D2E/DX2 analytically  !
 ! D10   D(1,2,3,4)           -164.0547         calculate D2E/DX2 analytically  !
 ! D11   D(1,2,3,23)           -43.6464         calculate D2E/DX2 analytically  !
 ! D12   D(1,2,3,24)            75.1937         calculate D2E/DX2 analytically  !
 ! D13   D(8,2,3,4)            -43.5046         calculate D2E/DX2 analytically  !
 ! D14   D(8,2,3,23)            76.9037         calculate D2E/DX2 analytically  !
 ! D15   D(8,2,3,24)          -164.2562         calculate D2E/DX2 analytically  !
 ! D16   D(9,2,3,4)             75.4864         calculate D2E/DX2 analytically  !
 ! D17   D(9,2,3,23)          -164.1053         calculate D2E/DX2 analytically  !
 ! D18   D(9,2,3,24)           -45.2652         calculate D2E/DX2 analytically  !
 ! D19   D(2,3,4,5)           -162.4643         calculate D2E/DX2 analytically  !
 ! D20   D(2,3,4,22)            77.8996         calculate D2E/DX2 analytically  !
 ! D21   D(2,3,4,25)           -42.0476         calculate D2E/DX2 analytically  !
 ! D22   D(23,3,4,5)            76.5335         calculate D2E/DX2 analytically  !
 ! D23   D(23,3,4,22)          -43.1026         calculate D2E/DX2 analytically  !
 ! D24   D(23,3,4,25)         -163.0499         calculate D2E/DX2 analytically  !
 ! D25   D(24,3,4,5)           -41.9403         calculate D2E/DX2 analytically  !
 ! D26   D(24,3,4,22)         -161.5764         calculate D2E/DX2 analytically  !
 ! D27   D(24,3,4,25)           78.4764         calculate D2E/DX2 analytically  !
 ! D28   D(3,4,5,6)            -56.2667         calculate D2E/DX2 analytically  !
 ! D29   D(3,4,5,7)             77.14           calculate D2E/DX2 analytically  !
 ! D30   D(3,4,5,13)          -170.3651         calculate D2E/DX2 analytically  !
 ! D31   D(22,4,5,6)            64.7129         calculate D2E/DX2 analytically  !
 ! D32   D(22,4,5,7)          -161.8805         calculate D2E/DX2 analytically  !
 ! D33   D(22,4,5,13)          -49.3855         calculate D2E/DX2 analytically  !
 ! D34   D(25,4,5,6)          -178.4571         calculate D2E/DX2 analytically  !
 ! D35   D(25,4,5,7)           -45.0505         calculate D2E/DX2 analytically  !
 ! D36   D(25,4,5,13)           67.4445         calculate D2E/DX2 analytically  !
 ! D37   D(4,5,13,14)           96.0985         calculate D2E/DX2 analytically  !
 ! D38   D(4,5,13,15)          -87.3388         calculate D2E/DX2 analytically  !
 ! D39   D(6,5,13,14)          -16.0102         calculate D2E/DX2 analytically  !
 ! D40   D(6,5,13,15)          160.5526         calculate D2E/DX2 analytically  !
 ! D41   D(7,5,13,14)         -152.7009         calculate D2E/DX2 analytically  !
 ! D42   D(7,5,13,15)           23.8619         calculate D2E/DX2 analytically  !
 ! D43   D(5,13,15,16)          30.9202         calculate D2E/DX2 analytically  !
 ! D44   D(5,13,15,17)         148.646          calculate D2E/DX2 analytically  !
 ! D45   D(5,13,15,19)         -91.2107         calculate D2E/DX2 analytically  !
 ! D46   D(14,13,15,16)       -152.6753         calculate D2E/DX2 analytically  !
 ! D47   D(14,13,15,17)        -34.9495         calculate D2E/DX2 analytically  !
 ! D48   D(14,13,15,19)         85.1938         calculate D2E/DX2 analytically  !
 ! D49   D(13,15,19,20)         54.8636         calculate D2E/DX2 analytically  !
 ! D50   D(13,15,19,21)       -126.2984         calculate D2E/DX2 analytically  !
 ! D51   D(16,15,19,20)        -67.4839         calculate D2E/DX2 analytically  !
 ! D52   D(16,15,19,21)        111.3541         calculate D2E/DX2 analytically  !
 ! D53   D(17,15,19,20)        175.6161         calculate D2E/DX2 analytically  !
 ! D54   D(17,15,19,21)         -5.5459         calculate D2E/DX2 analytically  !
 ! D55   D(15,19,20,18)          2.8521         calculate D2E/DX2 analytically  !
 ! D56   D(21,19,20,18)       -175.9786         calculate D2E/DX2 analytically  !
 --------------------------------------------------------------------------------
 Trust Radius=3.00D-01 FncErr=1.00D-07 GrdErr=1.00D-07 EigMax=2.50D+02 EigMin=1.00D-04
 Number of steps in this run=      2 maximum allowed number of steps=      2.
 GradGradGradGradGradGradGradGradGradGradGradGradGradGradGradGradGradGrad

 Leave Link  103 at Tue Dec 30 12:41:41 2025, MaxMem= 29527900160 cpu:               2.5 elap:               0.1
 (Enter /usr/local/src/g16/l202.exe)
                          Input orientation:                          
 ---------------------------------------------------------------------
 Center     Atomic      Atomic             Coordinates (Angstroms)
 Number     Number       Type             X           Y           Z
 ---------------------------------------------------------------------
      1          6           0       -3.815885   -0.004794   -0.200222
      2          6           0       -2.396722    0.634765   -0.157793
      3          6           0       -1.238127   -0.394331    0.022320
      4          6           0        0.102870    0.269483    0.453436
      5         16           0        1.591588   -0.825324    0.173733
      6          8           0        1.331187   -2.033836    0.882939
      7          8           0        1.862480   -0.760460   -1.236344
      8          9           0       -2.374321    1.507961    0.860384
      9          9           0       -2.210388    1.295077   -1.304945
     10          9           0       -4.159994   -0.466011    0.992446
     11          9           0       -3.850980   -0.997090   -1.080204
     12          9           0       -4.688655    0.925039   -0.565010
     13          7           0        2.767114   -0.025071    0.928125
     14          1           0        2.957196   -0.328983    1.868323
     15          6           0        3.580576    1.018207    0.319052
     16          1           0        2.989433    1.542885   -0.430548
     17          1           0        3.862323    1.732599    1.086361
     18          1           0        3.801631   -0.670569   -1.405832
     19          6           0        4.868867    0.507570   -0.334705
     20          8           0        4.732399   -0.452955   -1.247768
     21          8           0        5.935952    0.966139   -0.051648
     22          9           0        0.061810    0.554766    1.756652
     23          9           0       -1.582298   -1.284676    0.958541
     24          9           0       -1.051782   -1.029578   -1.139865
     25          9           0        0.306451    1.402095   -0.231873
 ---------------------------------------------------------------------
                    Distance matrix (angstroms):
                    1          2          3          4          5
     1  C    0.000000
     2  C    1.557196   0.000000
     3  C    2.616505   1.560071   0.000000
     4  C    3.982353   2.599037   1.557171   0.000000
     5  S    5.482142   4.260092   2.866351   1.868988   0.000000
     6  O    5.637606   4.701262   3.167020   2.645470   1.425231
     7  O    5.821375   4.609851   3.366311   2.648087   1.437326
     8  F    2.343378   1.341513   2.368967   2.799269   4.652327
     9  F    2.342584   1.336671   2.358182   3.081381   4.597566
    10  F    1.324232   2.375686   3.079544   4.359300   5.820661
    11  F    1.326745   2.372480   2.899289   4.425968   5.587791
    12  F    1.326419   2.345856   3.740566   4.942236   6.561323
    13  N    6.679031   5.317876   4.122959   2.722184   1.609774
    14  H    7.089330   5.805032   4.583965   3.241488   2.232235
    15  C    7.484906   6.008536   5.030230   3.559928   2.715842
    16  H    6.982887   5.468980   4.672276   3.276466   2.815589
    17  H    7.976761   6.475245   5.627664   4.083478   3.540070
    18  H    7.741014   6.456088   5.245482   4.245163   2.720894
    19  C    8.700892   7.268855   6.183548   4.836588   3.574307
    20  O    8.623883   7.293528   6.104403   4.984832   3.467567
    21  O    9.801179   8.339936   7.302312   5.896209   4.704640
    22  F    4.379381   3.117030   2.366121   1.334708   2.598173
    23  F    2.823073   2.365109   1.337041   2.347410   3.301588
    24  F    3.094087   2.354436   1.337512   2.357836   2.958828
    25  F    4.355915   2.810948   2.382747   1.339367   2.603361
                    6          7          8          9         10
     6  O    0.000000
     7  O    2.528857   0.000000
     8  F    5.125975   5.243328   0.000000
     9  F    5.330221   4.562696   2.181936   0.000000
    10  F    5.711667   6.428406   2.665077   3.490043   0.000000
    11  F    5.637697   5.720489   3.495953   2.827734   2.161808
    12  F    6.862215   6.797718   2.779872   2.612707   2.154106
    13  N    2.469629   2.458472   5.365550   5.612924   6.941426
    14  H    2.553705   3.320171   5.728471   6.277828   7.172191
    15  C    3.833104   2.921432   5.999475   6.020738   7.910296
    16  H    4.155474   2.687885   5.517027   5.278647   7.561407
    17  H    4.542473   3.950908   6.244778   6.541222   8.318670
    18  H    3.633189   1.948618   6.929943   6.326003   8.317515
    19  C    4.522895   3.385146   7.408967   7.188698   9.177664
    20  O    4.313623   2.886369   7.667788   7.159691   9.170244
    21  O    5.574690   4.580155   8.377709   8.248746  10.250332
    22  F    3.012566   3.732326   2.765251   3.883854   4.410173
    23  F    3.009211   4.118109   2.904437   3.488981   2.704788
    24  F    3.283110   2.928251   3.491305   2.602622   3.811212
    25  F    3.754798   2.847250   2.896683   2.738141   4.993787
                   11         12         13         14         15
    11  F    0.000000
    12  F    2.159098   0.000000
    13  N    6.984080   7.662940   0.000000
    14  H    7.449258   8.121128   1.006214   0.000000
    15  C    7.826070   8.316876   1.456406   2.145638   0.000000
    16  H    7.325625   7.704080   2.086601   2.964749   1.089329
    17  H    8.464056   8.746337   2.076999   2.383451   1.085588
    18  H    7.666492   8.679741   2.633296   3.398506   2.424057
    19  C    8.880062   9.569407   2.509146   3.034409   1.532267
    20  O    8.602241   9.545747   2.963096   3.588417   2.438430
    21  O   10.034751  10.637082   3.461790   3.773144   2.384937
    22  F    5.076016   5.300390   2.888137   3.029314   3.829254
    23  F    3.063675   4.105302   4.528235   4.727373   5.689243
    24  F    2.800022   4.168673   4.457531   5.060823   5.270731
    25  F    4.874422   5.028881   3.072012   3.799198   3.342272
                   16         17         18         19         20
    16  H    0.000000
    17  H    1.760381   0.000000
    18  H    2.551514   3.462647   0.000000
    19  C    2.147868   2.129144   1.916851   0.000000
    20  O    2.772933   3.313885   0.968849   1.332260   0.000000
    21  O    3.026248   2.486456   3.011304   1.195440   2.212029
    22  F    3.785657   4.034908   5.048664   5.242499   5.644151
    23  F    5.552062   6.226089   5.912197   6.819249   6.740546
    24  F    4.842738   6.060869   4.873935   6.169699   5.813853
    25  F    2.694009   3.806731   4.229704   4.650418   4.905331
                   21         22         23         24         25
    21  O    0.000000
    22  F    6.159929   0.000000
    23  F    7.912694   2.592994   0.000000
    24  F    7.348165   3.484257   2.179410   0.000000
    25  F    5.649232   2.175327   3.493307   2.929553   0.000000
 Stoichiometry    C6H4F9NO4S
 Framework group  C1[X(C6H4F9NO4S)]
 Deg. of freedom    69
 Full point group                 C1      NOp   1
 RotChk:  IX=0 Diff= 1.16D-15
 Largest Abelian subgroup         C1      NOp   1
 Largest concise Abelian subgroup C1      NOp   1
                         Standard orientation:                         
 ---------------------------------------------------------------------
 Center     Atomic      Atomic             Coordinates (Angstroms)
 Number     Number       Type             X           Y           Z
 ---------------------------------------------------------------------
      1          6           0        3.815885    0.004794   -0.200222
      2          6           0        2.396722   -0.634765   -0.157793
      3          6           0        1.238127    0.394331    0.022320
      4          6           0       -0.102870   -0.269483    0.453436
      5         16           0       -1.591588    0.825324    0.173733
      6          8           0       -1.331187    2.033836    0.882939
      7          8           0       -1.862480    0.760460   -1.236344
      8          9           0        2.374321   -1.507961    0.860384
      9          9           0        2.210388   -1.295077   -1.304945
     10          9           0        4.159994    0.466011    0.992446
     11          9           0        3.850980    0.997090   -1.080204
     12          9           0        4.688655   -0.925039   -0.565010
     13          7           0       -2.767114    0.025071    0.928125
     14          1           0       -2.957196    0.328983    1.868323
     15          6           0       -3.580576   -1.018207    0.319052
     16          1           0       -2.989433   -1.542885   -0.430548
     17          1           0       -3.862323   -1.732599    1.086361
     18          1           0       -3.801631    0.670569   -1.405832
     19          6           0       -4.868867   -0.507570   -0.334705
     20          8           0       -4.732399    0.452955   -1.247768
     21          8           0       -5.935952   -0.966139   -0.051648
     22          9           0       -0.061810   -0.554766    1.756652
     23          9           0        1.582298    1.284676    0.958541
     24          9           0        1.051782    1.029578   -1.139865
     25          9           0       -0.306451   -1.402095   -0.231873
 ---------------------------------------------------------------------
 Rotational constants (GHZ):           0.7943177           0.1435744           0.1407435
 Leave Link  202 at Tue Dec 30 12:41:41 2025, MaxMem= 29527900160 cpu:               3.6 elap:               0.1
 (Enter /usr/local/src/g16/l301.exe)
 Standard basis: 6-311+G(2d,2p) (5D, 7F)
 Ernie: Thresh=  0.10000D-02 Tol=  0.10000D-05 Strict=F.
 There are   653 symmetry adapted cartesian basis functions of A   symmetry.
 There are   611 symmetry adapted basis functions of A   symmetry.
   611 basis functions,   940 primitive gaussians,   653 cartesian basis functions
    88 alpha electrons       88 beta electrons
       nuclear repulsion energy      2335.1387364125 Hartrees.
 IExCor= 4639 DFT=T Ex+Corr=wB97XD ExCW=0 ScaHFX=  1.000000
 ScaDFX=  1.000000  1.000000  1.000000  1.000000 ScalE2=  1.000000  1.000000
 IRadAn=      5 IRanWt=     -1 IRanGd=            0 ICorTp=0 IEmpDi=121
 HFx  wShort=  0.000000 wLong=  0.200000 cFull=  0.222036 cShort=  0.000000 cLong=  0.777964
 DFx  wShort=  0.000000 wLong=  0.200000 cFull=  0.000000 cShort=  0.000000 cLong=  1.000000
 NAtoms=   25 NActive=   25 NUniq=   25 SFac= 1.00D+00 NAtFMM=   60 NAOKFM=F Big=F
 Integral buffers will be    131072 words long.
 Raffenetti 2 integral format.
 Two-electron integral symmetry is turned on.
 R6Disp:  Grimme-D2 Dispersion energy=       -0.0178788168 Hartrees.
 Nuclear repulsion after empirical dispersion term =     2335.1208575957 Hartrees.
 Leave Link  301 at Tue Dec 30 12:41:41 2025, MaxMem= 29527900160 cpu:               5.6 elap:               0.1
 (Enter /usr/local/src/g16/l302.exe)
 NPDir=0 NMtPBC=     1 NCelOv=     1 NCel=       1 NClECP=     1 NCelD=      1
         NCelK=      1 NCelE2=     1 NClLst=     1 CellRange=     0.0.
 One-electron integrals computed using PRISM.
 One-electron integral symmetry used in STVInt
 NBasis=   611 RedAO= T EigKep=  4.88D-06  NBF=   611
 NBsUse=   611 1.00D-06 EigRej= -1.00D+00 NBFU=   611
 Precomputing XC quadrature grid using
 IXCGrd= 4 IRadAn=           5 IRanWt=          -1 IRanGd=           0 AccXCQ= 0.00D+00.
 Generated NRdTot=       0 NPtTot=           0 NUsed=           0 NTot=          32
 NSgBfM=   635   635   635   635   635 MxSgAt=    25 MxSgA2=    25.
 Leave Link  302 at Tue Dec 30 12:41:43 2025, MaxMem= 29527900160 cpu:              63.6 elap:               1.2
 (Enter /usr/local/src/g16/l303.exe)
 DipDrv:  MaxL=1.
 Leave Link  303 at Tue Dec 30 12:41:43 2025, MaxMem= 29527900160 cpu:               7.7 elap:               0.2
 (Enter /usr/local/src/g16/l401.exe)
 Initial guess from the checkpoint file:  "nmefosaa.chk"
 B after Tr=    -0.000000   -0.000000    0.000000
         Rot=    1.000000    0.000000   -0.000000    0.000000 Ang=   0.00 deg.
 Guess basis will be translated and rotated to current coordinates.
 JPrj=2 DoOrth=T DoCkMO=T.
 Leave Link  401 at Tue Dec 30 12:41:44 2025, MaxMem= 29527900160 cpu:              83.0 elap:               1.5
 (Enter /usr/local/src/g16/l502.exe)
 Integral symmetry usage will be decided dynamically.
 Closed shell SCF:
 Using DIIS extrapolation, IDIIS=  1040.
 NGot= 29527900160 LenX= 29527005124 LenY= 29526578062
 Requested convergence on RMS density matrix=1.00D-08 within 128 cycles.
 Requested convergence on MAX density matrix=1.00D-06.
 Requested convergence on             energy=1.00D-06.
 No special actions if energy rises.
 Fock matrices will be formed incrementally for  20 cycles.

 Cycle   1  Pass 1  IDiag  1:
 FoFJK:  IHMeth= 1 ICntrl=       0 DoSepK=T KAlg= 0 I1Cent=           0 FoldK=F
 IRaf=         1 NMat=       1 IRICut=       1 DoRegI=T DoRafI=F ISym2E= 0 IDoP0=0 IntGTp=1.
 FoFCou: FMM=F IPFlag=           0 FMFlag=      100000 FMFlg1=           0
         NFxFlg=           0 DoJE=T BraDBF=F KetDBF=F FulRan=T
         wScrn=  0.000000 ICntrl=       500 IOpCl=  0 I1Cent=           0 NGrid=           0
         NMat0=    1 NMatS0=      1 NMatT0=    0 NMatD0=    1 NMtDS0=    0 NMtDT0=    0
 Symmetry not used in FoFCou.
 E= -1883.48942959933    
 DIIS: error= 2.90D-09 at cycle   1 NSaved=   1.
 NSaved= 1 IEnMin= 1 EnMin= -1883.48942959933     IErMin= 1 ErrMin= 2.90D-09
 ErrMax= 2.90D-09  0.00D+00 EMaxC= 1.00D-01 BMatC= 1.40D-14 BMatP= 1.40D-14
 IDIUse=1 WtCom= 1.00D+00 WtEn= 0.00D+00
 Coeff-Com:  0.100D+01
 Coeff:      0.100D+01
 Gap=     0.403 Goal=   None    Shift=    0.000
 RMSDP=9.50D-10 MaxDP=2.14D-07              OVMax= 1.04D-07

 SCF Done:  E(RwB97XD) =  -1883.48942960     A.U. after    1 cycles
            NFock=  1  Conv=0.95D-09     -V/T= 2.0024
 KE= 1.878942579798D+03 PE=-9.132362730644D+03 EE= 3.034809863651D+03
 Leave Link  502 at Tue Dec 30 12:41:55 2025, MaxMem= 29527900160 cpu:             614.7 elap:              11.0
 (Enter /usr/local/src/g16/l801.exe)
 DoSCS=F DFT=T ScalE2(SS,OS)=  1.000000  1.000000
 Range of M.O.s used for correlation:     1   611
 NBasis=   611 NAE=    88 NBE=    88 NFC=     0 NFV=     0
 NROrb=    611 NOA=    88 NOB=    88 NVA=   523 NVB=   523

 **** Warning!!: The largest alpha MO coefficient is  0.98232710D+02

 Leave Link  801 at Tue Dec 30 12:41:55 2025, MaxMem= 29527900160 cpu:               3.8 elap:               0.1
 (Enter /usr/local/src/g16/l1101.exe)
 Using compressed storage, NAtomX=    25.
 Will process     26 centers per pass.
 R6Disp: Adding Grimme-D2 dispersion energy 1st derivatives to the gradient.
 Leave Link 1101 at Tue Dec 30 12:41:57 2025, MaxMem= 29527900160 cpu:              82.7 elap:               1.5
 (Enter /usr/local/src/g16/l1102.exe)
 Symmetrizing basis deriv contribution to polar:
 IMax=3 JMax=2 DiffMx= 0.00D+00
 Leave Link 1102 at Tue Dec 30 12:41:57 2025, MaxMem= 29527900160 cpu:               8.7 elap:               0.2
 (Enter /usr/local/src/g16/l1110.exe)
 Forming Gx(P) for the SCF density, NAtomX=    25.
 Integral derivatives from FoFJK, PRISM(SPDF).
 Do as many integral derivatives as possible in FoFJK.
 G2DrvN: MDV=   29527898224.
 G2DrvN: will do    26 centers at a time, making    1 passes.
 Calling FoFCou, ICntrl=  3107 FMM=F I1Cent=   0 AccDes= 0.00D+00.
 FoFJK:  IHMeth= 1 ICntrl=    3107 DoSepK=T KAlg= 0 I1Cent=           0 FoldK=F
 IRaf=         1 NMat=       1 IRICut=       1 DoRegI=T DoRafI=F ISym2E= 0 IDoP0=0 IntGTp=1.
 FoFCou: FMM=F IPFlag=           0 FMFlag=      100000 FMFlg1=           0
         NFxFlg=           0 DoJE=F BraDBF=F KetDBF=F FulRan=T
         wScrn=  0.000000 ICntrl=      3507 IOpCl=  0 I1Cent=           0 NGrid=           0
         NMat0=    1 NMatS0=      1 NMatT0=    0 NMatD0=    1 NMtDS0=    0 NMtDT0=    0
 Symmetry not used in FoFCou.
 End of G2Drv F.D. properties file   721 does not exist.
 End of G2Drv F.D. properties file   722 does not exist.
 End of G2Drv F.D. properties file   788 does not exist.
 Leave Link 1110 at Tue Dec 30 12:44:50 2025, MaxMem= 29527900160 cpu:            9675.1 elap:             172.8
 (Enter /usr/local/src/g16/l1002.exe)
 Minotr:  Closed shell wavefunction.
          IDoAtm=1111111111111111111111111
          Direct CPHF calculation.
          Differentiating once with respect to electric field.
                with respect to dipole field.
          Differentiating once with respect to nuclear coordinates.
          Requested convergence is 1.0D-08 RMS, and 1.0D-07 maximum.
          Secondary convergence is 1.0D-12 RMS, and 1.0D-12 maximum.
          NewPWx=T KeepS1=F KeepF1=F KeepIn=T MapXYZ=F SortEE=F KeepMc=T.
         7766 words used for storage of precomputed grid.
 Two-electron integrals replicated using symmetry.
          MDV=   29527900160 using IRadAn=       1.
          Solving linear equations simultaneously, MaxMat=     336.
 FoF2E skips out because all densities are zero.
 CalDSu exits because no D1Ps are significant.
 FoFJK:  IHMeth= 1 ICntrl=       0 DoSepK=T KAlg= 0 I1Cent=           0 FoldK=F
 IRaf=         1 NMat=      75 IRICut=       1 DoRegI=T DoRafI=F ISym2E= 2 IDoP0=3 IntGTp=3.
 FoFCou: FMM=F IPFlag=           0 FMFlag=      100000 FMFlg1=           0
         NFxFlg=           0 DoJE=F BraDBF=F KetDBF=F FulRan=T
         wScrn=  0.000000 ICntrl=       500 IOpCl=  0 I1Cent=           0 NGrid=           0
         NMat0=   75 NMatS0=     75 NMatT0=    0 NMatD0=   75 NMtDS0=    0 NMtDT0=    0
 Integrals replicated using symmetry in FoFCou.
          There are    78 degrees of freedom in the 1st order CPHF.  IDoFFX=6 NUNeed=     3.
     75 vectors produced by pass  0 Test12= 5.90D-14 1.28D-09 XBig12= 4.34D+01 1.83D+00.
 AX will form    75 AO Fock derivatives at one time.
     75 vectors produced by pass  1 Test12= 5.90D-14 1.28D-09 XBig12= 8.64D+00 3.73D-01.
     75 vectors produced by pass  2 Test12= 5.90D-14 1.28D-09 XBig12= 2.47D-01 5.12D-02.
     75 vectors produced by pass  3 Test12= 5.90D-14 1.28D-09 XBig12= 6.31D-03 7.08D-03.
     75 vectors produced by pass  4 Test12= 5.90D-14 1.28D-09 XBig12= 8.10D-05 9.48D-04.
     75 vectors produced by pass  5 Test12= 5.90D-14 1.28D-09 XBig12= 6.45D-07 8.27D-05.
     75 vectors produced by pass  6 Test12= 5.90D-14 1.28D-09 XBig12= 4.83D-09 5.78D-06.
     40 vectors produced by pass  7 Test12= 5.90D-14 1.28D-09 XBig12= 3.15D-11 4.05D-07.
     11 vectors produced by pass  8 Test12= 5.90D-14 1.28D-09 XBig12= 1.91D-13 3.03D-08.
      3 vectors produced by pass  9 Test12= 5.90D-14 1.28D-09 XBig12= 3.71D-15 5.03D-09.
 InvSVY:  IOpt=1 It=  1 EMax= 6.22D-15
 Solved reduced A of dimension   579 with    78 vectors.
 FullF1:  Do perturbations      1 to       3.
 Isotropic polarizability for W=    0.000000      117.14 Bohr**3.
 End of Minotr F.D. properties file   721 does not exist.
 End of Minotr F.D. properties file   722 does not exist.
 End of Minotr F.D. properties file   788 does not exist.
 Leave Link 1002 at Tue Dec 30 13:05:16 2025, MaxMem= 29527900160 cpu:           68644.0 elap:            1225.9
 (Enter /usr/local/src/g16/l601.exe)
 Copying SCF densities to generalized density rwf, IOpCl= 0 IROHF=0.

 **********************************************************************

            Population analysis using the SCF density.

 **********************************************************************

 Orbital symmetries:
       Occupied  (A) (A) (A) (A) (A) (A) (A) (A) (A) (A) (A) (A)
                 (A) (A) (A) (A) (A) (A) (A) (A) (A) (A) (A) (A)
                 (A) (A) (A) (A) (A) (A) (A) (A) (A) (A) (A) (A)
                 (A) (A) (A) (A) (A) (A) (A) (A) (A) (A) (A) (A)
                 (A) (A) (A) (A) (A) (A) (A) (A) (A) (A) (A) (A)
                 (A) (A) (A) (A) (A) (A) (A) (A) (A) (A) (A) (A)
                 (A) (A) (A) (A) (A) (A) (A) (A) (A) (A) (A) (A)
                 (A) (A) (A) (A)
       Virtual   (A) (A) (A) (A) (A) (A) (A) (A) (A) (A) (A) (A)
                 (A) (A) (A) (A) (A) (A) (A) (A) (A) (A) (A) (A)
                 (A) (A) (A) (A) (A) (A) (A) (A) (A) (A) (A) (A)
                 (A) (A) (A) (A) (A) (A) (A) (A) (A) (A) (A) (A)
                 (A) (A) (A) (A) (A) (A) (A) (A) (A) (A) (A) (A)
                 (A) (A) (A) (A) (A) (A) (A) (A) (A) (A) (A) (A)
                 (A) (A) (A) (A) (A) (A) (A) (A) (A) (A) (A) (A)
                 (A) (A) (A) (A) (A) (A) (A) (A) (A) (A) (A) (A)
                 (A) (A) (A) (A) (A) (A) (A) (A) (A) (A) (A) (A)
                 (A) (A) (A) (A) (A) (A) (A) (A) (A) (A) (A) (A)
                 (A) (A) (A) (A) (A) (A) (A) (A) (A) (A) (A) (A)
                 (A) (A) (A) (A) (A) (A) (A) (A) (A) (A) (A) (A)
                 (A) (A) (A) (A) (A) (A) (A) (A) (A) (A) (A) (A)
                 (A) (A) (A) (A) (A) (A) (A) (A) (A) (A) (A) (A)
                 (A) (A) (A) (A) (A) (A) (A) (A) (A) (A) (A) (A)
                 (A) (A) (A) (A) (A) (A) (A) (A) (A) (A) (A) (A)
                 (A) (A) (A) (A) (A) (A) (A) (A) (A) (A) (A) (A)
                 (A) (A) (A) (A) (A) (A) (A) (A) (A) (A) (A) (A)
                 (A) (A) (A) (A) (A) (A) (A) (A) (A) (A) (A) (A)
                 (A) (A) (A) (A) (A) (A) (A) (A) (A) (A) (A) (A)
                 (A) (A) (A) (A) (A) (A) (A) (A) (A) (A) (A) (A)
                 (A) (A) (A) (A) (A) (A) (A) (A) (A) (A) (A) (A)
                 (A) (A) (A) (A) (A) (A) (A) (A) (A) (A) (A) (A)
                 (A) (A) (A) (A) (A) (A) (A) (A) (A) (A) (A) (A)
                 (A) (A) (A) (A) (A) (A) (A) (A) (A) (A) (A) (A)
                 (A) (A) (A) (A) (A) (A) (A) (A) (A) (A) (A) (A)
                 (A) (A) (A) (A) (A) (A) (A) (A) (A) (A) (A) (A)
                 (A) (A) (A) (A) (A) (A) (A) (A) (A) (A) (A) (A)
                 (A) (A) (A) (A) (A) (A) (A) (A) (A) (A) (A) (A)
                 (A) (A) (A) (A) (A) (A) (A) (A) (A) (A) (A) (A)
                 (A) (A) (A) (A) (A) (A) (A) (A) (A) (A) (A) (A)
                 (A) (A) (A) (A) (A) (A) (A) (A) (A) (A) (A) (A)
                 (A) (A) (A) (A) (A) (A) (A) (A) (A) (A) (A) (A)
                 (A) (A) (A) (A) (A) (A) (A) (A) (A) (A) (A) (A)
                 (A) (A) (A) (A) (A) (A) (A) (A) (A) (A) (A) (A)
                 (A) (A) (A) (A) (A) (A) (A) (A) (A) (A) (A) (A)
                 (A) (A) (A) (A) (A) (A) (A) (A) (A) (A) (A) (A)
                 (A) (A) (A) (A) (A) (A) (A) (A) (A) (A) (A) (A)
                 (A) (A) (A) (A) (A) (A) (A) (A) (A) (A) (A) (A)
                 (A) (A) (A) (A) (A) (A) (A) (A) (A) (A) (A) (A)
                 (A) (A) (A) (A) (A) (A) (A) (A) (A) (A) (A) (A)
                 (A) (A) (A) (A) (A) (A) (A) (A) (A) (A) (A) (A)
                 (A) (A) (A) (A) (A) (A) (A) (A) (A) (A) (A) (A)
                 (A) (A) (A) (A) (A) (A) (A)
 The electronic state is 1-A.
 Alpha  occ. eigenvalues --  -89.28323 -24.89837 -24.89658 -24.88905 -24.88792
 Alpha  occ. eigenvalues --  -24.88789 -24.88704 -24.88689 -24.88596 -24.88515
 Alpha  occ. eigenvalues --  -19.31063 -19.30681 -19.30189 -19.25406 -14.52842
 Alpha  occ. eigenvalues --  -10.59114 -10.54552 -10.54165 -10.53763 -10.44070
 Alpha  occ. eigenvalues --  -10.38159  -8.29568  -6.24433  -6.24312  -6.24294
 Alpha  occ. eigenvalues --   -1.48150  -1.46078  -1.44305  -1.43540  -1.39418
 Alpha  occ. eigenvalues --   -1.38813  -1.38324  -1.37942  -1.37498  -1.29564
 Alpha  occ. eigenvalues --   -1.23288  -1.18373  -1.14878  -1.09769  -0.96423
 Alpha  occ. eigenvalues --   -0.92586  -0.89657  -0.85821  -0.81375  -0.79051
 Alpha  occ. eigenvalues --   -0.76438  -0.76130  -0.75047  -0.73908  -0.73851
 Alpha  occ. eigenvalues --   -0.73575  -0.72982  -0.71467  -0.71445  -0.69559
 Alpha  occ. eigenvalues --   -0.68231  -0.66564  -0.63510  -0.62728  -0.62011
 Alpha  occ. eigenvalues --   -0.61638  -0.61026  -0.60735  -0.60335  -0.59564
 Alpha  occ. eigenvalues --   -0.59349  -0.59110  -0.58399  -0.58204  -0.57737
 Alpha  occ. eigenvalues --   -0.56812  -0.56243  -0.55736  -0.55651  -0.55240
 Alpha  occ. eigenvalues --   -0.54988  -0.54448  -0.52929  -0.52424  -0.50402
 Alpha  occ. eigenvalues --   -0.50178  -0.48482  -0.47646  -0.46068  -0.43759
 Alpha  occ. eigenvalues --   -0.43312  -0.42687  -0.37644
 Alpha virt. eigenvalues --    0.02652   0.04810   0.05506   0.06022   0.06698
 Alpha virt. eigenvalues --    0.07418   0.07674   0.08904   0.09651   0.09975
 Alpha virt. eigenvalues --    0.10163   0.10314   0.10744   0.11477   0.11843
 Alpha virt. eigenvalues --    0.12160   0.12992   0.13287   0.13463   0.13632
 Alpha virt. eigenvalues --    0.14440   0.14688   0.15143   0.15687   0.16486
 Alpha virt. eigenvalues --    0.16663   0.17418   0.18101   0.18253   0.18654
 Alpha virt. eigenvalues --    0.19552   0.20364   0.20839   0.21279   0.22135
 Alpha virt. eigenvalues --    0.22531   0.23033   0.23474   0.24729   0.24803
 Alpha virt. eigenvalues --    0.25116   0.25922   0.26333   0.26571   0.27089
 Alpha virt. eigenvalues --    0.27817   0.28001   0.28714   0.29156   0.29632
 Alpha virt. eigenvalues --    0.29916   0.30175   0.30638   0.30940   0.31232
 Alpha virt. eigenvalues --    0.31293   0.31715   0.32340   0.32779   0.33254
 Alpha virt. eigenvalues --    0.33633   0.34196   0.34714   0.34954   0.35852
 Alpha virt. eigenvalues --    0.36084   0.36654   0.36805   0.37125   0.37289
 Alpha virt. eigenvalues --    0.37980   0.38721   0.39091   0.39461   0.39684
 Alpha virt. eigenvalues --    0.40260   0.40620   0.40864   0.41406   0.41596
 Alpha virt. eigenvalues --    0.42276   0.42538   0.42987   0.43367   0.44123
 Alpha virt. eigenvalues --    0.44546   0.44989   0.45571   0.45954   0.46461
 Alpha virt. eigenvalues --    0.46872   0.46976   0.47555   0.48085   0.48716
 Alpha virt. eigenvalues --    0.49481   0.49900   0.50835   0.51398   0.52570
 Alpha virt. eigenvalues --    0.53010   0.53504   0.53587   0.53880   0.55234
 Alpha virt. eigenvalues --    0.56089   0.56629   0.57063   0.58229   0.59838
 Alpha virt. eigenvalues --    0.60559   0.61987   0.62968   0.63292   0.63825
 Alpha virt. eigenvalues --    0.64442   0.65823   0.66290   0.67457   0.68733
 Alpha virt. eigenvalues --    0.69480   0.70387   0.70415   0.71634   0.72136
 Alpha virt. eigenvalues --    0.73528   0.74010   0.74680   0.75665   0.75877
 Alpha virt. eigenvalues --    0.76756   0.77737   0.78767   0.79760   0.80343
 Alpha virt. eigenvalues --    0.81586   0.82623   0.83388   0.83743   0.84611
 Alpha virt. eigenvalues --    0.85337   0.87221   0.87982   0.88892   0.90914
 Alpha virt. eigenvalues --    0.91900   0.92456   0.93451   0.95388   0.97541
 Alpha virt. eigenvalues --    0.98866   1.01257   1.02644   1.04191   1.05442
 Alpha virt. eigenvalues --    1.06721   1.08798   1.09402   1.10245   1.11044
 Alpha virt. eigenvalues --    1.12057   1.12964   1.13203   1.14187   1.15274
 Alpha virt. eigenvalues --    1.16186   1.16535   1.16957   1.17787   1.19542
 Alpha virt. eigenvalues --    1.20059   1.21110   1.21847   1.23240   1.23858
 Alpha virt. eigenvalues --    1.24338   1.24932   1.25995   1.27197   1.27608
 Alpha virt. eigenvalues --    1.28250   1.30360   1.30963   1.31741   1.32530
 Alpha virt. eigenvalues --    1.32661   1.33887   1.34631   1.36430   1.37575
 Alpha virt. eigenvalues --    1.38055   1.38651   1.39892   1.40728   1.41132
 Alpha virt. eigenvalues --    1.41797   1.42999   1.43732   1.44335   1.45141
 Alpha virt. eigenvalues --    1.45737   1.46347   1.46661   1.46992   1.48118
 Alpha virt. eigenvalues --    1.48735   1.49138   1.49767   1.50139   1.51334
 Alpha virt. eigenvalues --    1.51918   1.52328   1.52814   1.53526   1.53859
 Alpha virt. eigenvalues --    1.54175   1.55014   1.55481   1.57261   1.58419
 Alpha virt. eigenvalues --    1.58970   1.59595   1.59824   1.61297   1.62323
 Alpha virt. eigenvalues --    1.63615   1.64692   1.64766   1.66101   1.67300
 Alpha virt. eigenvalues --    1.68680   1.69188   1.69909   1.71139   1.72050
 Alpha virt. eigenvalues --    1.73139   1.74278   1.75938   1.77289   1.79988
 Alpha virt. eigenvalues --    1.83145   1.83896   1.84790   1.86309   1.88195
 Alpha virt. eigenvalues --    1.90431   1.91257   1.93797   1.95035   1.98159
 Alpha virt. eigenvalues --    1.99526   2.01539   2.02996   2.03309   2.04468
 Alpha virt. eigenvalues --    2.05268   2.05772   2.07307   2.08913   2.09610
 Alpha virt. eigenvalues --    2.11267   2.11758   2.11920   2.13277   2.13870
 Alpha virt. eigenvalues --    2.14448   2.15410   2.16780   2.17580   2.18280
 Alpha virt. eigenvalues --    2.19497   2.20690   2.23581   2.24752   2.25123
 Alpha virt. eigenvalues --    2.26401   2.28627   2.30206   2.30492   2.32610
 Alpha virt. eigenvalues --    2.33273   2.34008   2.35812   2.36756   2.37504
 Alpha virt. eigenvalues --    2.38817   2.39307   2.41397   2.43482   2.43769
 Alpha virt. eigenvalues --    2.45038   2.46154   2.48667   2.50106   2.53480
 Alpha virt. eigenvalues --    2.56548   2.57568   2.58578   2.59416   2.62398
 Alpha virt. eigenvalues --    2.65141   2.66892   2.67968   2.70204   2.71567
 Alpha virt. eigenvalues --    2.74170   2.74884   2.76408   2.76987   2.80612
 Alpha virt. eigenvalues --    2.83299   2.84982   2.87450   2.88500   2.91735
 Alpha virt. eigenvalues --    2.92269   2.94742   2.96843   2.98051   3.00256
 Alpha virt. eigenvalues --    3.01643   3.03530   3.06704   3.10222   3.14210
 Alpha virt. eigenvalues --    3.16641   3.24117   3.24802   3.26410   3.30611
 Alpha virt. eigenvalues --    3.33875   3.35771   3.42992   3.44427   3.44810
 Alpha virt. eigenvalues --    3.45722   3.47835   3.49232   3.50788   3.51930
 Alpha virt. eigenvalues --    3.53398   3.54537   3.56479   3.57570   3.59053
 Alpha virt. eigenvalues --    3.59932   3.61407   3.62470   3.64400   3.65080
 Alpha virt. eigenvalues --    3.66825   3.67516   3.68678   3.71946   3.73416
 Alpha virt. eigenvalues --    3.73878   3.76237   3.76990   3.79865   3.81430
 Alpha virt. eigenvalues --    3.84142   3.87271   3.89093   3.92197   3.95616
 Alpha virt. eigenvalues --    3.96923   4.00337   4.03414   4.08226   4.09130
 Alpha virt. eigenvalues --    4.16545   4.18488   4.21095   4.26861   4.30077
 Alpha virt. eigenvalues --    4.31316   4.31833   4.34795   4.36161   4.38054
 Alpha virt. eigenvalues --    4.39416   4.39809   4.42294   4.44835   4.48591
 Alpha virt. eigenvalues --    4.62694   4.70723   5.04430   5.06435   5.11129
 Alpha virt. eigenvalues --    5.11916   5.14071   5.17077   5.18641   5.21533
 Alpha virt. eigenvalues --    5.23809   5.29694   5.33473   5.38007   5.40029
 Alpha virt. eigenvalues --    5.49256   5.58507   5.60057   5.86361   6.04483
 Alpha virt. eigenvalues --    6.37151   6.40657   6.42475   6.43679   6.44580
 Alpha virt. eigenvalues --    6.45237   6.47622   6.47820   6.48888   6.50569
 Alpha virt. eigenvalues --    6.51318   6.51641   6.52355   6.53462   6.54813
 Alpha virt. eigenvalues --    6.55742   6.57791   6.60177   6.61951   6.65464
 Alpha virt. eigenvalues --    6.68351   6.72358   6.73182   6.83303   6.85201
 Alpha virt. eigenvalues --    6.87006   6.87467   6.87877   6.88428   6.91473
 Alpha virt. eigenvalues --    6.91995   6.95802   6.96045   6.96427   6.98749
 Alpha virt. eigenvalues --    7.02399   7.04378   7.08594   7.15695   7.17374
 Alpha virt. eigenvalues --    7.19131   7.21794   7.30465   7.31990   7.41272
 Alpha virt. eigenvalues --    7.43844   7.45961   7.67859   8.46879   9.07973
 Alpha virt. eigenvalues --    9.08755   9.09203   9.10189   9.10848   9.11615
 Alpha virt. eigenvalues --    9.13798   9.16153   9.17305   9.18387   9.19207
 Alpha virt. eigenvalues --    9.20051   9.20777   9.21736   9.23619   9.23650
 Alpha virt. eigenvalues --    9.24509   9.25222   9.26167   9.26323   9.27703
 Alpha virt. eigenvalues --    9.28288   9.34134   9.34833   9.38907   9.40732
 Alpha virt. eigenvalues --    9.42947   9.43653   9.49139   9.50520   9.60984
 Alpha virt. eigenvalues --    9.64083   9.66652   9.67269   9.68169   9.72409
 Alpha virt. eigenvalues --    9.75556   9.75973   9.77166   9.78691   9.81279
 Alpha virt. eigenvalues --    9.83121   9.87291   9.89725   9.91523  17.67706
 Alpha virt. eigenvalues --   17.78720  17.82638  23.92831  23.96976  24.00787
 Alpha virt. eigenvalues --   24.04434  24.06464  24.19753  35.66344  50.02864
 Alpha virt. eigenvalues --   50.07314  50.09218  50.16414  66.92968  66.94037
 Alpha virt. eigenvalues --   66.94483  66.95637  66.97539  66.99245  66.99893
 Alpha virt. eigenvalues --   67.03494  67.04419 189.72985
          Condensed to atoms (all electrons):
               1          2          3          4          5          6
     1  C    6.051408  -1.888678   1.250294  -0.938571  -0.029292  -0.007013
     2  C   -1.888678  10.795296  -4.750484   1.792969  -0.350268   0.023147
     3  C    1.250294  -4.750484  15.659396  -6.888448   0.148676  -0.090966
     4  C   -0.938571   1.792969  -6.888448  12.315795  -0.833808  -0.057419
     5  S   -0.029292  -0.350268   0.148676  -0.833808  14.757311   0.508867
     6  O   -0.007013   0.023147  -0.090966  -0.057419   0.508867   8.139906
     7  O    0.007370  -0.025811   0.075523  -0.201845   0.512229  -0.037774
     8  F   -0.159373   0.304337  -0.154170   0.049367   0.029279  -0.000485
     9  F   -0.168133   0.376221  -0.122017   0.027045  -0.002911   0.000237
    10  F    0.288981  -0.078964   0.026051  -0.026599   0.001243  -0.000087
    11  F    0.213411  -0.070495  -0.048387   0.075664   0.001673   0.000081
    12  F    0.196323  -0.119374   0.042342   0.019395   0.000216   0.000002
    13  N    0.000567  -0.037275   0.074317  -0.115099   0.270494  -0.088122
    14  H    0.000070  -0.000371   0.004754  -0.016737  -0.006233   0.036731
    15  C    0.005359  -0.015100   0.048628   0.085139  -0.330561   0.018027
    16  H   -0.000141   0.000558  -0.001418   0.013785   0.018437   0.001043
    17  H    0.000002   0.000023  -0.000091  -0.001997  -0.003664  -0.000747
    18  H   -0.000011   0.000255  -0.010246  -0.003508   0.026815  -0.003479
    19  C   -0.000905  -0.003572  -0.098494  -0.053153   0.134243   0.008365
    20  O    0.000003   0.000048   0.006239   0.009824  -0.029132  -0.004349
    21  O   -0.000000   0.000066   0.000187   0.002135   0.005092   0.000264
    22  F   -0.012920  -0.019379  -0.194791   0.463911  -0.005619   0.007898
    23  F    0.040472  -0.197488   0.437351  -0.136381  -0.047326   0.021410
    24  F   -0.001699  -0.164310   0.455079  -0.204340   0.043069  -0.007450
    25  F    0.022867  -0.024025  -0.120247   0.369403  -0.063502  -0.003832
               7          8          9         10         11         12
     1  C    0.007370  -0.159373  -0.168133   0.288981   0.213411   0.196323
     2  C   -0.025811   0.304337   0.376221  -0.078964  -0.070495  -0.119374
     3  C    0.075523  -0.154170  -0.122017   0.026051  -0.048387   0.042342
     4  C   -0.201845   0.049367   0.027045  -0.026599   0.075664   0.019395
     5  S    0.512229   0.029279  -0.002911   0.001243   0.001673   0.000216
     6  O   -0.037774  -0.000485   0.000237  -0.000087   0.000081   0.000002
     7  O    8.270465   0.000256  -0.001268   0.000037  -0.000095   0.000012
     8  F    0.000256   9.117861   0.001204   0.020319   0.001665   0.020293
     9  F   -0.001268   0.001204   9.070843  -0.000631   0.016102   0.023591
    10  F    0.000037   0.020319  -0.000631   9.035435   0.007559  -0.007869
    11  F   -0.000095   0.001665   0.016102   0.007559   9.069305   0.002789
    12  F    0.000012   0.020293   0.023591  -0.007869   0.002789   9.111499
    13  N   -0.096546   0.000157   0.000069   0.000019   0.000050  -0.000006
    14  H   -0.006386  -0.000009  -0.000004  -0.000001  -0.000000   0.000000
    15  C    0.009430   0.000290   0.000447  -0.000051   0.000071   0.000003
    16  H    0.002932   0.000009   0.000003  -0.000000  -0.000000  -0.000000
    17  H    0.000932   0.000001  -0.000000   0.000000   0.000000  -0.000000
    18  H    0.049535  -0.000001   0.000005   0.000000  -0.000000   0.000000
    19  C   -0.009940   0.000093   0.000040  -0.000003   0.000008   0.000000
    20  O    0.001384   0.000000  -0.000000  -0.000000   0.000000  -0.000000
    21  O    0.000521   0.000000   0.000000  -0.000000  -0.000000   0.000000
    22  F   -0.005429   0.010647  -0.000866  -0.000450  -0.000113   0.000060
    23  F   -0.003436   0.012172   0.000096   0.006004   0.006793   0.000247
    24  F    0.015512   0.000764   0.020611  -0.003260   0.009146  -0.000968
    25  F    0.018455   0.017193   0.010402   0.000121  -0.000047  -0.000092
              13         14         15         16         17         18
     1  C    0.000567   0.000070   0.005359  -0.000141   0.000002  -0.000011
     2  C   -0.037275  -0.000371  -0.015100   0.000558   0.000023   0.000255
     3  C    0.074317   0.004754   0.048628  -0.001418  -0.000091  -0.010246
     4  C   -0.115099  -0.016737   0.085139   0.013785  -0.001997  -0.003508
     5  S    0.270494  -0.006233  -0.330561   0.018437  -0.003664   0.026815
     6  O   -0.088122   0.036731   0.018027   0.001043  -0.000747  -0.003479
     7  O   -0.096546  -0.006386   0.009430   0.002932   0.000932   0.049535
     8  F    0.000157  -0.000009   0.000290   0.000009   0.000001  -0.000001
     9  F    0.000069  -0.000004   0.000447   0.000003  -0.000000   0.000005
    10  F    0.000019  -0.000001  -0.000051  -0.000000   0.000000   0.000000
    11  F    0.000050  -0.000000   0.000071  -0.000000   0.000000  -0.000000
    12  F   -0.000006   0.000000   0.000003  -0.000000  -0.000000   0.000000
    13  N    7.088903   0.323669  -0.025998  -0.031609  -0.020473  -0.016262
    14  H    0.323669   0.443123   0.018172   0.002537  -0.008656   0.000275
    15  C   -0.025998   0.018172   5.816445   0.416152   0.420419   0.023000
    16  H   -0.031609   0.002537   0.416152   0.489802  -0.008075  -0.004250
    17  H   -0.020473  -0.008656   0.420419  -0.008075   0.491414  -0.000144
    18  H   -0.016262   0.000275   0.023000  -0.004250  -0.000144   0.447011
    19  C   -0.066192  -0.011257  -0.346472  -0.062027  -0.026471   0.010213
    20  O    0.053585  -0.003124  -0.087174   0.006351   0.006591   0.205545
    21  O    0.003096   0.001405  -0.015155   0.001656   0.000371  -0.002753
    22  F    0.018189  -0.002765  -0.009981  -0.001044   0.000065   0.000222
    23  F   -0.001498   0.000034   0.002039   0.000031   0.000004   0.000019
    24  F    0.006345  -0.000040  -0.000481  -0.000035  -0.000002   0.000123
    25  F    0.015883  -0.000124  -0.009667   0.000678  -0.000019  -0.000934
              19         20         21         22         23         24
     1  C   -0.000905   0.000003  -0.000000  -0.012920   0.040472  -0.001699
     2  C   -0.003572   0.000048   0.000066  -0.019379  -0.197488  -0.164310
     3  C   -0.098494   0.006239   0.000187  -0.194791   0.437351   0.455079
     4  C   -0.053153   0.009824   0.002135   0.463911  -0.136381  -0.204340
     5  S    0.134243  -0.029132   0.005092  -0.005619  -0.047326   0.043069
     6  O    0.008365  -0.004349   0.000264   0.007898   0.021410  -0.007450
     7  O   -0.009940   0.001384   0.000521  -0.005429  -0.003436   0.015512
     8  F    0.000093   0.000000   0.000000   0.010647   0.012172   0.000764
     9  F    0.000040  -0.000000   0.000000  -0.000866   0.000096   0.020611
    10  F   -0.000003  -0.000000  -0.000000  -0.000450   0.006004  -0.003260
    11  F    0.000008   0.000000  -0.000000  -0.000113   0.006793   0.009146
    12  F    0.000000  -0.000000   0.000000   0.000060   0.000247  -0.000968
    13  N   -0.066192   0.053585   0.003096   0.018189  -0.001498   0.006345
    14  H   -0.011257  -0.003124   0.001405  -0.002765   0.000034  -0.000040
    15  C   -0.346472  -0.087174  -0.015155  -0.009981   0.002039  -0.000481
    16  H   -0.062027   0.006351   0.001656  -0.001044   0.000031  -0.000035
    17  H   -0.026471   0.006591   0.000371   0.000065   0.000004  -0.000002
    18  H    0.010213   0.205545  -0.002753   0.000222   0.000019   0.000123
    19  C    5.543691   0.258475   0.346142  -0.000793  -0.000299   0.000414
    20  O    0.258475   8.014004  -0.048128  -0.000184  -0.000000  -0.000038
    21  O    0.346142  -0.048128   8.112588  -0.000019   0.000001  -0.000001
    22  F   -0.000793  -0.000184  -0.000019   8.960121   0.025865   0.000359
    23  F   -0.000299  -0.000000   0.000001   0.025865   9.053287   0.006538
    24  F    0.000414  -0.000038  -0.000001   0.000359   0.006538   9.026639
    25  F    0.004259   0.000163  -0.000050   0.004661  -0.001138   0.014854
              25
     1  C    0.022867
     2  C   -0.024025
     3  C   -0.120247
     4  C    0.369403
     5  S   -0.063502
     6  O   -0.003832
     7  O    0.018455
     8  F    0.017193
     9  F    0.010402
    10  F    0.000121
    11  F   -0.000047
    12  F   -0.000092
    13  N    0.015883
    14  H   -0.000124
    15  C   -0.009667
    16  H    0.000678
    17  H   -0.000019
    18  H   -0.000934
    19  C    0.004259
    20  O    0.000163
    21  O   -0.000050
    22  F    0.004661
    23  F   -0.001138
    24  F    0.014854
    25  F    8.997587
 Mulliken charges:
               1
     1  C    1.129609
     2  C    0.452675
     3  C    0.250922
     4  C    0.253474
     5  S    1.244671
     6  O   -0.464257
     7  O   -0.576061
     8  F   -0.271872
     9  F   -0.251085
    10  F   -0.267855
    11  F   -0.285178
    12  F   -0.288462
    13  N   -0.356263
    14  H    0.224936
    15  C   -0.022979
    16  H    0.154627
    17  H    0.150514
    18  H    0.278570
    19  C    0.373636
    20  O   -0.390083
    21  O   -0.407417
    22  F   -0.237644
    23  F   -0.224797
    24  F   -0.216829
    25  F   -0.252850
 Sum of Mulliken charges =  -0.00000
 Mulliken charges with hydrogens summed into heavy atoms:
               1
     1  C    1.129609
     2  C    0.452675
     3  C    0.250922
     4  C    0.253474
     5  S    1.244671
     6  O   -0.464257
     7  O   -0.576061
     8  F   -0.271872
     9  F   -0.251085
    10  F   -0.267855
    11  F   -0.285178
    12  F   -0.288462
    13  N   -0.131327
    15  C    0.282162
    19  C    0.373636
    20  O   -0.111514
    21  O   -0.407417
    22  F   -0.237644
    23  F   -0.224797
    24  F   -0.216829
    25  F   -0.252850
 APT charges:
               1
     1  C    1.575183
     2  C    0.898100
     3  C    0.892373
     4  C    0.824135
     5  S    1.985354
     6  O   -0.756575
     7  O   -0.829080
     8  F   -0.463366
     9  F   -0.459955
    10  F   -0.502868
    11  F   -0.501959
    12  F   -0.558108
    13  N   -0.807663
    14  H    0.197714
    15  C    0.250292
    16  H    0.044908
    17  H    0.026216
    18  H    0.406603
    19  C    1.131506
    20  O   -0.741421
    21  O   -0.776640
    22  F   -0.476305
    23  F   -0.443919
    24  F   -0.439928
    25  F   -0.474600
 Sum of APT charges =  -0.00000
 APT charges with hydrogens summed into heavy atoms:
               1
     1  C    1.575183
     2  C    0.898100
     3  C    0.892373
     4  C    0.824135
     5  S    1.985354
     6  O   -0.756575
     7  O   -0.829080
     8  F   -0.463366
     9  F   -0.459955
    10  F   -0.502868
    11  F   -0.501959
    12  F   -0.558108
    13  N   -0.609949
    15  C    0.321416
    19  C    1.131506
    20  O   -0.334818
    21  O   -0.776640
    22  F   -0.476305
    23  F   -0.443919
    24  F   -0.439928
    25  F   -0.474600
 Electronic spatial extent (au):  <R**2>=           7164.2482
 Charge=              0.0000 electrons
 Dipole moment (field-independent basis, Debye):
    X=              2.4711    Y=             -1.6625    Z=              2.0161  Tot=              3.5965
 Quadrupole moment (field-independent basis, Debye-Ang):
   XX=           -152.1987   YY=           -125.2234   ZZ=           -120.0420
   XY=              0.5634   XZ=             -8.6412   YZ=             -0.4719
 Traceless Quadrupole moment (field-independent basis, Debye-Ang):
   XX=            -19.7107   YY=              7.2647   ZZ=             12.4460
   XY=              0.5634   XZ=             -8.6412   YZ=             -0.4719
 Octapole moment (field-independent basis, Debye-Ang**2):
  XXX=            325.8555  YYY=            -14.6471  ZZZ=              8.6439  XYY=             26.5306
  XXY=             23.2568  XXZ=             35.0954  XZZ=             11.5961  YZZ=             -3.4692
  YYZ=             -5.0787  XYZ=             -2.6238
 Hexadecapole moment (field-independent basis, Debye-Ang**3):
 XXXX=          -8574.8987 YYYY=           -765.8480 ZZZZ=           -575.0444 XXXY=           -206.8338
 XXXZ=           -166.0526 YYYX=              4.6193 YYYZ=            -13.7002 ZZZX=            -39.5336
 ZZZY=              1.4134 XXYY=          -1280.5469 XXZZ=          -1199.7127 YYZZ=           -225.8785
 XXYZ=             14.2298 YYXZ=              5.7338 ZZXY=              0.4984
 N-N= 2.335120857596D+03 E-N=-9.132362730350D+03  KE= 1.878942579798D+03
  Exact polarizability: 145.280   6.137 104.388   0.146  -2.137 101.763
 Approx polarizability: 130.363   7.050 126.172  -0.502  -0.722 131.489
 No NMR shielding tensors so no spin-rotation constants.
 Leave Link  601 at Tue Dec 30 13:05:17 2025, MaxMem= 29527900160 cpu:              49.8 elap:               1.0
 (Enter /usr/local/src/g16/l701.exe)
 ... and contract with generalized density number  0.
 Compute integral second derivatives.
 R6Disp: Adding Grimme-D2 dispersion energy 2nd derivatives to the Hessian.
 Leave Link  701 at Tue Dec 30 13:05:17 2025, MaxMem= 29527900160 cpu:              26.2 elap:               0.5
 (Enter /usr/local/src/g16/l702.exe)
 L702 exits ... SP integral derivatives will be done elsewhere.
 Leave Link  702 at Tue Dec 30 13:05:18 2025, MaxMem= 29527900160 cpu:               3.2 elap:               0.1
 (Enter /usr/local/src/g16/l703.exe)
 Integral derivatives from FoFJK, PRISM(SPDF).
 Compute integral second derivatives, UseDBF=F ICtDFT=           0.
 Calling FoFJK, ICntrl=    100127 FMM=F ISym2X=0 I1Cent= 0 IOpClX= 0 NMat=1 NMatS=1 NMatT=0.
 FoFJK:  IHMeth= 1 ICntrl=  100127 DoSepK=T KAlg= 0 I1Cent=           0 FoldK=F
 IRaf=         1 NMat=       1 IRICut=       1 DoRegI=T DoRafI=F ISym2E= 0 IDoP0=0 IntGTp=1.
 FoFCou: FMM=F IPFlag=           0 FMFlag=      100000 FMFlg1=         800
         NFxFlg=           0 DoJE=F BraDBF=F KetDBF=F FulRan=T
         wScrn=  0.000000 ICntrl=    100527 IOpCl=  0 I1Cent=           0 NGrid=           0
         NMat0=    1 NMatS0=      1 NMatT0=    0 NMatD0=    1 NMtDS0=    0 NMtDT0=    0
 Symmetry not used in FoFCou.
 Leave Link  703 at Tue Dec 30 13:16:42 2025, MaxMem= 29527900160 cpu:           38304.0 elap:             684.1
 (Enter /usr/local/src/g16/l716.exe)
 Dipole        = 9.72223759D-01-6.54059627D-01 7.93211134D-01
 Polarizability= 1.45279949D+02 6.13734956D+00 1.04387717D+02
                 1.46436405D-01-2.13696862D+00 1.01762975D+02
 Full mass-weighted force constant matrix:
 Low frequencies ---   -0.1644   -0.0012   -0.0007    0.0008    4.6563    7.4882
 Low frequencies ---   25.3420   29.2300   38.5782
 Diagonal vibrational polarizability:
       64.7468226      93.1897827     121.9677061
 Harmonic frequencies (cm**-1), IR intensities (KM/Mole), Raman scattering
 activities (A**4/AMU), depolarization ratios for plane and unpolarized
 incident light, reduced masses (AMU), force constants (mDyne/A),
 and normal coordinates:
                      1                      2                      3
                      A                      A                      A
 Frequencies --     25.3393                29.2158                38.5774
 Red. masses --     12.0478                15.2816                13.3273
 Frc consts  --      0.0046                 0.0077                 0.0117
 IR Inten    --      0.8007                 1.6680                 0.3383
  Atom  AN      X      Y      Z        X      Y      Z        X      Y      Z
     1   6     0.01  -0.05   0.10     0.03   0.10   0.11    -0.01   0.05  -0.08
     2   6    -0.02   0.00  -0.06     0.07   0.00   0.01    -0.00   0.02  -0.01
     3   6     0.01   0.04  -0.01    -0.00  -0.06  -0.08     0.00  -0.00   0.13
     4   6    -0.01   0.05  -0.06     0.02  -0.12  -0.13     0.02  -0.04   0.14
     5  16     0.01   0.06  -0.12     0.00  -0.12  -0.09     0.00  -0.12  -0.05
     6   8     0.07   0.13  -0.25     0.03  -0.11  -0.12    -0.05  -0.03  -0.17
     7   8    -0.04  -0.08  -0.10    -0.06  -0.14  -0.08     0.09  -0.29  -0.06
     8   9    -0.12  -0.11  -0.16     0.06   0.01   0.02     0.08  -0.03  -0.05
     9   9     0.01   0.14  -0.14     0.20  -0.02   0.01    -0.08   0.08  -0.03
    10   9    -0.02  -0.26   0.19    -0.08   0.12   0.14     0.09  -0.06  -0.07
    11   9     0.08   0.09   0.26     0.03   0.11   0.12    -0.10   0.13   0.01
    12   9    -0.02  -0.02  -0.02     0.12   0.16   0.17    -0.03   0.09  -0.25
    13   7     0.00   0.19   0.01     0.04  -0.12  -0.02    -0.01  -0.07  -0.01
    14   1     0.10   0.24   0.01     0.04  -0.05  -0.04    -0.14   0.13  -0.10
    15   6     0.04   0.05   0.20    -0.11   0.00  -0.02    -0.10  -0.00   0.00
    16   1     0.04  -0.04   0.26    -0.22   0.02  -0.12    -0.11  -0.09   0.05
    17   1     0.09   0.16   0.32    -0.09  -0.04  -0.05    -0.20   0.07   0.02
    18   1    -0.07  -0.18  -0.02    -0.10   0.03   0.01     0.17  -0.21  -0.24
    19   6     0.00  -0.11   0.14    -0.13   0.19   0.16    -0.02   0.11  -0.07
    20   8    -0.06  -0.22   0.02    -0.11   0.16   0.14     0.13  -0.05  -0.22
    21   8     0.04  -0.14   0.21    -0.16   0.38   0.33    -0.10   0.35   0.02
    22   9    -0.06   0.05  -0.06     0.01  -0.17  -0.14    -0.01   0.08   0.16
    23   9     0.03  -0.03   0.04    -0.10  -0.01  -0.10     0.04  -0.07   0.18
    24   9     0.04   0.11   0.02     0.01  -0.12  -0.12    -0.05   0.09   0.18
    25   9     0.01   0.05  -0.06     0.05  -0.09  -0.18     0.09  -0.12   0.24
                      4                      5                      6
                      A                      A                      A
 Frequencies --     46.8634                63.2620                70.4066
 Red. masses --     16.1661                12.5172                 9.8857
 Frc consts  --      0.0209                 0.0295                 0.0289
 IR Inten    --      0.2495                 2.5813                 0.8232
  Atom  AN      X      Y      Z        X      Y      Z        X      Y      Z
     1   6     0.01   0.02  -0.06     0.03  -0.07   0.03     0.03  -0.02  -0.01
     2   6     0.02   0.03   0.05    -0.03   0.07  -0.09     0.02   0.01   0.03
     3   6     0.01  -0.01   0.16     0.02   0.11  -0.01     0.03   0.02   0.05
     4   6    -0.04  -0.06  -0.07     0.04   0.08   0.03     0.02   0.02   0.02
     5  16     0.02   0.03  -0.08    -0.04  -0.05   0.01    -0.00  -0.05  -0.11
     6   8     0.12   0.04  -0.13    -0.19  -0.05   0.06    -0.05  -0.00  -0.17
     7   8    -0.01  -0.02  -0.07     0.00  -0.04  -0.00     0.01  -0.12  -0.11
     8   9     0.09   0.02   0.05    -0.12  -0.04  -0.18     0.03   0.02   0.04
     9   9    -0.05   0.03   0.06    -0.04   0.21  -0.17    -0.01   0.01   0.04
    10   9     0.02   0.28  -0.17    -0.08   0.08   0.00     0.09  -0.04  -0.02
    11   9     0.02  -0.18  -0.28     0.24  -0.21  -0.12     0.03  -0.00   0.00
    12   9     0.01  -0.07   0.15    -0.01  -0.21   0.29    -0.00  -0.03  -0.06
    13   7    -0.03   0.16  -0.02     0.04  -0.23  -0.04     0.01  -0.06  -0.10
    14   1     0.08   0.15   0.01    -0.08  -0.21  -0.07    -0.00  -0.04  -0.11
    15   6    -0.01   0.07   0.11     0.03  -0.14  -0.16    -0.02  -0.01  -0.12
    16   1    -0.01  -0.00   0.16     0.01   0.00  -0.28    -0.08   0.09  -0.24
    17   1     0.01   0.15   0.19     0.08  -0.27  -0.26     0.07  -0.11  -0.18
    18   1    -0.05  -0.08  -0.03    -0.02  -0.10  -0.10    -0.26   0.38   0.29
    19   6    -0.02  -0.02   0.06    -0.01  -0.02   0.01    -0.09   0.01   0.04
    20   8    -0.04  -0.10  -0.03    -0.03  -0.04  -0.02    -0.23   0.35   0.37
    21   8    -0.01  -0.03   0.09    -0.03   0.12   0.17    -0.03  -0.24  -0.12
    22   9    -0.17  -0.25  -0.10     0.08   0.16   0.05    -0.03   0.11   0.04
    23   9    -0.05  -0.19   0.36     0.05   0.08   0.01     0.04  -0.01   0.08
    24   9     0.10   0.22   0.27    -0.00   0.16   0.02     0.05   0.06   0.07
    25   9     0.00   0.03  -0.24     0.09   0.04   0.09     0.08  -0.04   0.09
                      7                      8                      9
                      A                      A                      A
 Frequencies --     77.3740               112.6138               138.8041
 Red. masses --      8.2667                 8.7853                11.0489
 Frc consts  --      0.0292                 0.0656                 0.1254
 IR Inten    --      7.5279                 3.8776                 1.2248
  Atom  AN      X      Y      Z        X      Y      Z        X      Y      Z
     1   6     0.03  -0.04  -0.02     0.06  -0.03  -0.00    -0.15  -0.01   0.01
     2   6     0.01   0.01   0.08     0.00   0.09   0.03    -0.12  -0.01   0.02
     3   6     0.03   0.04   0.02     0.00   0.11  -0.03    -0.05   0.03   0.00
     4   6    -0.00   0.06  -0.05     0.02   0.03  -0.07    -0.01   0.01  -0.03
     5  16    -0.03   0.04  -0.03    -0.07  -0.07   0.04     0.06  -0.01  -0.05
     6   8    -0.11  -0.01   0.08    -0.10  -0.02  -0.04    -0.02   0.05  -0.13
     7   8     0.00   0.14  -0.04    -0.13  -0.16   0.05     0.07  -0.08  -0.05
     8   9     0.01   0.10   0.17    -0.04   0.17   0.10    -0.17   0.02   0.05
     9   9    -0.04  -0.10   0.15    -0.02   0.03   0.08    -0.15  -0.04   0.04
    10   9     0.16  -0.14  -0.02     0.16  -0.11  -0.00    -0.18   0.01   0.01
    11   9    -0.01   0.02   0.05     0.15  -0.02   0.02    -0.20  -0.01   0.01
    12   9    -0.05  -0.05  -0.17    -0.07  -0.13  -0.06    -0.12   0.02   0.01
    13   7     0.01  -0.11  -0.12     0.01  -0.09   0.15     0.22  -0.15   0.03
    14   1    -0.00  -0.23  -0.09    -0.04   0.08   0.08     0.01   0.05  -0.08
    15   6     0.09  -0.10  -0.23    -0.13  -0.03   0.22     0.25  -0.12  -0.04
    16   1     0.08   0.12  -0.38    -0.15  -0.26   0.37     0.26  -0.04  -0.08
    17   1     0.23  -0.27  -0.33    -0.32   0.14   0.31     0.25  -0.18  -0.10
    18   1    -0.13  -0.13  -0.18     0.18  -0.05   0.10     0.33   0.02   0.09
    19   6    -0.02  -0.06   0.02    -0.01   0.03   0.00     0.28   0.01   0.04
    20   8    -0.12  -0.13  -0.08     0.15   0.02   0.03     0.32   0.13   0.18
    21   8    -0.00   0.08   0.28    -0.06   0.04  -0.18     0.25   0.07   0.05
    22   9    -0.05   0.02  -0.05     0.06  -0.08  -0.10    -0.02  -0.04  -0.05
    23   9     0.02   0.03   0.04    -0.03   0.13  -0.03    -0.07   0.01   0.02
    24   9     0.09   0.05   0.02     0.02   0.10  -0.04    -0.04   0.05   0.01
    25   9     0.00   0.09  -0.09     0.07   0.08  -0.17    -0.01   0.04  -0.08
                     10                     11                     12
                      A                      A                      A
 Frequencies --    165.3761               187.4199               204.2059
 Red. masses --     14.2555                14.0965                11.8006
 Frc consts  --      0.2297                 0.2917                 0.2899
 IR Inten    --      0.3839                 0.8166                 4.3001
  Atom  AN      X      Y      Z        X      Y      Z        X      Y      Z
     1   6    -0.03   0.02   0.01    -0.13  -0.04   0.00     0.03   0.04  -0.05
     2   6    -0.08   0.16   0.02    -0.07  -0.07  -0.03     0.00   0.04  -0.09
     3   6    -0.10   0.08   0.00     0.09   0.10  -0.07    -0.05  -0.04  -0.10
     4   6     0.03  -0.14   0.03     0.12   0.06  -0.08    -0.08  -0.05  -0.13
     5  16     0.15  -0.08  -0.00     0.06  -0.08   0.01    -0.03  -0.02  -0.07
     6   8     0.42  -0.17   0.05     0.19  -0.15   0.09     0.18  -0.16   0.08
     7   8     0.16  -0.00  -0.00     0.00  -0.00   0.02    -0.24   0.23  -0.04
     8   9    -0.12   0.20   0.06    -0.21   0.03   0.06     0.02   0.18   0.03
     9   9    -0.12   0.16   0.03    -0.09  -0.18   0.04     0.05  -0.12  -0.01
    10   9     0.04  -0.04   0.01    -0.26  -0.00   0.02    -0.06  -0.04   0.01
    11   9     0.11   0.02   0.02    -0.26  -0.02   0.00     0.21   0.07   0.01
    12   9    -0.19  -0.13  -0.01     0.01   0.09   0.02     0.01  -0.00  -0.00
    13   7    -0.05   0.16  -0.10    -0.01   0.00  -0.01     0.06  -0.07  -0.00
    14   1     0.17  -0.12   0.04     0.20  -0.15   0.09     0.33  -0.28   0.12
    15   6     0.05   0.09  -0.11    -0.13   0.04   0.06     0.00  -0.08   0.08
    16   1     0.07   0.20  -0.17    -0.19  -0.09   0.11    -0.04  -0.21   0.14
    17   1     0.15   0.01  -0.14    -0.19   0.13   0.13    -0.06   0.03   0.15
    18   1    -0.14   0.07  -0.06    -0.13  -0.00  -0.02     0.17  -0.03   0.10
    19   6    -0.02   0.01  -0.02    -0.13   0.01  -0.01     0.06  -0.01   0.03
    20   8    -0.12  -0.01  -0.06    -0.13  -0.06  -0.08     0.16  -0.01   0.05
    21   8     0.02  -0.04   0.06    -0.13  -0.03  -0.05     0.02   0.05  -0.02
    22   9     0.03  -0.16   0.03     0.24   0.12  -0.07    -0.14   0.27  -0.05
    23   9    -0.20   0.18  -0.06     0.23  -0.03   0.01    -0.11  -0.21   0.08
    24   9    -0.25   0.00  -0.02     0.22   0.25  -0.00     0.01   0.15  -0.01
    25   9     0.16  -0.17   0.04     0.26   0.02  -0.04    -0.09  -0.22   0.16
                     13                     14                     15
                      A                      A                      A
 Frequencies --    219.9622               234.2943               245.3248
 Red. masses --     12.4120                 4.9662                13.8582
 Frc consts  --      0.3538                 0.1606                 0.4914
 IR Inten    --      6.6442                 5.3933                 1.2695
  Atom  AN      X      Y      Z        X      Y      Z        X      Y      Z
     1   6    -0.01   0.03  -0.10    -0.01   0.00  -0.00    -0.04  -0.00  -0.07
     2   6    -0.02   0.02  -0.14    -0.00   0.01   0.02     0.00  -0.02   0.03
     3   6    -0.02  -0.02  -0.08    -0.00   0.00   0.00     0.05   0.03   0.13
     4   6     0.00  -0.03   0.03     0.00  -0.01  -0.02     0.02   0.04  -0.00
     5  16     0.02   0.02   0.06     0.05   0.00  -0.06    -0.02  -0.01  -0.01
     6   8    -0.13   0.12  -0.05    -0.10  -0.06   0.11     0.09  -0.03  -0.02
     7   8     0.20  -0.16   0.03     0.28   0.14  -0.11    -0.19   0.03   0.02
     8   9     0.15   0.21   0.03     0.03  -0.03  -0.01     0.43  -0.12  -0.04
     9   9    -0.13  -0.21   0.02    -0.06   0.05   0.00    -0.42   0.05   0.06
    10   9    -0.29  -0.09   0.04    -0.01   0.00  -0.00    -0.28  -0.08   0.03
    11   9     0.29   0.11   0.01    -0.01   0.00   0.00     0.13   0.04   0.00
    12   9     0.02   0.02   0.01    -0.03  -0.01  -0.01     0.00   0.01  -0.01
    13   7    -0.03   0.05   0.01     0.01  -0.01  -0.10     0.02  -0.03   0.02
    14   1    -0.34   0.31  -0.13    -0.30   0.50  -0.33     0.31  -0.36   0.19
    15   6     0.03   0.05  -0.07    -0.10  -0.06   0.14     0.00  -0.01  -0.00
    16   1     0.07   0.19  -0.12    -0.17  -0.26   0.22    -0.01  -0.03  -0.00
    17   1     0.09  -0.05  -0.14    -0.13   0.12   0.29    -0.03   0.00  -0.01
    18   1    -0.10   0.02  -0.08     0.09  -0.10   0.11     0.00   0.02   0.00
    19   6    -0.01   0.00  -0.02    -0.06  -0.05   0.07     0.01   0.01  -0.01
    20   8    -0.09   0.01  -0.03     0.07  -0.04   0.10     0.01   0.00  -0.02
    21   8     0.02  -0.04   0.03    -0.10   0.01  -0.02     0.01   0.01  -0.01
    22   9     0.27  -0.12  -0.00     0.03   0.01  -0.02    -0.14   0.03   0.01
    23   9    -0.01  -0.13   0.03    -0.11   0.04   0.01    -0.06   0.20  -0.01
    24   9    -0.04   0.13   0.01     0.10  -0.02  -0.03     0.19  -0.17  -0.02
    25   9    -0.24   0.02   0.03    -0.03  -0.03   0.01     0.19   0.05  -0.04
                     16                     17                     18
                      A                      A                      A
 Frequencies --    248.4739               290.8723               293.4815
 Red. masses --     14.6590                17.8499                 6.2213
 Frc consts  --      0.5332                 0.8898                 0.3157
 IR Inten    --      0.2616                 5.9988                19.6445
  Atom  AN      X      Y      Z        X      Y      Z        X      Y      Z
     1   6    -0.01   0.00   0.05     0.22  -0.17  -0.07     0.01  -0.03   0.01
     2   6     0.00   0.01   0.11     0.06  -0.04  -0.02     0.01  -0.01   0.01
     3   6    -0.01  -0.01  -0.05     0.00   0.09   0.01    -0.01  -0.01   0.02
     4   6    -0.01  -0.02  -0.10    -0.00  -0.03   0.01     0.05  -0.04  -0.00
     5  16    -0.00  -0.02   0.05    -0.01  -0.00   0.02     0.04   0.04  -0.05
     6   8     0.10   0.03  -0.07    -0.02  -0.00   0.02    -0.05   0.06  -0.05
     7   8    -0.12  -0.11   0.08     0.01  -0.03   0.01    -0.09   0.18  -0.03
     8   9    -0.01  -0.13  -0.03    -0.24  -0.00   0.01     0.04  -0.01   0.01
     9   9    -0.04   0.16   0.01    -0.19  -0.04   0.02    -0.01  -0.00   0.01
    10   9     0.15   0.06  -0.01     0.01  -0.19   0.00    -0.00  -0.03   0.01
    11   9    -0.12  -0.03   0.02     0.00  -0.18  -0.10    -0.04  -0.03  -0.00
    12   9    -0.07  -0.03  -0.02     0.69   0.25  -0.05     0.03  -0.01   0.01
    13   7     0.03  -0.01   0.09    -0.09   0.08  -0.03     0.30  -0.22   0.14
    14   1     0.12  -0.20   0.17     0.03  -0.07   0.04    -0.32   0.56  -0.24
    15   6     0.05   0.06  -0.08     0.02  -0.00  -0.02    -0.03   0.10   0.07
    16   1     0.08   0.18  -0.14     0.05   0.05  -0.03    -0.11  -0.06   0.11
    17   1     0.05  -0.05  -0.19     0.06  -0.03  -0.03    -0.19   0.15   0.06
    18   1    -0.11   0.08  -0.11     0.04  -0.01   0.03    -0.20   0.12  -0.14
    19   6     0.02   0.04  -0.04     0.01  -0.01   0.00    -0.02   0.09  -0.01
    20   8    -0.09   0.02  -0.09     0.04   0.01   0.03    -0.17  -0.00  -0.14
    21   8     0.07  -0.03   0.01     0.01   0.01   0.01     0.04  -0.06  -0.01
    22   9     0.34   0.09  -0.08    -0.07  -0.04   0.01     0.09  -0.02  -0.01
    23   9    -0.41   0.00   0.10    -0.29   0.19   0.02    -0.07  -0.01   0.04
    24   9     0.41   0.02  -0.10    -0.07   0.11   0.04    -0.16  -0.01   0.05
    25   9    -0.27  -0.09   0.09    -0.01  -0.04   0.03     0.09  -0.05   0.02
                     19                     20                     21
                      A                      A                      A
 Frequencies --    299.1379               313.9770               334.3976
 Red. masses --      7.0174                 8.2710                 6.3512
 Frc consts  --      0.3700                 0.4804                 0.4184
 IR Inten    --      6.7324                20.4189                 5.6241
  Atom  AN      X      Y      Z        X      Y      Z        X      Y      Z
     1   6    -0.03  -0.01  -0.02    -0.00  -0.03   0.04    -0.03  -0.05  -0.03
     2   6     0.01  -0.02  -0.02     0.02  -0.01   0.03     0.05  -0.01  -0.01
     3   6    -0.03  -0.00  -0.03    -0.02   0.01   0.01    -0.03   0.03   0.02
     4   6     0.01  -0.05  -0.03     0.06  -0.02   0.00     0.01   0.08   0.01
     5  16    -0.10   0.02   0.04    -0.05   0.05  -0.07     0.07   0.01   0.02
     6   8    -0.17   0.04   0.04    -0.01   0.06  -0.11     0.03   0.02   0.02
     7   8    -0.02   0.02   0.02    -0.15   0.17  -0.06     0.11  -0.09   0.03
     8   9     0.03  -0.00  -0.01     0.15  -0.04   0.00     0.14  -0.01  -0.01
     9   9     0.16  -0.07  -0.02    -0.03   0.00   0.03     0.26  -0.06  -0.02
    10   9    -0.08  -0.04  -0.01     0.04  -0.03   0.03    -0.13  -0.10   0.01
    11   9    -0.01  -0.01  -0.02    -0.11  -0.05   0.02    -0.07  -0.07  -0.05
    12   9    -0.06  -0.03  -0.04     0.00  -0.03   0.05    -0.04  -0.05  -0.04
    13   7    -0.17   0.18   0.03    -0.15   0.10  -0.16     0.06  -0.04  -0.02
    14   1    -0.49   0.50  -0.13     0.40  -0.53   0.15     0.53  -0.57   0.24
    15   6     0.07   0.06  -0.02    -0.02  -0.11  -0.03    -0.03  -0.01   0.01
    16   1     0.21   0.23  -0.03    -0.02  -0.11  -0.04    -0.11  -0.10   0.01
    17   1     0.13  -0.05  -0.10     0.09  -0.07   0.04    -0.05   0.05   0.06
    18   1     0.03   0.04  -0.02     0.18  -0.10   0.17    -0.02  -0.01   0.02
    19   6     0.07   0.00  -0.02    -0.02  -0.08   0.02    -0.04   0.01   0.02
    20   8     0.03   0.04   0.01     0.15  -0.03   0.11    -0.02  -0.02  -0.01
    21   8     0.09   0.00   0.05    -0.09   0.06  -0.02    -0.05  -0.00  -0.03
    22   9     0.01  -0.00  -0.02     0.35  -0.07  -0.02    -0.05   0.12   0.03
    23   9    -0.17  -0.02   0.04     0.00   0.01   0.01    -0.21   0.07   0.05
    24   9     0.07   0.02  -0.03    -0.21   0.05   0.07    -0.09   0.06   0.04
    25   9     0.34  -0.13   0.02     0.02  -0.03   0.03    -0.01   0.15  -0.07
                     22                     23                     24
                      A                      A                      A
 Frequencies --    346.7134               365.5593               376.3196
 Red. masses --      3.8939                13.0323                 3.6296
 Frc consts  --      0.2758                 1.0261                 0.3028
 IR Inten    --     25.3539                 0.6413                11.8778
  Atom  AN      X      Y      Z        X      Y      Z        X      Y      Z
     1   6     0.00  -0.02   0.04     0.05   0.07   0.02     0.00   0.02  -0.02
     2   6     0.01  -0.01   0.01    -0.07  -0.08  -0.01    -0.01  -0.03   0.02
     3   6    -0.03   0.03  -0.03    -0.08  -0.07  -0.02    -0.02   0.02   0.05
     4   6    -0.05   0.02  -0.05     0.03   0.08  -0.07    -0.01   0.03   0.05
     5  16    -0.03  -0.05  -0.01     0.03  -0.00   0.01    -0.01   0.00   0.02
     6   8     0.08  -0.13   0.08    -0.07  -0.03   0.10     0.18   0.02  -0.09
     7   8    -0.01  -0.08  -0.02     0.10  -0.11   0.00    -0.06   0.05   0.02
     8   9     0.17  -0.04  -0.02    -0.11  -0.19  -0.10    -0.07  -0.10  -0.04
     9   9    -0.03  -0.01   0.01    -0.22  -0.20   0.08     0.07  -0.09   0.04
    10   9     0.07  -0.03   0.02     0.21   0.18  -0.05    -0.03   0.04  -0.02
    11   9    -0.10  -0.04   0.03     0.17   0.14   0.10     0.10   0.04  -0.01
    12   9     0.02  -0.02   0.06     0.00   0.02   0.04    -0.02   0.02  -0.06
    13   7    -0.05   0.04   0.03    -0.01   0.06  -0.02    -0.01  -0.07   0.02
    14   1    -0.57   0.63  -0.27     0.38  -0.33   0.18    -0.59   0.49  -0.27
    15   6     0.03   0.03  -0.01     0.00   0.04   0.03    -0.00  -0.07  -0.07
    16   1     0.11   0.12  -0.01    -0.02  -0.04   0.07     0.04   0.13  -0.17
    17   1     0.04  -0.03  -0.07    -0.04   0.11   0.07     0.14  -0.22  -0.16
    18   1     0.00   0.00  -0.05    -0.03   0.04  -0.03     0.08  -0.12   0.08
    19   6     0.04   0.00  -0.02     0.01   0.03   0.00    -0.06  -0.07   0.00
    20   8     0.00   0.03  -0.00    -0.02   0.01  -0.02     0.05  -0.04   0.06
    21   8     0.06  -0.01   0.03     0.03  -0.01   0.01    -0.11   0.02  -0.03
    22   9    -0.01   0.11  -0.05     0.11   0.27  -0.03     0.03   0.00   0.05
    23   9     0.04   0.03  -0.06    -0.16  -0.19   0.12    -0.04   0.07   0.02
    24   9    -0.09   0.12   0.02    -0.22  -0.12  -0.03     0.01   0.00   0.04
    25   9    -0.08   0.02  -0.06     0.18   0.13  -0.19    -0.00   0.07  -0.02
                     25                     26                     27
                      A                      A                      A
 Frequencies --    383.7825               402.8037               468.3476
 Red. masses --      9.3144                 8.8501                 5.9012
 Frc consts  --      0.8083                 0.8460                 0.7627
 IR Inten    --      1.4665                 0.4798                17.2307
  Atom  AN      X      Y      Z        X      Y      Z        X      Y      Z
     1   6     0.00   0.03   0.02     0.01  -0.01   0.04    -0.00   0.00  -0.03
     2   6    -0.01  -0.07  -0.02    -0.01   0.01  -0.09    -0.02   0.01  -0.13
     3   6    -0.01   0.07  -0.03    -0.02  -0.01  -0.13    -0.02   0.02  -0.01
     4   6    -0.02  -0.04   0.01    -0.01  -0.03  -0.05    -0.01   0.06   0.13
     5  16     0.01   0.01  -0.01     0.05   0.07   0.12    -0.04  -0.03   0.01
     6   8    -0.09   0.02  -0.00     0.05   0.22  -0.12     0.10  -0.02  -0.08
     7   8     0.04   0.04  -0.02     0.13  -0.01   0.12    -0.00   0.08  -0.00
     8   9     0.02  -0.21  -0.14     0.11   0.09  -0.03     0.02   0.13  -0.08
     9   9     0.01  -0.26   0.08    -0.13  -0.03  -0.06    -0.02  -0.11  -0.10
    10   9     0.09   0.12  -0.03     0.15  -0.01   0.00     0.09  -0.05  -0.04
    11   9     0.05   0.09   0.07    -0.14   0.01   0.07    -0.09   0.07   0.03
    12   9    -0.08  -0.03   0.02     0.03  -0.04   0.15     0.03  -0.04   0.14
    13   7     0.04  -0.01  -0.01     0.06  -0.09   0.10    -0.08  -0.05  -0.06
    14   1     0.46  -0.41   0.20    -0.12  -0.07   0.06    -0.16   0.01  -0.10
    15   6    -0.01   0.03   0.05     0.01  -0.04  -0.08    -0.06  -0.12   0.03
    16   1    -0.06  -0.14   0.12    -0.01   0.30  -0.33    -0.01  -0.51   0.34
    17   1    -0.12   0.15   0.12     0.27  -0.33  -0.25    -0.38   0.22   0.23
    18   1    -0.06   0.08  -0.06     0.07  -0.15   0.16    -0.07   0.06  -0.16
    19   6     0.03   0.04  -0.00    -0.13  -0.06   0.06     0.07  -0.03  -0.11
    20   8    -0.04   0.02  -0.04     0.04  -0.10   0.06    -0.06   0.09  -0.02
    21   8     0.06  -0.02   0.02    -0.22   0.03  -0.10     0.11   0.01   0.08
    22   9    -0.09  -0.18  -0.01    -0.16   0.02  -0.04     0.00  -0.08   0.14
    23   9    -0.02   0.23  -0.17    -0.05  -0.11  -0.06    -0.07  -0.02   0.05
    24   9     0.05   0.29   0.07     0.02   0.10  -0.10     0.08  -0.04  -0.06
    25   9    -0.04  -0.12   0.13     0.11  -0.09   0.01     0.03   0.15   0.02
                     28                     29                     30
                      A                      A                      A
 Frequencies --    488.2567               527.1058               534.7988
 Red. masses --      6.5439                 5.4024                15.3907
 Frc consts  --      0.9192                 0.8844                 2.5935
 IR Inten    --     45.9902                13.1428                24.8994
  Atom  AN      X      Y      Z        X      Y      Z        X      Y      Z
     1   6    -0.01   0.01   0.04     0.01  -0.01   0.03     0.11  -0.24  -0.08
     2   6    -0.02  -0.01   0.10     0.01  -0.01   0.03     0.13  -0.13  -0.04
     3   6    -0.06  -0.01  -0.04     0.00  -0.01  -0.04     0.14  -0.06   0.05
     4   6    -0.08  -0.03  -0.07     0.02   0.05  -0.03     0.09  -0.10  -0.05
     5  16    -0.06  -0.03   0.11     0.04   0.17  -0.01     0.05  -0.03   0.05
     6   8     0.08   0.10  -0.19     0.08   0.09   0.19    -0.03   0.06  -0.05
     7   8     0.20   0.12   0.07    -0.11  -0.22   0.02    -0.02   0.03   0.07
     8   9     0.02  -0.10   0.07     0.01  -0.03   0.02    -0.02   0.07   0.16
     9   9     0.00   0.10   0.07    -0.01   0.03   0.02    -0.01   0.06  -0.17
    10   9    -0.03   0.01   0.06    -0.02   0.04   0.02    -0.18   0.29  -0.26
    11   9     0.08  -0.08  -0.05     0.02  -0.04   0.01    -0.07   0.12   0.40
    12   9    -0.01   0.07  -0.10    -0.01   0.01  -0.05     0.16  -0.34  -0.12
    13   7    -0.12  -0.08   0.04     0.07  -0.03  -0.15    -0.07   0.02  -0.03
    14   1    -0.10  -0.23   0.10    -0.22   0.15  -0.26    -0.18   0.07  -0.07
    15   6    -0.07  -0.16   0.02     0.01  -0.14  -0.02    -0.01  -0.07  -0.00
    16   1     0.03  -0.47   0.32     0.02  -0.55   0.29     0.04  -0.20   0.14
    17   1    -0.39   0.12   0.16    -0.20   0.24   0.27    -0.13   0.07   0.08
    18   1    -0.10   0.06  -0.18    -0.06  -0.11  -0.15    -0.03   0.06   0.02
    19   6     0.06  -0.05  -0.12     0.01  -0.11  -0.12     0.02  -0.05  -0.07
    20   8    -0.08   0.09  -0.02    -0.06   0.04   0.04    -0.03   0.03   0.00
    21   8     0.09   0.02   0.07    -0.03   0.06   0.01     0.01   0.02   0.03
    22   9    -0.01   0.08  -0.05    -0.02  -0.07  -0.07    -0.01   0.12  -0.02
    23   9     0.05  -0.05  -0.06    -0.02  -0.05  -0.01    -0.03   0.10  -0.04
    24   9    -0.04   0.06  -0.01    -0.03   0.03  -0.04    -0.03  -0.02   0.16
    25   9     0.02  -0.08  -0.06     0.04  -0.01   0.09    -0.06  -0.08  -0.11
                     31                     32                     33
                      A                      A                      A
 Frequencies --    556.1870               581.3399               589.4977
 Red. masses --     13.5701                10.8482                 9.9837
 Frc consts  --      2.4733                 2.1601                 2.0441
 IR Inten    --      7.0245                51.4542                75.4256
  Atom  AN      X      Y      Z        X      Y      Z        X      Y      Z
     1   6     0.02  -0.11   0.13    -0.03   0.08   0.06    -0.08   0.02  -0.09
     2   6    -0.04  -0.10   0.03    -0.01  -0.06  -0.03    -0.11  -0.14   0.04
     3   6    -0.11  -0.01  -0.19     0.02  -0.19  -0.03    -0.14  -0.16   0.06
     4   6    -0.06   0.13   0.17     0.10  -0.19   0.11    -0.15  -0.00   0.04
     5  16    -0.06  -0.04  -0.06     0.20  -0.05   0.03    -0.16   0.11  -0.07
     6   8     0.04  -0.11  -0.01    -0.14   0.05  -0.02     0.10  -0.03   0.09
     7   8     0.01   0.05  -0.09    -0.21   0.02   0.11     0.11  -0.06  -0.13
     8   9     0.09  -0.04   0.15    -0.01   0.02   0.07    -0.01  -0.04   0.22
     9   9    -0.04   0.09  -0.08    -0.06   0.01  -0.09     0.02   0.07  -0.15
    10   9    -0.03   0.23   0.06     0.08  -0.02   0.11     0.04  -0.11  -0.14
    11   9     0.06  -0.20   0.17     0.04  -0.06  -0.09     0.05   0.12  -0.03
    12   9     0.04   0.00  -0.24    -0.09   0.12   0.00     0.03   0.04   0.13
    13   7     0.03  -0.02   0.03     0.01   0.07  -0.19     0.06  -0.04   0.14
    14   1     0.16  -0.04   0.06    -0.17   0.21  -0.28     0.26  -0.18   0.23
    15   6    -0.03   0.11  -0.00    -0.02  -0.00  -0.04     0.11  -0.03   0.06
    16   1    -0.12   0.31  -0.21    -0.09  -0.21   0.06     0.18   0.09   0.03
    17   1     0.11  -0.09  -0.14    -0.08   0.19   0.12     0.17  -0.13  -0.02
    18   1     0.08  -0.02   0.07     0.04   0.21   0.33    -0.12  -0.21  -0.39
    19   6    -0.02   0.10   0.10    -0.01  -0.01  -0.03     0.03  -0.05   0.02
    20   8     0.07  -0.03  -0.02     0.03  -0.01  -0.00    -0.08  -0.00   0.03
    21   8     0.03  -0.07  -0.00    -0.00  -0.00   0.04    -0.04   0.07  -0.09
    22   9    -0.02  -0.17   0.18    -0.01   0.10   0.25     0.09   0.01   0.08
    23   9    -0.09  -0.23  -0.12    -0.09  -0.05  -0.25    -0.03  -0.01  -0.21
    24   9     0.00   0.19  -0.20     0.09   0.10   0.16     0.07   0.04   0.19
    25   9     0.09   0.25   0.11    -0.01  -0.00  -0.21     0.06  -0.01  -0.07
                     34                     35                     36
                      A                      A                      A
 Frequencies --    597.9279               615.7057               654.8639
 Red. masses --      5.8636                14.0158                10.9801
 Frc consts  --      1.2351                 3.1305                 2.7743
 IR Inten    --     30.9841                27.8301                 6.2283
  Atom  AN      X      Y      Z        X      Y      Z        X      Y      Z
     1   6     0.02  -0.01   0.06     0.00   0.02  -0.20     0.11  -0.01  -0.02
     2   6     0.02   0.03  -0.03     0.03   0.01   0.19     0.10   0.22   0.04
     3   6     0.03   0.02  -0.01    -0.01   0.05  -0.14    -0.00  -0.02  -0.05
     4   6     0.03  -0.01   0.03     0.06   0.05   0.04    -0.03  -0.20   0.11
     5  16     0.03  -0.06  -0.03     0.14  -0.11   0.02    -0.10   0.11  -0.04
     6   8    -0.06  -0.06  -0.02    -0.10  -0.03  -0.06     0.05   0.03   0.08
     7   8    -0.01   0.06  -0.02    -0.10   0.07   0.07     0.02  -0.05  -0.09
     8   9     0.01   0.04  -0.06    -0.02  -0.24   0.13    -0.03   0.04  -0.25
     9   9    -0.02  -0.04   0.00     0.06   0.21   0.24     0.01   0.06   0.32
    10   9     0.00   0.06   0.08    -0.09  -0.18  -0.25    -0.09   0.02   0.02
    11   9    -0.01  -0.08   0.02    -0.01   0.28  -0.07    -0.09   0.03   0.01
    12   9    -0.02   0.01  -0.07     0.08  -0.10   0.18     0.08  -0.15  -0.05
    13   7     0.01   0.10   0.12    -0.00   0.09  -0.06     0.03  -0.05   0.05
    14   1     0.14   0.09   0.16    -0.05   0.18  -0.10     0.10  -0.13   0.08
    15   6     0.27  -0.11   0.12     0.09  -0.03   0.03    -0.02   0.03  -0.01
    16   1     0.48   0.00   0.21     0.13  -0.06   0.08    -0.03   0.03  -0.02
    17   1     0.32  -0.15   0.10     0.11   0.03   0.09    -0.03  -0.00  -0.04
    18   1    -0.31   0.11  -0.26    -0.11   0.30   0.22     0.06  -0.44  -0.41
    19   6     0.09  -0.17  -0.06     0.03  -0.05  -0.02    -0.02   0.00   0.00
    20   8    -0.21  -0.02   0.06    -0.06  -0.03   0.01     0.02   0.03   0.02
    21   8    -0.09   0.22  -0.16    -0.03   0.08  -0.04    -0.00  -0.03   0.01
    22   9    -0.01   0.00   0.04    -0.06  -0.06   0.04     0.03   0.05   0.32
    23   9    -0.00   0.00   0.03    -0.02  -0.17  -0.04     0.03  -0.09  -0.06
    24   9     0.00  -0.01  -0.03    -0.06   0.15  -0.22     0.04   0.05  -0.07
    25   9    -0.03   0.02  -0.02     0.00   0.11   0.08    -0.01  -0.12  -0.23
                     37                     38                     39
                      A                      A                      A
 Frequencies --    692.2865               709.6835               745.5566
 Red. masses --      1.4175                14.6949                13.6932
 Frc consts  --      0.4003                 4.3606                 4.4845
 IR Inten    --     87.0329                26.9414                59.2811
  Atom  AN      X      Y      Z        X      Y      Z        X      Y      Z
     1   6    -0.00  -0.01  -0.00     0.19   0.09  -0.01     0.20   0.13  -0.00
     2   6    -0.01   0.01   0.00     0.22   0.07  -0.01     0.25  -0.18  -0.03
     3   6    -0.02   0.00   0.01     0.16  -0.28  -0.02     0.29   0.06  -0.09
     4   6    -0.03  -0.01   0.00     0.15   0.15  -0.07     0.21  -0.09   0.02
     5  16    -0.03   0.02  -0.00    -0.04  -0.02  -0.00    -0.07   0.07  -0.04
     6   8     0.02   0.01   0.01     0.05  -0.04  -0.02     0.06   0.02   0.05
     7   8     0.01  -0.03  -0.01     0.05   0.02  -0.04     0.04  -0.03  -0.10
     8   9     0.00   0.01  -0.02    -0.08   0.08  -0.13    -0.05  -0.15   0.25
     9   9     0.01   0.00   0.01    -0.06   0.04   0.15    -0.09  -0.05  -0.21
    10   9    -0.00   0.00  -0.01    -0.05   0.02   0.18     0.00   0.02   0.27
    11   9    -0.00  -0.01   0.01    -0.10   0.10  -0.13    -0.06   0.20  -0.25
    12   9     0.01  -0.00  -0.00     0.00  -0.17  -0.04    -0.08  -0.13  -0.01
    13   7    -0.01  -0.02  -0.03    -0.09  -0.02   0.09    -0.09  -0.05   0.12
    14   1    -0.05  -0.01  -0.04    -0.08   0.01   0.09    -0.06  -0.07   0.13
    15   6     0.01  -0.06   0.01    -0.03  -0.05   0.02    -0.05  -0.07   0.02
    16   1    -0.05  -0.04  -0.04     0.04   0.11  -0.03     0.01   0.10  -0.04
    17   1     0.02  -0.05   0.03    -0.03  -0.17  -0.09    -0.07  -0.20  -0.11
    18   1    -0.10   0.74   0.64    -0.03   0.21   0.15    -0.02   0.22   0.16
    19   6     0.04   0.05   0.07     0.02   0.01   0.01     0.01   0.01   0.01
    20   8    -0.03  -0.06  -0.04    -0.01  -0.00  -0.02    -0.00   0.00  -0.03
    21   8     0.03   0.03  -0.03     0.02   0.00   0.00     0.03  -0.00   0.01
    22   9     0.01   0.00   0.01    -0.03  -0.04  -0.22    -0.04   0.00   0.13
    23   9     0.01   0.00   0.00    -0.14  -0.16  -0.31    -0.02   0.08   0.16
    24   9     0.01  -0.00  -0.00     0.02  -0.05   0.34    -0.09   0.08  -0.19
    25   9     0.01  -0.02  -0.02     0.06   0.23   0.21    -0.06  -0.05  -0.07
                     40                     41                     42
                      A                      A                      A
 Frequencies --    765.5620               801.9353               865.9466
 Red. masses --      3.3862                 9.0637                 5.8625
 Frc consts  --      1.1693                 3.4343                 2.5901
 IR Inten    --      3.7742                70.0211                10.6258
  Atom  AN      X      Y      Z        X      Y      Z        X      Y      Z
     1   6     0.02   0.01  -0.00    -0.15  -0.06   0.00     0.01   0.01  -0.00
     2   6     0.01  -0.00  -0.00     0.12   0.00  -0.01    -0.14   0.02   0.01
     3   6     0.00  -0.00  -0.00     0.29  -0.04  -0.07    -0.19   0.03   0.05
     4   6    -0.01   0.01  -0.01     0.33  -0.07  -0.01    -0.11  -0.02   0.03
     5  16    -0.01  -0.01   0.04     0.02   0.05  -0.05     0.19   0.03  -0.07
     6   8     0.01   0.02  -0.02     0.04   0.04   0.05    -0.04   0.05   0.05
     7   8    -0.02   0.00   0.06     0.00  -0.01  -0.10    -0.06  -0.00  -0.05
     8   9    -0.00  -0.00   0.01    -0.01   0.01  -0.03     0.02   0.00  -0.00
     9   9    -0.00  -0.00  -0.01    -0.00   0.03   0.06     0.02  -0.01  -0.02
    10   9    -0.00   0.00   0.02     0.01  -0.07  -0.23     0.00   0.02   0.06
    11   9    -0.01   0.01  -0.02     0.07  -0.15   0.15    -0.01   0.04  -0.03
    12   9     0.00  -0.02  -0.00    -0.13   0.23   0.08     0.07  -0.07  -0.03
    13   7    -0.04  -0.02  -0.17    -0.19  -0.05   0.15    -0.16   0.00   0.15
    14   1    -0.14  -0.01  -0.19    -0.15  -0.06   0.17    -0.05  -0.01   0.18
    15   6    -0.01  -0.06   0.04    -0.12  -0.15   0.06    -0.10  -0.26   0.12
    16   1    -0.25  -0.03  -0.17    -0.04   0.21  -0.14    -0.00   0.25  -0.17
    17   1     0.12  -0.09   0.06    -0.08  -0.47  -0.22     0.05  -0.68  -0.21
    18   1    -0.13  -0.40  -0.67    -0.03  -0.01  -0.17     0.04  -0.07  -0.19
    19   6     0.10   0.17   0.26     0.04   0.05   0.06    -0.03   0.05   0.03
    20   8    -0.08  -0.07   0.03    -0.02   0.02  -0.04     0.01   0.11  -0.11
    21   8     0.09   0.03  -0.14     0.06  -0.01  -0.01     0.02  -0.05   0.03
    22   9    -0.00   0.00  -0.01    -0.05   0.00   0.02     0.02   0.00  -0.03
    23   9     0.00   0.00   0.00    -0.06  -0.02  -0.01     0.03   0.00  -0.00
    24   9    -0.00  -0.00   0.00    -0.05   0.02  -0.00     0.03  -0.01  -0.01
    25   9     0.00  -0.01  -0.00    -0.04   0.03   0.01     0.02   0.01   0.01
                     43                     44                     45
                      A                      A                      A
 Frequencies --    891.9849              1012.7019              1051.3529
 Red. masses --      6.1448                 2.4186                11.6150
 Frc consts  --      2.8805                 1.4614                 7.5642
 IR Inten    --     41.5078                 4.0199                66.0668
  Atom  AN      X      Y      Z        X      Y      Z        X      Y      Z
     1   6     0.00  -0.00  -0.00     0.01   0.00  -0.00    -0.25  -0.06   0.02
     2   6     0.05  -0.01  -0.00     0.04  -0.01  -0.00    -0.54   0.05   0.02
     3   6     0.06  -0.01  -0.02     0.02  -0.01  -0.00    -0.03   0.11  -0.01
     4   6     0.02   0.02  -0.01    -0.04   0.03  -0.01     0.59  -0.12   0.00
     5  16    -0.09  -0.02   0.04    -0.03   0.00   0.01    -0.10  -0.02   0.05
     6   8     0.02  -0.02  -0.02     0.01  -0.00  -0.01     0.05   0.06   0.02
     7   8     0.02   0.00   0.04     0.00  -0.01   0.06     0.01  -0.00  -0.07
     8   9    -0.01  -0.00   0.00    -0.01   0.00  -0.00     0.07  -0.01  -0.00
     9   9    -0.01   0.00   0.00    -0.01   0.00   0.00     0.07   0.01   0.01
    10   9    -0.00  -0.01  -0.02    -0.00  -0.00  -0.01     0.05   0.05   0.10
    11   9     0.00  -0.01   0.01    -0.00  -0.01   0.00     0.02   0.08  -0.06
    12   9    -0.02   0.02   0.01    -0.01   0.01   0.00     0.17  -0.11  -0.05
    13   7     0.08   0.06  -0.12     0.06  -0.02  -0.12     0.01  -0.04  -0.08
    14   1     0.10   0.13  -0.14     0.25   0.12  -0.13     0.05  -0.00  -0.09
    15   6     0.27  -0.21   0.14    -0.14   0.03   0.18     0.01   0.07   0.08
    16   1     0.22  -0.18   0.09    -0.20   0.56  -0.25    -0.03   0.18  -0.03
    17   1     0.56  -0.12   0.33     0.39  -0.41  -0.04     0.25  -0.01   0.09
    18   1     0.18  -0.05   0.02    -0.05   0.18  -0.10    -0.01   0.09  -0.02
    19   6    -0.20   0.14   0.08     0.05  -0.14  -0.10     0.01  -0.05  -0.03
    20   8     0.06   0.21  -0.23    -0.00   0.05  -0.02    -0.00   0.02  -0.01
    21   8    -0.13  -0.14   0.06     0.03   0.03   0.02    -0.00   0.01   0.01
    22   9    -0.00  -0.00   0.02     0.00  -0.00   0.01    -0.07   0.02  -0.02
    23   9    -0.01  -0.00   0.00    -0.00   0.00   0.00    -0.01  -0.03  -0.03
    24   9    -0.01   0.00   0.00    -0.00   0.00  -0.00     0.02  -0.03   0.04
    25   9    -0.01  -0.01  -0.01     0.00  -0.01  -0.01    -0.07   0.01   0.00
                     46                     47                     48
                      A                      A                      A
 Frequencies --   1120.4200              1145.4846              1172.5337
 Red. masses --      4.0970                 7.0863                12.9451
 Frc consts  --      3.0302                 5.4784                10.4859
 IR Inten    --    117.3862                 6.9521               170.7767
  Atom  AN      X      Y      Z        X      Y      Z        X      Y      Z
     1   6    -0.07  -0.04   0.01     0.18   0.11  -0.02     0.21  -0.14  -0.01
     2   6    -0.07  -0.07   0.01     0.10   0.27  -0.02    -0.00   0.35   0.02
     3   6     0.10   0.02  -0.03    -0.22   0.04   0.05     0.06   0.58  -0.09
     4   6     0.01   0.17  -0.05     0.10  -0.27   0.03     0.00   0.37  -0.11
     5  16    -0.03   0.01  -0.01    -0.06  -0.07   0.07     0.04  -0.03   0.00
     6   8    -0.02  -0.06  -0.02     0.02   0.11   0.06     0.01   0.05   0.03
     7   8     0.02   0.00   0.07    -0.01   0.00  -0.13    -0.02  -0.00  -0.06
     8   9     0.01   0.03  -0.02    -0.01  -0.09   0.08     0.01  -0.12   0.09
     9   9     0.01   0.02   0.02    -0.02  -0.07  -0.07    -0.01  -0.09  -0.10
    10   9     0.01   0.01   0.02    -0.04  -0.03  -0.05    -0.03  -0.00  -0.02
    11   9     0.01   0.03  -0.02    -0.03  -0.07   0.05    -0.02   0.00   0.00
    12   9     0.02  -0.01  -0.01    -0.04   0.02   0.01    -0.07   0.07   0.02
    13   7     0.16   0.21   0.07     0.16   0.15   0.00    -0.07  -0.07  -0.00
    14   1     0.49   0.54   0.04     0.53   0.46  -0.01    -0.18  -0.14  -0.01
    15   6    -0.14  -0.21  -0.13    -0.10  -0.15  -0.07     0.03   0.06   0.03
    16   1    -0.03  -0.08  -0.12    -0.07  -0.01  -0.14     0.07   0.03   0.08
    17   1    -0.34  -0.19  -0.18    -0.09  -0.11  -0.04     0.05   0.04   0.02
    18   1    -0.00  -0.07   0.03    -0.00  -0.04   0.02     0.00   0.01   0.01
    19   6    -0.01   0.07  -0.02    -0.01   0.05  -0.04     0.00  -0.01   0.01
    20   8    -0.01  -0.04   0.03    -0.01  -0.03   0.03     0.00   0.01  -0.01
    21   8     0.03   0.00  -0.01     0.03   0.01  -0.00    -0.01  -0.00   0.00
    22   9    -0.00  -0.03   0.06    -0.01   0.04  -0.07    -0.00  -0.06   0.13
    23   9    -0.02  -0.01  -0.01     0.03  -0.01  -0.01    -0.06  -0.19  -0.14
    24   9    -0.01  -0.01   0.02     0.03  -0.00  -0.01     0.02  -0.15   0.19
    25   9    -0.01  -0.07  -0.03     0.00   0.11   0.05    -0.03  -0.17  -0.07
                     49                     50                     51
                      A                      A                      A
 Frequencies --   1185.3083              1193.5190              1211.0322
 Red. masses --     13.9006                12.5560                13.1652
 Frc consts  --     11.5066                10.5381                11.3760
 IR Inten    --    125.7075                13.5636                43.2511
  Atom  AN      X      Y      Z        X      Y      Z        X      Y      Z
     1   6     0.11   0.12  -0.05     0.03  -0.02   0.02    -0.02  -0.20  -0.44
     2   6    -0.05   0.30  -0.10     0.02  -0.05  -0.43     0.03  -0.10   0.12
     3   6    -0.09  -0.01   0.21    -0.02  -0.03  -0.03     0.14   0.12   0.71
     4   6     0.22  -0.05   0.14     0.04   0.26   0.70    -0.02  -0.01   0.04
     5  16    -0.03   0.21  -0.18    -0.01  -0.06   0.01    -0.01  -0.05   0.02
     6   8    -0.07  -0.37  -0.18     0.03   0.08   0.05     0.01   0.08   0.04
     7   8     0.10  -0.00   0.50    -0.03   0.01  -0.08    -0.00   0.00  -0.05
     8   9    -0.01  -0.10   0.09    -0.00  -0.06   0.08    -0.02   0.06  -0.05
     9   9    -0.00  -0.06  -0.05     0.01   0.08   0.14     0.02  -0.01  -0.03
    10   9    -0.02  -0.02  -0.02     0.01   0.01   0.01     0.05   0.07   0.16
    11   9    -0.02  -0.07   0.05    -0.01  -0.01   0.00     0.00  -0.01   0.04
    12   9    -0.00  -0.00   0.00    -0.02   0.02   0.00    -0.06   0.06   0.05
    13   7    -0.02   0.01   0.05     0.01   0.00  -0.02     0.01   0.00  -0.01
    14   1    -0.24  -0.15   0.05     0.18   0.05  -0.00     0.08   0.04  -0.01
    15   6    -0.01   0.00  -0.02    -0.01  -0.00   0.00    -0.00  -0.00   0.00
    16   1    -0.06  -0.11   0.00     0.12   0.07   0.05     0.02   0.02  -0.00
    17   1    -0.21  -0.04  -0.13    -0.00  -0.02  -0.01     0.04   0.01   0.03
    18   1    -0.02   0.07  -0.04     0.01  -0.02   0.04     0.00  -0.01   0.01
    19   6     0.03  -0.05   0.06    -0.01   0.02  -0.01    -0.01   0.01  -0.02
    20   8     0.02   0.03  -0.03    -0.00  -0.01   0.01    -0.00  -0.01   0.01
    21   8    -0.02  -0.01   0.00     0.01   0.00  -0.00     0.00   0.00  -0.00
    22   9    -0.01   0.02  -0.07    -0.01   0.05  -0.26     0.02   0.02  -0.06
    23   9    -0.00  -0.04  -0.05    -0.03  -0.00   0.00    -0.06  -0.15  -0.17
    24   9     0.02   0.03  -0.06     0.02   0.01  -0.01    -0.03   0.10  -0.21
    25   9    -0.02  -0.01  -0.01    -0.02  -0.18  -0.13    -0.01  -0.02  -0.01
                     52                     53                     54
                      A                      A                      A
 Frequencies --   1223.9199              1235.2778              1249.9421
 Red. masses --     12.2017                12.4670                 1.7494
 Frc consts  --     10.7690                11.2084                 1.6103
 IR Inten    --    161.8757               245.9802                21.2156
  Atom  AN      X      Y      Z        X      Y      Z        X      Y      Z
     1   6     0.05   0.34  -0.10    -0.16   0.67  -0.11     0.02  -0.03   0.02
     2   6     0.08  -0.06   0.66    -0.07   0.07  -0.31    -0.00   0.00  -0.01
     3   6    -0.14  -0.08  -0.10     0.14  -0.08   0.19    -0.01  -0.01   0.01
     4   6     0.20   0.27   0.27    -0.04   0.22  -0.25     0.01  -0.01  -0.02
     5  16    -0.00  -0.02  -0.01     0.02  -0.04   0.03    -0.00   0.01  -0.01
     6   8     0.01   0.03   0.01     0.01   0.06   0.03     0.00  -0.01  -0.01
     7   8    -0.01   0.00  -0.01    -0.02   0.00  -0.08     0.01  -0.00   0.03
     8   9    -0.01   0.10  -0.14    -0.02  -0.09   0.10     0.00   0.00   0.00
     9   9    -0.04  -0.09  -0.19     0.01   0.02   0.06     0.00   0.00   0.00
    10   9    -0.04  -0.05  -0.04     0.01  -0.05  -0.02    -0.00   0.00  -0.01
    11   9    -0.00  -0.09   0.07    -0.02  -0.19   0.14    -0.00   0.01  -0.01
    12   9     0.03  -0.05  -0.01     0.13  -0.15  -0.04    -0.01   0.01   0.00
    13   7    -0.02  -0.03  -0.02    -0.04  -0.04  -0.02    -0.03  -0.06  -0.07
    14   1     0.06   0.01  -0.01    -0.04  -0.01  -0.03     0.18   0.09  -0.08
    15   6     0.01   0.01   0.02     0.02   0.02   0.03     0.04   0.00   0.08
    16   1     0.18   0.08   0.11     0.15   0.08   0.10     0.50   0.26   0.27
    17   1    -0.05  -0.03  -0.05     0.00  -0.02  -0.02    -0.25  -0.21  -0.23
    18   1     0.01  -0.05   0.06     0.03  -0.09   0.09     0.11  -0.40   0.40
    19   6    -0.01   0.02  -0.01    -0.02   0.03  -0.03    -0.06   0.13  -0.10
    20   8    -0.00  -0.01   0.01    -0.01  -0.02   0.01    -0.04  -0.06   0.05
    21   8     0.00   0.00  -0.00     0.01   0.00  -0.00     0.04   0.01  -0.01
    22   9    -0.02   0.00  -0.07     0.01  -0.04   0.12     0.00  -0.00   0.00
    23   9     0.01   0.00   0.02    -0.02  -0.01  -0.02     0.00   0.00   0.00
    24   9    -0.00   0.03  -0.01    -0.02   0.02  -0.04     0.00   0.00  -0.00
    25   9    -0.03  -0.14  -0.08    -0.01  -0.06  -0.01     0.00   0.01   0.00
                     55                     56                     57
                      A                      A                      A
 Frequencies --   1260.0672              1277.6865              1306.4202
 Red. masses --     12.8285                11.9879                 1.3992
 Frc consts  --     12.0009                11.5304                 1.4070
 IR Inten    --    432.4587                69.5297                 7.8318
  Atom  AN      X      Y      Z        X      Y      Z        X      Y      Z
     1   6     0.01   0.05   0.78    -0.35   0.10   0.01     0.03  -0.01   0.00
     2   6     0.03  -0.02   0.05    -0.06   0.28   0.18    -0.02   0.01   0.01
     3   6     0.08   0.04   0.43     0.52   0.14  -0.13     0.01  -0.02   0.00
     4   6     0.01   0.05   0.01    -0.37  -0.28   0.29     0.00   0.02   0.01
     5  16    -0.00  -0.03  -0.00    -0.00   0.01  -0.01     0.01   0.01   0.01
     6   8     0.01   0.05   0.02    -0.00  -0.00   0.00    -0.01  -0.04  -0.02
     7   8    -0.00   0.00  -0.02     0.00  -0.00   0.03     0.00   0.00  -0.03
     8   9     0.01   0.05  -0.04     0.01  -0.06   0.02     0.00  -0.00   0.00
     9   9    -0.02  -0.05  -0.06    -0.01  -0.08  -0.10     0.00  -0.00  -0.00
    10   9    -0.07  -0.09  -0.24     0.03   0.00   0.02    -0.00  -0.00  -0.00
    11   9     0.01   0.11  -0.14     0.02   0.00  -0.00    -0.00   0.00   0.00
    12   9     0.05  -0.05  -0.06     0.11  -0.08  -0.03    -0.00   0.00   0.00
    13   7     0.00   0.01   0.01     0.03   0.01  -0.02     0.02   0.03   0.04
    14   1    -0.01  -0.00   0.01     0.11   0.01  -0.00    -0.30  -0.23   0.06
    15   6    -0.00   0.00  -0.01     0.00  -0.02   0.02    -0.01  -0.03   0.02
    16   1    -0.06  -0.03  -0.03     0.02   0.03  -0.01    -0.39  -0.13  -0.22
    17   1     0.06   0.05   0.05    -0.02  -0.06  -0.03     0.49   0.06   0.28
    18   1    -0.02   0.09  -0.08     0.04  -0.13   0.13     0.11  -0.37   0.37
    19   6     0.01  -0.02   0.01    -0.02   0.03  -0.03    -0.04   0.05  -0.09
    20   8     0.01   0.01  -0.01    -0.01  -0.01   0.01    -0.04  -0.02   0.02
    21   8    -0.01  -0.00   0.00     0.02   0.00  -0.00     0.06   0.02  -0.01
    22   9     0.01   0.01  -0.02     0.02   0.05  -0.14    -0.00  -0.00  -0.00
    23   9    -0.03  -0.08  -0.10    -0.05  -0.05  -0.03    -0.00   0.00   0.00
    24   9    -0.02   0.06  -0.12    -0.03  -0.02   0.04    -0.00   0.00  -0.01
    25   9    -0.01  -0.03  -0.01     0.04   0.08   0.01    -0.00  -0.01  -0.00
                     58                     59                     60
                      A                      A                      A
 Frequencies --   1309.2858              1371.8643              1377.6330
 Red. masses --     10.2946                 3.5024                 1.8021
 Frc consts  --     10.3975                 3.8836                 2.0151
 IR Inten    --     32.7397               101.7127                59.5151
  Atom  AN      X      Y      Z        X      Y      Z        X      Y      Z
     1   6    -0.36   0.14   0.02     0.23   0.13  -0.00     0.10   0.06  -0.00
     2   6     0.43  -0.31  -0.07    -0.17  -0.20  -0.00    -0.07  -0.09  -0.00
     3   6    -0.27   0.46  -0.01     0.09   0.14  -0.02     0.04   0.07  -0.02
     4   6     0.08  -0.15   0.02    -0.03  -0.10   0.03    -0.02  -0.06   0.01
     5  16    -0.01   0.04  -0.03    -0.02   0.00  -0.00     0.00   0.00  -0.03
     6   8    -0.01  -0.05  -0.02     0.00   0.00   0.00     0.00   0.01   0.01
     7   8     0.02  -0.00   0.06     0.01  -0.00   0.01     0.01  -0.00   0.04
     8   9    -0.03   0.04  -0.03     0.01   0.04  -0.03     0.01   0.02  -0.01
     9   9    -0.02   0.04   0.05     0.02   0.03   0.03     0.01   0.02   0.02
    10   9     0.04  -0.00   0.02    -0.03  -0.02  -0.03    -0.01  -0.01  -0.01
    11   9     0.03  -0.01  -0.00    -0.02  -0.04   0.03    -0.01  -0.02   0.01
    12   9     0.06  -0.06  -0.02    -0.04   0.01   0.01    -0.02   0.01   0.00
    13   7     0.02   0.02   0.01     0.02   0.03  -0.01    -0.02  -0.03   0.02
    14   1    -0.09  -0.08   0.02    -0.01  -0.01  -0.01     0.13   0.09   0.01
    15   6     0.00  -0.02   0.01     0.09   0.01   0.05    -0.10  -0.01  -0.07
    16   1    -0.18  -0.06  -0.11    -0.39  -0.01  -0.32     0.41  -0.03   0.35
    17   1     0.11  -0.02   0.05    -0.57  -0.06  -0.25     0.67   0.06   0.27
    18   1     0.07  -0.23   0.23     0.10  -0.26   0.26    -0.09   0.21  -0.22
    19   6    -0.02   0.02  -0.04     0.03  -0.06   0.03    -0.03   0.06  -0.02
    20   8    -0.02  -0.01   0.01    -0.02   0.03  -0.03     0.02  -0.03   0.03
    21   8     0.03   0.01  -0.00    -0.01   0.01  -0.00     0.01  -0.01   0.00
    22   9    -0.01   0.01  -0.02     0.00   0.01  -0.02     0.00   0.01  -0.01
    23   9    -0.00  -0.09  -0.06    -0.02  -0.02  -0.02    -0.01  -0.01  -0.01
    24   9     0.03  -0.07   0.08    -0.00  -0.02   0.02    -0.00  -0.01   0.01
    25   9    -0.01   0.03   0.01     0.00   0.02   0.01     0.00   0.02   0.01
                     61                     62                     63
                      A                      A                      A
 Frequencies --   1392.0070              1409.2768              1473.7651
 Red. masses --      2.2687                 3.7282                 1.6063
 Frc consts  --      2.5900                 4.3625                 2.0556
 IR Inten    --    165.4530               285.6137               150.6559
  Atom  AN      X      Y      Z        X      Y      Z        X      Y      Z
     1   6    -0.02  -0.02  -0.00     0.01   0.01   0.01    -0.00   0.00   0.00
     2   6     0.01   0.02  -0.00    -0.00  -0.01   0.00     0.00  -0.00   0.00
     3   6    -0.01  -0.03  -0.01     0.01   0.02   0.02     0.00   0.01   0.01
     4   6     0.00   0.01  -0.02    -0.00  -0.01   0.02    -0.00   0.00   0.01
     5  16    -0.02  -0.05  -0.07     0.03   0.08   0.13     0.02   0.05   0.05
     6   8     0.02   0.10   0.06    -0.03  -0.16  -0.09    -0.01  -0.06  -0.04
     7   8     0.02   0.01   0.09    -0.03  -0.01  -0.15    -0.01  -0.01  -0.04
     8   9    -0.00  -0.00   0.00     0.00   0.00  -0.00    -0.00   0.00  -0.00
     9   9    -0.00  -0.00  -0.00     0.00   0.00  -0.00    -0.00  -0.00  -0.00
    10   9     0.00   0.00   0.00    -0.00  -0.00  -0.00    -0.00  -0.00  -0.00
    11   9     0.00   0.00  -0.00    -0.00  -0.00   0.00     0.00  -0.00  -0.00
    12   9     0.00  -0.00  -0.00    -0.00  -0.00  -0.00     0.00  -0.00  -0.00
    13   7    -0.05  -0.04   0.03     0.05   0.01  -0.03    -0.11  -0.09   0.02
    14   1     0.35   0.31   0.00    -0.06  -0.09  -0.01     0.60   0.56  -0.03
    15   6    -0.04   0.04  -0.07    -0.14   0.00  -0.07     0.07  -0.00  -0.02
    16   1    -0.03  -0.18   0.09     0.59   0.17   0.41    -0.25   0.02  -0.29
    17   1     0.26   0.07   0.06     0.07  -0.01  -0.00     0.03   0.29   0.23
    18   1     0.20  -0.51   0.53     0.16  -0.33   0.36    -0.01   0.04  -0.05
    19   6     0.05  -0.11   0.11     0.08  -0.12   0.16    -0.01   0.01  -0.02
    20   8    -0.05   0.07  -0.07    -0.04   0.08  -0.08     0.00  -0.01   0.01
    21   8     0.03   0.03  -0.02     0.00   0.02  -0.02     0.00  -0.00   0.00
    22   9     0.00  -0.00   0.01    -0.00   0.00  -0.01    -0.00   0.00  -0.00
    23   9     0.00   0.01   0.01    -0.00  -0.01  -0.01    -0.00  -0.00  -0.00
    24   9     0.00   0.00  -0.00    -0.00   0.00  -0.00     0.00  -0.00  -0.00
    25   9     0.00   0.00   0.00     0.00  -0.00  -0.00     0.00  -0.00  -0.00
                     64                     65                     66
                      A                      A                      A
 Frequencies --   1484.4203              1876.2729              3106.8919
 Red. masses --      1.1104                 9.7171                 1.0630
 Frc consts  --      1.4416                20.1548                 6.0454
 IR Inten    --     13.4397               411.2310                 2.8296
  Atom  AN      X      Y      Z        X      Y      Z        X      Y      Z
     1   6     0.00  -0.00  -0.00    -0.00  -0.00  -0.00     0.00   0.00   0.00
     2   6    -0.00  -0.00  -0.00    -0.00   0.00  -0.00    -0.00  -0.00   0.00
     3   6    -0.00  -0.00  -0.00    -0.00  -0.00  -0.00     0.00   0.00  -0.00
     4   6    -0.00  -0.00  -0.00    -0.00   0.00  -0.00    -0.00  -0.00   0.00
     5  16    -0.00  -0.01  -0.02    -0.00  -0.00  -0.01     0.00   0.00  -0.00
     6   8     0.00   0.02   0.01     0.00   0.00   0.00    -0.00  -0.00   0.00
     7   8     0.00   0.00   0.02     0.01   0.00   0.01     0.00   0.00   0.00
     8   9     0.00  -0.00   0.00     0.00  -0.00   0.00    -0.00   0.00  -0.00
     9   9     0.00   0.00   0.00     0.00  -0.00  -0.00    -0.00   0.00  -0.00
    10   9     0.00   0.00   0.00     0.00   0.00   0.00    -0.00  -0.00  -0.00
    11   9    -0.00  -0.00   0.00     0.00   0.00  -0.00    -0.00  -0.00   0.00
    12   9    -0.00   0.00   0.00     0.00  -0.00  -0.00    -0.00   0.00   0.00
    13   7     0.01  -0.00   0.00    -0.01  -0.00   0.00    -0.00   0.00   0.00
    14   1    -0.12  -0.12   0.01     0.02   0.02   0.00     0.00  -0.00  -0.00
    15   6    -0.01  -0.07  -0.01    -0.05  -0.01   0.00     0.03  -0.06  -0.02
    16   1     0.24   0.60  -0.27    -0.06   0.03  -0.06    -0.48   0.41   0.60
    17   1    -0.20   0.49   0.43     0.24   0.01   0.09     0.13   0.30  -0.34
    18   1     0.01  -0.05   0.03     0.12  -0.32   0.30     0.00  -0.00  -0.00
    19   6     0.00  -0.01   0.01     0.64   0.26  -0.17    -0.00   0.00  -0.00
    20   8    -0.00   0.01  -0.00    -0.06  -0.01   0.01    -0.00   0.00  -0.00
    21   8     0.00   0.00  -0.00    -0.40  -0.16   0.10    -0.00  -0.00  -0.00
    22   9     0.00  -0.00   0.00     0.00  -0.00   0.00     0.00   0.00  -0.00
    23   9     0.00   0.00   0.00     0.00   0.00   0.00    -0.00  -0.00  -0.00
    24   9     0.00  -0.00   0.00     0.00   0.00   0.00     0.00  -0.00   0.00
    25   9    -0.00   0.00   0.00     0.00  -0.00  -0.00     0.00   0.00  -0.00
                     67                     68                     69
                      A                      A                      A
 Frequencies --   3174.8486              3669.1522              3717.1468
 Red. masses --      1.1039                 1.0774                 1.0675
 Frc consts  --      6.5560                 8.5460                 8.6903
 IR Inten    --      0.5058                90.7139               402.9269
  Atom  AN      X      Y      Z        X      Y      Z        X      Y      Z
     1   6    -0.00   0.00  -0.00     0.00   0.00   0.00    -0.00  -0.00  -0.00
     2   6    -0.00   0.00   0.00     0.00  -0.00   0.00    -0.00   0.00  -0.00
     3   6     0.00   0.00  -0.00     0.00   0.00  -0.00    -0.00  -0.00  -0.00
     4   6    -0.00   0.00   0.00    -0.00  -0.00   0.00    -0.00   0.00   0.00
     5  16    -0.00  -0.00  -0.00    -0.00  -0.00  -0.00     0.00   0.00  -0.00
     6   8    -0.00  -0.00   0.00    -0.00   0.00   0.00    -0.00   0.00   0.00
     7   8     0.00   0.00   0.00    -0.00  -0.00   0.00     0.00  -0.00   0.00
     8   9     0.00  -0.00   0.00    -0.00   0.00  -0.00     0.00  -0.00   0.00
     9   9     0.00  -0.00  -0.00    -0.00   0.00   0.00     0.00  -0.00  -0.00
    10   9     0.00  -0.00  -0.00    -0.00  -0.00  -0.00     0.00   0.00   0.00
    11   9     0.00  -0.00   0.00    -0.00  -0.00   0.00     0.00   0.00   0.00
    12   9     0.00  -0.00  -0.00    -0.00   0.00   0.00     0.00  -0.00  -0.00
    13   7    -0.00   0.00   0.00     0.01  -0.02  -0.07    -0.00   0.00   0.00
    14   1     0.01   0.00  -0.01    -0.19   0.29   0.93     0.00  -0.01  -0.01
    15   6     0.04   0.03  -0.08     0.00   0.00   0.00     0.00   0.00  -0.00
    16   1    -0.26   0.23   0.31    -0.00   0.01   0.01     0.00  -0.00  -0.00
    17   1    -0.22  -0.58   0.63    -0.00  -0.00   0.00    -0.00   0.00  -0.00
    18   1     0.00  -0.00   0.00     0.02   0.00  -0.00     0.95   0.24  -0.18
    19   6     0.00   0.00  -0.00    -0.00  -0.00   0.00    -0.00  -0.00   0.00
    20   8    -0.00  -0.00   0.00    -0.00  -0.00   0.00    -0.06  -0.02   0.01
    21   8    -0.00  -0.00   0.00     0.00   0.00  -0.00     0.00   0.00  -0.00
    22   9     0.00  -0.00   0.00    -0.00   0.00  -0.00     0.00  -0.00   0.00
    23   9     0.00  -0.00   0.00    -0.00  -0.00  -0.00     0.00   0.00   0.00
    24   9     0.00  -0.00   0.00    -0.00  -0.00   0.00     0.00  -0.00   0.00
    25   9     0.00  -0.00  -0.00    -0.00   0.00   0.00     0.00  -0.00  -0.00

 -------------------
 - Thermochemistry -
 -------------------
 Temperature   298.150 Kelvin.  Pressure   1.00000 Atm.
 Atom     1 has atomic number  6 and mass  12.00000
 Atom     2 has atomic number  6 and mass  12.00000
 Atom     3 has atomic number  6 and mass  12.00000
 Atom     4 has atomic number  6 and mass  12.00000
 Atom     5 has atomic number 16 and mass  31.97207
 Atom     6 has atomic number  8 and mass  15.99491
 Atom     7 has atomic number  8 and mass  15.99491
 Atom     8 has atomic number  9 and mass  18.99840
 Atom     9 has atomic number  9 and mass  18.99840
 Atom    10 has atomic number  9 and mass  18.99840
 Atom    11 has atomic number  9 and mass  18.99840
 Atom    12 has atomic number  9 and mass  18.99840
 Atom    13 has atomic number  7 and mass  14.00307
 Atom    14 has atomic number  1 and mass   1.00783
 Atom    15 has atomic number  6 and mass  12.00000
 Atom    16 has atomic number  1 and mass   1.00783
 Atom    17 has atomic number  1 and mass   1.00783
 Atom    18 has atomic number  1 and mass   1.00783
 Atom    19 has atomic number  6 and mass  12.00000
 Atom    20 has atomic number  8 and mass  15.99491
 Atom    21 has atomic number  8 and mass  15.99491
 Atom    22 has atomic number  9 and mass  18.99840
 Atom    23 has atomic number  9 and mass  18.99840
 Atom    24 has atomic number  9 and mass  18.99840
 Atom    25 has atomic number  9 and mass  18.99840
 Molecular mass:   356.97173 amu.
 Principal axes and moments of inertia in atomic units:
                           1         2         3
     Eigenvalues --  2272.06458********************
           X            0.99999   0.00317  -0.00001
           Y           -0.00317   0.99984  -0.01749
           Z           -0.00005   0.01749   0.99985
 This molecule is an asymmetric top.
 Rotational symmetry number  1.
 Warning -- assumption of classical behavior for rotation
           may cause significant error
 Rotational temperatures (Kelvin)      0.03812     0.00689     0.00675
 Rotational constants (GHZ):           0.79432     0.14357     0.14074
 Zero-point vibrational energy     350564.3 (Joules/Mol)
                                   83.78688 (Kcal/Mol)
 Warning -- explicit consideration of  35 degrees of freedom as
           vibrations may cause significant error
 Vibrational temperatures:     36.46    42.04    55.50    67.43    91.02
          (Kelvin)            101.30   111.32   162.03   199.71   237.94
                              269.66   293.81   316.48   337.10   352.97
                              357.50   418.50   422.25   430.39   451.74
                              481.12   498.84   525.96   541.44   552.18
                              579.54   673.85   702.49   758.39   769.46
                              800.23   836.42   848.16   860.28   885.86
                              942.20   996.05  1021.08  1072.69  1101.47
                             1153.81  1245.90  1283.37  1457.05  1512.66
                             1612.03  1648.10  1687.01  1705.39  1717.21
                             1742.41  1760.95  1777.29  1798.39  1812.96
                             1838.31  1879.65  1883.77  1973.81  1982.11
                             2002.79  2027.64  2120.42  2135.75  2699.54
                             4470.12  4567.90  5279.09  5348.15
 
 Zero-point correction=                           0.133523 (Hartree/Particle)
 Thermal correction to Energy=                    0.153855
 Thermal correction to Enthalpy=                  0.154799
 Thermal correction to Gibbs Free Energy=         0.082257
 Sum of electronic and zero-point Energies=          -1883.355907
 Sum of electronic and thermal Energies=             -1883.335574
 Sum of electronic and thermal Enthalpies=           -1883.334630
 Sum of electronic and thermal Free Energies=        -1883.407172
 
                     E (Thermal)             CV                S
                      KCal/Mol        Cal/Mol-Kelvin    Cal/Mol-Kelvin
 Total                   96.546             72.084            152.678
 Electronic               0.000              0.000              0.000
 Translational            0.889              2.981             43.511
 Rotational               0.889              2.981             34.259
 Vibrational             94.768             66.123             74.908
 Vibration     1          0.593              1.985              6.164
 Vibration     2          0.593              1.984              5.882
 Vibration     3          0.594              1.981              5.331
 Vibration     4          0.595              1.979              4.946
 Vibration     5          0.597              1.972              4.353
 Vibration     6          0.598              1.968              4.142
 Vibration     7          0.599              1.964              3.956
 Vibration     8          0.607              1.939              3.223
 Vibration     9          0.614              1.915              2.820
 Vibration    10          0.624              1.885              2.487
 Vibration    11          0.632              1.857              2.253
 Vibration    12          0.640              1.834              2.095
 Vibration    13          0.647              1.811              1.959
 Vibration    14          0.654              1.788              1.846
 Vibration    15          0.660              1.771              1.764
 Vibration    16          0.662              1.765              1.741
 Vibration    17          0.687              1.691              1.469
 Vibration    18          0.688              1.686              1.454
 Vibration    19          0.692              1.675              1.422
 Vibration    20          0.702              1.647              1.341
 Vibration    21          0.716              1.607              1.239
 Vibration    22          0.725              1.582              1.181
 Vibration    23          0.739              1.543              1.098
 Vibration    24          0.747              1.521              1.054
 Vibration    25          0.753              1.505              1.024
 Vibration    26          0.768              1.464              0.952
 Vibration    27          0.826              1.320              0.742
 Vibration    28          0.844              1.276              0.688
 Vibration    29          0.882              1.190              0.594
 Vibration    30          0.890              1.173              0.577
 Vibration    31          0.912              1.126              0.531
 Vibration    32          0.938              1.072              0.483
 Vibration    33          0.947              1.054              0.468
 Vibration    34          0.956              1.036              0.453
 Vibration    35          0.975              0.999              0.423
                       Q            Log10(Q)             Ln(Q)
 Total Bot       0.145970D-37        -37.835738        -87.120006
 Total V=0       0.380606D+24         23.580476         54.296052
 Vib (Bot)       0.803784D-53        -53.094861       -122.255434
 Vib (Bot)    1  0.817291D+01          0.912377          2.100825
 Vib (Bot)    2  0.708703D+01          0.850464          1.958266
 Vib (Bot)    3  0.536391D+01          0.729482          1.679693
 Vib (Bot)    4  0.441248D+01          0.644683          1.484436
 Vib (Bot)    5  0.326297D+01          0.513613          1.182638
 Vib (Bot)    6  0.292915D+01          0.466741          1.074711
 Vib (Bot)    7  0.266273D+01          0.425327          0.979351
 Vib (Bot)    8  0.181769D+01          0.259519          0.597564
 Vib (Bot)    9  0.146538D+01          0.165950          0.382115
 Vib (Bot)   10  0.122041D+01          0.086504          0.199183
 Vib (Bot)   11  0.106887D+01          0.028923          0.066598
 Vib (Bot)   12  0.974857D+00         -0.011059         -0.025465
 Vib (Bot)   13  0.899275D+00         -0.046107         -0.106166
 Vib (Bot)   14  0.839052D+00         -0.076211         -0.175482
 Vib (Bot)   15  0.797312D+00         -0.098372         -0.226509
 Vib (Bot)   16  0.786047D+00         -0.104551         -0.240739
 Vib (Bot)   17  0.657134D+00         -0.182346         -0.419868
 Vib (Bot)   18  0.650359D+00         -0.186847         -0.430231
 Vib (Bot)   19  0.636057D+00         -0.196504         -0.452468
 Vib (Bot)   20  0.600853D+00         -0.221231         -0.509404
 Vib (Bot)   21  0.557236D+00         -0.253961         -0.584766
 Vib (Bot)   22  0.533269D+00         -0.273054         -0.628729
 Vib (Bot)   23  0.499532D+00         -0.301437         -0.694084
 Vib (Bot)   24  0.481689D+00         -0.317233         -0.730456
 Vib (Bot)   25  0.469864D+00         -0.328028         -0.755311
 Vib (Bot)   26  0.441579D+00         -0.354992         -0.817399
 Vib (Bot)   27  0.360648D+00         -0.442917         -1.019853
 Vib (Bot)   28  0.340103D+00         -0.468389         -1.078506
 Vib (Bot)   29  0.304226D+00         -0.516803         -1.189984
 Vib (Bot)   30  0.297706D+00         -0.526212         -1.211649
 Vib (Bot)   31  0.280479D+00         -0.552100         -1.271256
 Vib (Bot)   32  0.261770D+00         -0.582080         -1.340289
 Vib (Bot)   33  0.256032D+00         -0.591707         -1.362455
 Vib (Bot)   34  0.250260D+00         -0.601608         -1.385254
 Vib (Bot)   35  0.238592D+00         -0.622343         -1.432998
 Vib (V=0)       0.209581D+09          8.321353         19.160623
 Vib (V=0)    1  0.868819D+01          0.938929          2.161965
 Vib (V=0)    2  0.760464D+01          0.881079          2.028759
 Vib (V=0)    3  0.588716D+01          0.769906          1.772774
 Vib (V=0)    4  0.494072D+01          0.693790          1.597510
 Vib (V=0)    5  0.380106D+01          0.579904          1.335279
 Vib (V=0)    6  0.347152D+01          0.540519          1.244591
 Vib (V=0)    7  0.320926D+01          0.506406          1.166042
 Vib (V=0)    8  0.238520D+01          0.377525          0.869283
 Vib (V=0)    9  0.204833D+01          0.311401          0.717027
 Vib (V=0)   10  0.181886D+01          0.259799          0.598210
 Vib (V=0)   11  0.168003D+01          0.225317          0.518813
 Vib (V=0)   12  0.159560D+01          0.202925          0.467252
 Vib (V=0)   13  0.152893D+01          0.184388          0.424568
 Vib (V=0)   14  0.147673D+01          0.169302          0.389833
 Vib (V=0)   15  0.144112D+01          0.158700          0.365420
 Vib (V=0)   16  0.143160D+01          0.155820          0.358790
 Vib (V=0)   17  0.132573D+01          0.122454          0.281961
 Vib (V=0)   18  0.132035D+01          0.120688          0.277894
 Vib (V=0)   19  0.130905D+01          0.116958          0.269305
 Vib (V=0)   20  0.128168D+01          0.107780          0.248172
 Vib (V=0)   21  0.124867D+01          0.096449          0.222082
 Vib (V=0)   22  0.123101D+01          0.090262          0.207835
 Vib (V=0)   23  0.120678D+01          0.081627          0.187952
 Vib (V=0)   24  0.119428D+01          0.077106          0.177543
 Vib (V=0)   25  0.118613D+01          0.074132          0.170695
 Vib (V=0)   26  0.116708D+01          0.067100          0.154502
 Vib (V=0)   27  0.111650D+01          0.047857          0.110195
 Vib (V=0)   28  0.110471D+01          0.043247          0.099580
 Vib (V=0)   29  0.108528D+01          0.035542          0.081839
 Vib (V=0)   30  0.108192D+01          0.034194          0.078736
 Vib (V=0)   31  0.107330D+01          0.030720          0.070734
 Vib (V=0)   32  0.106438D+01          0.027096          0.062391
 Vib (V=0)   33  0.106174D+01          0.026018          0.059909
 Vib (V=0)   34  0.105913D+01          0.024951          0.057451
 Vib (V=0)   35  0.105401D+01          0.022844          0.052601
 Electronic      0.100000D+01          0.000000          0.000000
 Translational   0.265097D+09          8.423405         19.395606
 Rotational      0.685044D+07          6.835718         15.739823
 
                                                         Title Card Required
                                                             IR Spectrum
 
     3 3                3 3                                         1111111111111111111111                                           
     7 6                1 1                                         8444333332222221111100888777666555555444333333222222221111       
     1 6                7 0                                         78709770076532198742519606419519885328608764319994432086317764322
     7 9                5 7                                         64492829680054145350132626602568916578834667449318540475937037995
 
     X X                X X                                         XXXXXXXXXXXXXXXXXXXXXXXXXXXXXXXXXXXXXXXXXXXXXXXXXXXXXXXXXXXXXXXXX
     X X                                                            X XXXXXX XX XXX XX XX X X X X   XX   X                           
     X X                                                            X XXXXX  XX XX  XX XX   X X X   X                                
     X X                                                            X XXX X   X XX  XX X        X                                    
     X                                                              X XXX X   X XX  XX X                                             
     X                                                              X XXX     X XX  XX                                               
     X                                                              X XXX     X XX   X                                               
     X                                                              X  XX     X X    X                                               
     X                                                              X  X      X X                                                    
     X                                                              X  X      X X                                                    
     X                                                              X  X      X X                                                    
     X                                                              X  X      X                                                      
     X                                                              X  X      X                                                      
     X                                                              X         X                                                      
     X                                                              X         X                                                      
     X                                                              X         X                                                      
     X                                                              X         X                                                      
     X                                                              X         X                                                      
     X                                                              X         X                                                      
                                                                              X                                                      
 
 ***** Axes restored to original set *****
 -------------------------------------------------------------------
 Center     Atomic                   Forces (Hartrees/Bohr)
 Number     Number              X              Y              Z
 -------------------------------------------------------------------
      1        6          -0.000008596    0.000013983    0.000007323
      2        6           0.000004591   -0.000008899   -0.000003575
      3        6           0.000003991    0.000002144   -0.000012595
      4        6          -0.000004661   -0.000026637    0.000016563
      5       16           0.000005615    0.000017550   -0.000022033
      6        8          -0.000000021   -0.000007512    0.000001370
      7        8          -0.000003429   -0.000002318    0.000012348
      8        9           0.000002915    0.000003389    0.000011909
      9        9          -0.000001350   -0.000002513   -0.000004937
     10        9          -0.000001871   -0.000006658    0.000001268
     11        9           0.000000613   -0.000006581   -0.000004567
     12        9           0.000004697   -0.000002486    0.000003301
     13        7           0.000013760    0.000009539    0.000000024
     14        1          -0.000003639   -0.000001090   -0.000004019
     15        6          -0.000013261   -0.000026079   -0.000000736
     16        1           0.000001975    0.000004522    0.000000556
     17        1           0.000002801    0.000002286   -0.000000913
     18        1          -0.000001820    0.000005003    0.000002205
     19        6          -0.000007113    0.000003235    0.000005930
     20        8           0.000001087   -0.000001483   -0.000004668
     21        8           0.000005691    0.000002125   -0.000002416
     22        9           0.000002734   -0.000004640    0.000000428
     23        9          -0.000004563    0.000002855    0.000001205
     24        9           0.000000119    0.000012734    0.000009443
     25        9          -0.000000265    0.000017531   -0.000013413
 -------------------------------------------------------------------
 Cartesian Forces:  Max     0.000026637 RMS     0.000008345
 FormGI is forming the generalized inverse of G from B-inverse, IUseBI=4.
 Leave Link  716 at Tue Dec 30 13:16:42 2025, MaxMem= 29527900160 cpu:               6.8 elap:               0.1
 (Enter /usr/local/src/g16/l103.exe)

 GradGradGradGradGradGradGradGradGradGradGradGradGradGradGradGradGradGrad
 Berny optimization.
 Red2BG is reusing G-inverse.
 Internal  Forces:  Max     0.000022100 RMS     0.000004592
 Search for a local minimum.
 Step number   1 out of a maximum of    2
 All quantities printed in internal units (Hartrees-Bohrs-Radians)
 Second derivative matrix not updated -- analytic derivatives used.
 ITU=  0
     Eigenvalues ---    0.00080   0.00254   0.00289   0.00321   0.00411
     Eigenvalues ---    0.00530   0.00662   0.01196   0.02746   0.04704
     Eigenvalues ---    0.04898   0.05091   0.05191   0.06108   0.06285
     Eigenvalues ---    0.08207   0.08521   0.08899   0.09113   0.09137
     Eigenvalues ---    0.10102   0.10570   0.10643   0.11298   0.11966
     Eigenvalues ---    0.13802   0.14161   0.14717   0.15512   0.16610
     Eigenvalues ---    0.17880   0.18376   0.18649   0.19400   0.20008
     Eigenvalues ---    0.20579   0.21310   0.21717   0.22005   0.23116
     Eigenvalues ---    0.23194   0.23883   0.24418   0.25748   0.27006
     Eigenvalues ---    0.29004   0.29858   0.32799   0.33238   0.34692
     Eigenvalues ---    0.35398   0.36086   0.36920   0.37066   0.37379
     Eigenvalues ---    0.38480   0.39350   0.40151   0.45097   0.46382
     Eigenvalues ---    0.47604   0.47935   0.48738   0.50490   0.50575
     Eigenvalues ---    0.56210   0.66111   0.70623   0.92808
 Angle between quadratic step and forces=  70.40 degrees.
 Linear search not attempted -- first point.
 Iteration  1 RMS(Cart)=  0.00014409 RMS(Int)=  0.00000001
 Iteration  2 RMS(Cart)=  0.00000001 RMS(Int)=  0.00000000
 ITry= 1 IFail=0 DXMaxC= 4.56D-04 DCOld= 1.00D+10 DXMaxT= 3.00D-01 DXLimC= 3.00D+00 Rises=F
 Variable       Old X    -DE/DX   Delta X   Delta X   Delta X     New X
                                 (Linear)    (Quad)   (Total)
    R1        2.94267   0.00001   0.00000   0.00002   0.00002   2.94269
    R2        2.50243   0.00000   0.00000  -0.00000  -0.00000   2.50243
    R3        2.50718   0.00001   0.00000   0.00003   0.00003   2.50722
    R4        2.50657  -0.00001   0.00000  -0.00002  -0.00002   2.50655
    R5        2.94811  -0.00001   0.00000  -0.00002  -0.00002   2.94808
    R6        2.53509   0.00001   0.00000   0.00003   0.00003   2.53512
    R7        2.52594   0.00000   0.00000   0.00001   0.00001   2.52595
    R8        2.94263  -0.00000   0.00000  -0.00003  -0.00003   2.94260
    R9        2.52664   0.00000   0.00000   0.00001   0.00001   2.52665
   R10        2.52753  -0.00001   0.00000  -0.00004  -0.00004   2.52749
   R11        3.53188  -0.00000   0.00000  -0.00003  -0.00003   3.53185
   R12        2.52223  -0.00000   0.00000  -0.00001  -0.00001   2.52222
   R13        2.53104   0.00002   0.00000   0.00007   0.00007   2.53111
   R14        2.69330   0.00001   0.00000   0.00001   0.00001   2.69331
   R15        2.71615  -0.00001   0.00000  -0.00003  -0.00003   2.71613
   R16        3.04203  -0.00000   0.00000   0.00000   0.00000   3.04204
   R17        1.90147  -0.00000   0.00000  -0.00001  -0.00001   1.90146
   R18        2.75221  -0.00002   0.00000  -0.00007  -0.00007   2.75214
   R19        2.05853   0.00000   0.00000   0.00001   0.00001   2.05854
   R20        2.05146   0.00000   0.00000   0.00001   0.00001   2.05147
   R21        2.89556  -0.00001   0.00000  -0.00001  -0.00001   2.89555
   R22        1.83086  -0.00000   0.00000  -0.00000  -0.00000   1.83086
   R23        2.51761  -0.00000   0.00000   0.00001   0.00001   2.51761
   R24        2.25905   0.00001   0.00000   0.00000   0.00000   2.25906
    A1        1.93406   0.00001   0.00000   0.00005   0.00005   1.93411
    A2        1.92768  -0.00000   0.00000  -0.00004  -0.00004   1.92764
    A3        1.89573  -0.00000   0.00000  -0.00001  -0.00001   1.89572
    A4        1.90710  -0.00000   0.00000  -0.00002  -0.00002   1.90708
    A5        1.89744   0.00000   0.00000   0.00001   0.00001   1.89745
    A6        1.90126   0.00000   0.00000   0.00001   0.00001   1.90127
    A7        1.99220   0.00000   0.00000   0.00001   0.00001   1.99222
    A8        1.87888   0.00000   0.00000   0.00001   0.00001   1.87889
    A9        1.88236  -0.00000   0.00000  -0.00003  -0.00003   1.88233
   A10        1.90640  -0.00000   0.00000  -0.00001  -0.00001   1.90639
   A11        1.89802  -0.00000   0.00000   0.00000   0.00000   1.89802
   A12        1.90445   0.00000   0.00000   0.00003   0.00003   1.90447
   A13        1.97177   0.00001   0.00000   0.00003   0.00003   1.97180
   A14        1.90597  -0.00001   0.00000  -0.00004  -0.00004   1.90593
   A15        1.89278  -0.00000   0.00000  -0.00000  -0.00000   1.89278
   A16        1.88777   0.00000   0.00000   0.00001   0.00001   1.88777
   A17        1.89975  -0.00000   0.00000  -0.00002  -0.00002   1.89973
   A18        1.90501   0.00000   0.00000   0.00003   0.00003   1.90504
   A19        1.97666   0.00000   0.00000   0.00004   0.00004   1.97670
   A20        1.91235   0.00000   0.00000   0.00004   0.00004   1.91239
   A21        1.92808  -0.00001   0.00000  -0.00006  -0.00006   1.92801
   A22        1.87112  -0.00000   0.00000  -0.00002  -0.00002   1.87110
   A23        1.87308   0.00000   0.00000  -0.00001  -0.00001   1.87308
   A24        1.90025   0.00000   0.00000   0.00002   0.00002   1.90026
   A25        1.85115  -0.00000   0.00000  -0.00004  -0.00004   1.85111
   A26        1.84471   0.00000   0.00000   0.00005   0.00005   1.84477
   A27        1.79295   0.00000   0.00000   0.00001   0.00001   1.79296
   A28        2.16624  -0.00000   0.00000  -0.00001  -0.00001   2.16623
   A29        1.89838  -0.00000   0.00000  -0.00001  -0.00001   1.89837
   A30        1.87516   0.00000   0.00000   0.00000   0.00000   1.87516
   A31        2.01052  -0.00000   0.00000  -0.00002  -0.00002   2.01050
   A32        2.17486  -0.00000   0.00000  -0.00001  -0.00001   2.17485
   A33        2.09626   0.00000   0.00000   0.00003   0.00003   2.09629
   A34        1.90678   0.00000   0.00000   0.00004   0.00004   1.90682
   A35        1.89734   0.00000   0.00000   0.00003   0.00003   1.89737
   A36        1.99250  -0.00000   0.00000   0.00003   0.00003   1.99253
   A37        1.88626  -0.00000   0.00000  -0.00005  -0.00005   1.88621
   A38        1.89988  -0.00000   0.00000  -0.00002  -0.00002   1.89986
   A39        1.87828  -0.00000   0.00000  -0.00004  -0.00004   1.87825
   A40        2.03371  -0.00001   0.00000  -0.00002  -0.00002   2.03369
   A41        2.11957   0.00001   0.00000   0.00002   0.00002   2.11959
   A42        2.12972   0.00000   0.00000  -0.00000  -0.00000   2.12972
   A43        1.95213  -0.00001   0.00000  -0.00005  -0.00005   1.95208
    D1        1.22876  -0.00000   0.00000  -0.00011  -0.00011   1.22864
    D2       -0.89052  -0.00000   0.00000  -0.00011  -0.00011  -0.89063
    D3       -2.94330  -0.00000   0.00000  -0.00013  -0.00013  -2.94343
    D4       -0.88715  -0.00000   0.00000  -0.00010  -0.00010  -0.88725
    D5       -3.00643   0.00000   0.00000  -0.00009  -0.00009  -3.00652
    D6        1.22397  -0.00000   0.00000  -0.00011  -0.00011   1.22386
    D7       -2.97122   0.00000   0.00000  -0.00007  -0.00007  -2.97130
    D8        1.19269   0.00000   0.00000  -0.00007  -0.00007   1.19262
    D9       -0.86010  -0.00000   0.00000  -0.00009  -0.00009  -0.86018
   D10       -2.86329  -0.00000   0.00000   0.00013   0.00013  -2.86316
   D11       -0.76177   0.00000   0.00000   0.00013   0.00013  -0.76164
   D12        1.31238   0.00000   0.00000   0.00015   0.00015   1.31252
   D13       -0.75930  -0.00000   0.00000   0.00014   0.00014  -0.75916
   D14        1.34222   0.00000   0.00000   0.00014   0.00014   1.34237
   D15       -2.86681   0.00000   0.00000   0.00015   0.00015  -2.86666
   D16        1.31749   0.00000   0.00000   0.00017   0.00017   1.31765
   D17       -2.86418   0.00000   0.00000   0.00017   0.00017  -2.86401
   D18       -0.79003   0.00000   0.00000   0.00018   0.00018  -0.78985
   D19       -2.83554  -0.00000   0.00000  -0.00001  -0.00001  -2.83554
   D20        1.35960  -0.00000   0.00000  -0.00003  -0.00003   1.35958
   D21       -0.73387  -0.00000   0.00000  -0.00003  -0.00003  -0.73390
   D22        1.33576   0.00000   0.00000   0.00002   0.00002   1.33578
   D23       -0.75228   0.00000   0.00000   0.00000   0.00000  -0.75228
   D24       -2.84576   0.00000   0.00000  -0.00000  -0.00000  -2.84576
   D25       -0.73200  -0.00000   0.00000  -0.00001  -0.00001  -0.73200
   D26       -2.82004  -0.00000   0.00000  -0.00003  -0.00003  -2.82007
   D27        1.36967  -0.00000   0.00000  -0.00003  -0.00003   1.36964
   D28       -0.98204  -0.00000   0.00000  -0.00013  -0.00013  -0.98216
   D29        1.34635  -0.00000   0.00000  -0.00013  -0.00013   1.34621
   D30       -2.97343  -0.00000   0.00000  -0.00011  -0.00011  -2.97354
   D31        1.12945  -0.00000   0.00000  -0.00007  -0.00007   1.12938
   D32       -2.82535  -0.00000   0.00000  -0.00008  -0.00008  -2.82542
   D33       -0.86194   0.00000   0.00000  -0.00005  -0.00005  -0.86199
   D34       -3.11466   0.00000   0.00000  -0.00007  -0.00007  -3.11473
   D35       -0.78628   0.00000   0.00000  -0.00007  -0.00007  -0.78635
   D36        1.17713   0.00000   0.00000  -0.00005  -0.00005   1.17708
   D37        1.67723  -0.00000   0.00000  -0.00025  -0.00025   1.67699
   D38       -1.52435  -0.00000   0.00000  -0.00022  -0.00022  -1.52457
   D39       -0.27943  -0.00000   0.00000  -0.00020  -0.00020  -0.27963
   D40        2.80217  -0.00000   0.00000  -0.00017  -0.00017   2.80200
   D41       -2.66513   0.00000   0.00000  -0.00018  -0.00018  -2.66532
   D42        0.41647   0.00000   0.00000  -0.00015  -0.00015   0.41631
   D43        0.53966   0.00000   0.00000   0.00007   0.00007   0.53973
   D44        2.59436   0.00000   0.00000   0.00004   0.00004   2.59441
   D45       -1.59193  -0.00000   0.00000   0.00004   0.00004  -1.59189
   D46       -2.66469  -0.00000   0.00000   0.00010   0.00010  -2.66459
   D47       -0.60998   0.00000   0.00000   0.00007   0.00007  -0.60991
   D48        1.48691  -0.00000   0.00000   0.00007   0.00007   1.48698
   D49        0.95755  -0.00000   0.00000  -0.00007  -0.00007   0.95748
   D50       -2.20432  -0.00000   0.00000  -0.00009  -0.00009  -2.20442
   D51       -1.17782  -0.00000   0.00000  -0.00013  -0.00013  -1.17795
   D52        1.94350  -0.00000   0.00000  -0.00015  -0.00015   1.94334
   D53        3.06508   0.00000   0.00000  -0.00004  -0.00004   3.06504
   D54       -0.09679   0.00000   0.00000  -0.00006  -0.00006  -0.09686
   D55        0.04978  -0.00000   0.00000   0.00008   0.00008   0.04986
   D56       -3.07141   0.00000   0.00000   0.00011   0.00011  -3.07130
         Item               Value     Threshold  Converged?
 Maximum Force            0.000022     0.000450     YES
 RMS     Force            0.000005     0.000300     YES
 Maximum Displacement     0.000456     0.001800     YES
 RMS     Displacement     0.000144     0.001200     YES
 Predicted change in Energy=-7.482147D-09
 Optimization completed.
    -- Stationary point found.
                           ----------------------------
                           !   Optimized Parameters   !
                           ! (Angstroms and Degrees)  !
 --------------------------                            --------------------------
 ! Name  Definition              Value          Derivative Info.                !
 --------------------------------------------------------------------------------
 ! R1    R(1,2)                  1.5572         -DE/DX =    0.0                 !
 ! R2    R(1,10)                 1.3242         -DE/DX =    0.0                 !
 ! R3    R(1,11)                 1.3267         -DE/DX =    0.0                 !
 ! R4    R(1,12)                 1.3264         -DE/DX =    0.0                 !
 ! R5    R(2,3)                  1.5601         -DE/DX =    0.0                 !
 ! R6    R(2,8)                  1.3415         -DE/DX =    0.0                 !
 ! R7    R(2,9)                  1.3367         -DE/DX =    0.0                 !
 ! R8    R(3,4)                  1.5572         -DE/DX =    0.0                 !
 ! R9    R(3,23)                 1.337          -DE/DX =    0.0                 !
 ! R10   R(3,24)                 1.3375         -DE/DX =    0.0                 !
 ! R11   R(4,5)                  1.869          -DE/DX =    0.0                 !
 ! R12   R(4,22)                 1.3347         -DE/DX =    0.0                 !
 ! R13   R(4,25)                 1.3394         -DE/DX =    0.0                 !
 ! R14   R(5,6)                  1.4252         -DE/DX =    0.0                 !
 ! R15   R(5,7)                  1.4373         -DE/DX =    0.0                 !
 ! R16   R(5,13)                 1.6098         -DE/DX =    0.0                 !
 ! R17   R(13,14)                1.0062         -DE/DX =    0.0                 !
 ! R18   R(13,15)                1.4564         -DE/DX =    0.0                 !
 ! R19   R(15,16)                1.0893         -DE/DX =    0.0                 !
 ! R20   R(15,17)                1.0856         -DE/DX =    0.0                 !
 ! R21   R(15,19)                1.5323         -DE/DX =    0.0                 !
 ! R22   R(18,20)                0.9688         -DE/DX =    0.0                 !
 ! R23   R(19,20)                1.3323         -DE/DX =    0.0                 !
 ! R24   R(19,21)                1.1954         -DE/DX =    0.0                 !
 ! A1    A(2,1,10)             110.8136         -DE/DX =    0.0                 !
 ! A2    A(2,1,11)             110.4481         -DE/DX =    0.0                 !
 ! A3    A(2,1,12)             108.6172         -DE/DX =    0.0                 !
 ! A4    A(10,1,11)            109.2689         -DE/DX =    0.0                 !
 ! A5    A(10,1,12)            108.7153         -DE/DX =    0.0                 !
 ! A6    A(11,1,12)            108.9343         -DE/DX =    0.0                 !
 ! A7    A(1,2,3)              114.1449         -DE/DX =    0.0                 !
 ! A8    A(1,2,8)              107.6518         -DE/DX =    0.0                 !
 ! A9    A(1,2,9)              107.8515         -DE/DX =    0.0                 !
 ! A10   A(3,2,8)              109.2287         -DE/DX =    0.0                 !
 ! A11   A(3,2,9)              108.7488         -DE/DX =    0.0                 !
 ! A12   A(8,2,9)              109.1167         -DE/DX =    0.0                 !
 ! A13   A(2,3,4)              112.9742         -DE/DX =    0.0                 !
 ! A14   A(2,3,23)             109.2042         -DE/DX =    0.0                 !
 ! A15   A(2,3,24)             108.4482         -DE/DX =    0.0                 !
 ! A16   A(4,3,23)             108.161          -DE/DX =    0.0                 !
 ! A17   A(4,3,24)             108.8477         -DE/DX =    0.0                 !
 ! A18   A(23,3,24)            109.1489         -DE/DX =    0.0                 !
 ! A19   A(3,4,5)              113.2542         -DE/DX =    0.0                 !
 ! A20   A(3,4,22)             109.5695         -DE/DX =    0.0                 !
 ! A21   A(3,4,25)             110.4706         -DE/DX =    0.0                 !
 ! A22   A(5,4,22)             107.2075         -DE/DX =    0.0                 !
 ! A23   A(5,4,25)             107.3198         -DE/DX =    0.0                 !
 ! A24   A(22,4,25)            108.8761         -DE/DX =    0.0                 !
 ! A25   A(4,5,6)              106.0633         -DE/DX =    0.0                 !
 ! A26   A(4,5,7)              105.6943         -DE/DX =    0.0                 !
 ! A27   A(4,5,13)             102.7285         -DE/DX =    0.0                 !
 ! A28   A(6,5,7)              124.1163         -DE/DX =    0.0                 !
 ! A29   A(6,5,13)             108.7691         -DE/DX =    0.0                 !
 ! A30   A(7,5,13)             107.4387         -DE/DX =    0.0                 !
 ! A31   A(5,13,14)            115.1941         -DE/DX =    0.0                 !
 ! A32   A(5,13,15)            124.6104         -DE/DX =    0.0                 !
 ! A33   A(14,13,15)           120.1067         -DE/DX =    0.0                 !
 ! A34   A(13,15,16)           109.2507         -DE/DX =    0.0                 !
 ! A35   A(13,15,17)           108.7094         -DE/DX =    0.0                 !
 ! A36   A(13,15,19)           114.1617         -DE/DX =    0.0                 !
 ! A37   A(16,15,17)           108.0749         -DE/DX =    0.0                 !
 ! A38   A(16,15,19)           108.8551         -DE/DX =    0.0                 !
 ! A39   A(17,15,19)           107.6178         -DE/DX =    0.0                 !
 ! A40   A(15,19,20)           116.523          -DE/DX =    0.0                 !
 ! A41   A(15,19,21)           121.4422         -DE/DX =    0.0                 !
 ! A42   A(20,19,21)           122.0242         -DE/DX =    0.0                 !
 ! A43   A(18,20,19)           111.8488         -DE/DX =    0.0                 !
 ! D1    D(10,1,2,3)            70.4025         -DE/DX =    0.0                 !
 ! D2    D(10,1,2,8)           -51.0231         -DE/DX =    0.0                 !
 ! D3    D(10,1,2,9)          -168.6389         -DE/DX =    0.0                 !
 ! D4    D(11,1,2,3)           -50.8302         -DE/DX =    0.0                 !
 ! D5    D(11,1,2,8)          -172.2559         -DE/DX =    0.0                 !
 ! D6    D(11,1,2,9)            70.1283         -DE/DX =    0.0                 !
 ! D7    D(12,1,2,3)          -170.2385         -DE/DX =    0.0                 !
 ! D8    D(12,1,2,8)            68.3358         -DE/DX =    0.0                 !
 ! D9    D(12,1,2,9)           -49.28           -DE/DX =    0.0                 !
 ! D10   D(1,2,3,4)           -164.0547         -DE/DX =    0.0                 !
 ! D11   D(1,2,3,23)           -43.6464         -DE/DX =    0.0                 !
 ! D12   D(1,2,3,24)            75.1937         -DE/DX =    0.0                 !
 ! D13   D(8,2,3,4)            -43.5046         -DE/DX =    0.0                 !
 ! D14   D(8,2,3,23)            76.9037         -DE/DX =    0.0                 !
 ! D15   D(8,2,3,24)          -164.2562         -DE/DX =    0.0                 !
 ! D16   D(9,2,3,4)             75.4864         -DE/DX =    0.0                 !
 ! D17   D(9,2,3,23)          -164.1053         -DE/DX =    0.0                 !
 ! D18   D(9,2,3,24)           -45.2652         -DE/DX =    0.0                 !
 ! D19   D(2,3,4,5)           -162.4643         -DE/DX =    0.0                 !
 ! D20   D(2,3,4,22)            77.8996         -DE/DX =    0.0                 !
 ! D21   D(2,3,4,25)           -42.0476         -DE/DX =    0.0                 !
 ! D22   D(23,3,4,5)            76.5335         -DE/DX =    0.0                 !
 ! D23   D(23,3,4,22)          -43.1026         -DE/DX =    0.0                 !
 ! D24   D(23,3,4,25)         -163.0499         -DE/DX =    0.0                 !
 ! D25   D(24,3,4,5)           -41.9403         -DE/DX =    0.0                 !
 ! D26   D(24,3,4,22)         -161.5764         -DE/DX =    0.0                 !
 ! D27   D(24,3,4,25)           78.4764         -DE/DX =    0.0                 !
 ! D28   D(3,4,5,6)            -56.2667         -DE/DX =    0.0                 !
 ! D29   D(3,4,5,7)             77.14           -DE/DX =    0.0                 !
 ! D30   D(3,4,5,13)          -170.3651         -DE/DX =    0.0                 !
 ! D31   D(22,4,5,6)            64.7129         -DE/DX =    0.0                 !
 ! D32   D(22,4,5,7)          -161.8805         -DE/DX =    0.0                 !
 ! D33   D(22,4,5,13)          -49.3855         -DE/DX =    0.0                 !
 ! D34   D(25,4,5,6)          -178.4571         -DE/DX =    0.0                 !
 ! D35   D(25,4,5,7)           -45.0505         -DE/DX =    0.0                 !
 ! D36   D(25,4,5,13)           67.4445         -DE/DX =    0.0                 !
 ! D37   D(4,5,13,14)           96.0985         -DE/DX =    0.0                 !
 ! D38   D(4,5,13,15)          -87.3388         -DE/DX =    0.0                 !
 ! D39   D(6,5,13,14)          -16.0102         -DE/DX =    0.0                 !
 ! D40   D(6,5,13,15)          160.5526         -DE/DX =    0.0                 !
 ! D41   D(7,5,13,14)         -152.7009         -DE/DX =    0.0                 !
 ! D42   D(7,5,13,15)           23.8619         -DE/DX =    0.0                 !
 ! D43   D(5,13,15,16)          30.9202         -DE/DX =    0.0                 !
 ! D44   D(5,13,15,17)         148.646          -DE/DX =    0.0                 !
 ! D45   D(5,13,15,19)         -91.2107         -DE/DX =    0.0                 !
 ! D46   D(14,13,15,16)       -152.6753         -DE/DX =    0.0                 !
 ! D47   D(14,13,15,17)        -34.9495         -DE/DX =    0.0                 !
 ! D48   D(14,13,15,19)         85.1938         -DE/DX =    0.0                 !
 ! D49   D(13,15,19,20)         54.8636         -DE/DX =    0.0                 !
 ! D50   D(13,15,19,21)       -126.2984         -DE/DX =    0.0                 !
 ! D51   D(16,15,19,20)        -67.4839         -DE/DX =    0.0                 !
 ! D52   D(16,15,19,21)        111.3541         -DE/DX =    0.0                 !
 ! D53   D(17,15,19,20)        175.6161         -DE/DX =    0.0                 !
 ! D54   D(17,15,19,21)         -5.5459         -DE/DX =    0.0                 !
 ! D55   D(15,19,20,18)          2.8521         -DE/DX =    0.0                 !
 ! D56   D(21,19,20,18)       -175.9786         -DE/DX =    0.0                 !
 --------------------------------------------------------------------------------
 GradGradGradGradGradGradGradGradGradGradGradGradGradGradGradGradGradGrad

 Leave Link  103 at Tue Dec 30 13:16:42 2025, MaxMem= 29527900160 cpu:               9.1 elap:               0.2
 (Enter /usr/local/src/g16/l9999.exe)

 ----------------------------------------------------------------------

 Electric dipole moment (input orientation):
 (Debye = 10**-18 statcoulomb cm , SI units = C m)
                  (au)            (Debye)         (10**-30 SI)
   Tot        0.141499D+01      0.359655D+01      0.119968D+02
   x         -0.972224D+00     -0.247115D+01     -0.824286D+01
   y          0.654060D+00      0.166245D+01      0.554535D+01
   z          0.793211D+00      0.201614D+01      0.672512D+01

 Dipole polarizability, Alpha (input orientation).
 (esu units = cm**3 , SI units = C**2 m**2 J**-1)
 Alpha(0;0):
               (au)            (10**-24 esu)      (10**-40 SI)
   iso        0.117144D+03      0.173589D+02      0.193144D+02
   aniso      0.437397D+02      0.648155D+01      0.721170D+01
   xx         0.145280D+03      0.215283D+02      0.239534D+02
   yx         0.613735D+01      0.909461D+00      0.101191D+01
   yy         0.104388D+03      0.154687D+02      0.172112D+02
   zx        -0.146436D+00     -0.216996D-01     -0.241441D-01
   zy         0.213697D+01      0.316666D+00      0.352339D+00
   zz         0.101763D+03      0.150797D+02      0.167784D+02

 ----------------------------------------------------------------------

 Dipole orientation:
     6         -5.29139514         -1.30045069          4.73829136
     6         -3.11979332          0.25139421          3.49923783
     6         -1.75460344         -1.13881303          1.28679229
     6          0.82797355          0.08301241          0.58216763
    16          2.00598589         -0.88576046         -2.60341156
     8          2.11882701         -3.57647982         -2.56965102
     8          0.55712709          0.55591518         -4.39222883
     9         -1.43244004          0.79481391          5.31148158
     9         -4.10972132          2.40206058          2.61886146
     9         -4.37375770         -3.22682910          6.04565054
     9         -6.86185009         -2.16371760          2.98489092
     9         -6.55780801          0.19909576          6.29727966
     7          4.84267830          0.21257799         -2.63154933
     1          6.19710117         -1.03126266         -2.14783385
     6          5.52527448          2.75903267         -3.42166680
     1          3.97460465          4.04221384         -2.98989421
     1          7.16765966          3.36231644         -2.35062948
     1          2.92755827          1.59634011         -7.01106621
     6          6.17809789          2.99269587         -6.23298665
     8          4.44329274          2.17115732         -7.86205540
     8          8.12846628          3.90375439         -6.91808725
     9          2.57567702         -0.60584112          2.26522031
     9         -1.33505641         -3.54111634          1.94772488
     9         -3.26228626         -1.08806690         -0.74119390
     9          0.64207825          2.60721288          0.58119906

 Electric dipole moment (dipole orientation):
 (Debye = 10**-18 statcoulomb cm , SI units = C m)
                  (au)            (Debye)         (10**-30 SI)
   Tot        0.141499D+01      0.359655D+01      0.119968D+02
   x          0.000000D+00      0.000000D+00      0.000000D+00
   y          0.000000D+00      0.000000D+00      0.000000D+00
   z          0.141499D+01      0.359655D+01      0.119968D+02

 Dipole polarizability, Alpha (dipole orientation).
 (esu units = cm**3 , SI units = C**2 m**2 J**-1)
 Alpha(0;0):
               (au)            (10**-24 esu)      (10**-40 SI)
   iso        0.117144D+03      0.173589D+02      0.193144D+02
   aniso      0.437397D+02      0.648155D+01      0.721170D+01
   xx         0.125242D+03      0.185589D+02      0.206496D+02
   yx         0.116800D+02      0.173080D+01      0.192577D+01
   yy         0.105999D+03      0.157074D+02      0.174769D+02
   zx        -0.185532D+02     -0.274929D+01     -0.305900D+01
   zy        -0.758598D+01     -0.112413D+01     -0.125076D+01
   zz         0.120190D+03      0.178103D+02      0.198166D+02

 ----------------------------------------------------------------------
 1\1\GINC-PURPLE\Freq\RwB97XD\6-311+G(2d,2p)\C6H4F9N1O4S1\RAPPE\30-Dec-
 2025\0\\#P Geom=AllCheck Guess=TCheck SCRF=Check GenChk RwB97XD/6-311+
 G(2d,2p) Freq\\Title Card Required\\0,1\C,-3.815885,-0.004794,-0.20022
 2\C,-2.396722,0.634765,-0.157793\C,-1.238127,-0.394331,0.02232\C,0.102
 87,0.269483,0.453436\S,1.591588,-0.825324,0.173733\O,1.331187,-2.03383
 6,0.882939\O,1.86248,-0.76046,-1.236344\F,-2.374321,1.507961,0.860384\
 F,-2.210388,1.295077,-1.304945\F,-4.159994,-0.466011,0.992446\F,-3.850
 98,-0.99709,-1.080204\F,-4.688655,0.925039,-0.56501\N,2.767114,-0.0250
 71,0.928125\H,2.957196,-0.328983,1.868323\C,3.580576,1.018207,0.319052
 \H,2.989433,1.542885,-0.430548\H,3.862323,1.732599,1.086361\H,3.801631
 ,-0.670569,-1.405832\C,4.868867,0.50757,-0.334705\O,4.732399,-0.452955
 ,-1.247768\O,5.935952,0.966139,-0.051648\F,0.06181,0.554766,1.756652\F
 ,-1.582298,-1.284676,0.958541\F,-1.051782,-1.029578,-1.139865\F,0.3064
 51,1.402095,-0.231873\\Version=ES64L-G16RevA.03\State=1-A\HF=-1883.489
 4296\RMSD=9.499e-10\RMSF=8.345e-06\ZeroPoint=0.1335229\Thermal=0.15385
 53\Dipole=-0.9722238,0.6540596,0.7932111\DipoleDeriv=1.660593,-0.20606
 04,0.0222317,0.0455338,1.4954958,0.0089026,0.0020552,-0.0038107,1.5694
 594,0.6067949,0.0722796,-0.0412574,-0.2691609,0.9173688,-0.0001048,-0.
 0265738,0.0378542,1.1701371,0.7745697,0.0328501,-0.1341035,0.2545645,0
 .8391162,-0.0285905,-0.0547694,-0.0346289,1.0634343,0.5998439,-0.08359
 64,-0.0717175,-0.1446889,0.8674463,-0.0228998,-0.1670706,-0.0711895,1.
 0051163,2.4320535,0.3489811,0.033861,0.2333241,1.7882575,-0.1268572,0.
 0672172,-0.034827,1.735752,-0.7091046,-0.0732497,0.0125503,-0.0355283,
 -0.9958884,0.1988111,0.0374402,0.3057085,-0.5647321,-0.9914119,-0.0359
 31,0.1927045,0.0115732,-0.4934261,0.0303001,0.3104501,-0.1006754,-1.00
 24006,-0.3374645,-0.0063062,-0.0197671,0.0305966,-0.5098,-0.3347436,-0
 .0020501,-0.2456254,-0.5428342,-0.3345695,-0.0249449,0.0625304,0.00348
 9,-0.4020178,0.3046618,0.0102367,0.2215249,-0.6432767,-0.4446545,-0.09
 39107,0.199057,-0.1081808,-0.3333932,0.2047167,0.1510974,0.1757237,-0.
 7305561,-0.3859132,-0.0795011,-0.0727814,-0.0469915,-0.6045011,-0.3157
 312,-0.0189211,-0.2931656,-0.5154612,-0.8152095,0.3395437,-0.1477665,0
 .2824883,-0.5562699,0.1128161,-0.1538788,0.1251489,-0.3028437,-1.23157
 3,-0.1866195,-0.0548779,-0.4594238,-0.6625872,-0.0621824,-0.194805,-0.
 0766982,-0.528829,0.1402418,-0.0863973,-0.0129634,-0.114223,0.1772343,
 0.0018418,0.0437239,0.0142612,0.2756659,0.2622479,0.1766543,-0.0422342
 ,0.3830333,0.3211175,-0.1054255,-0.2393935,-0.1834301,0.1675118,0.0179
 709,0.0259936,-0.0189093,-0.0080507,0.087156,0.0099477,0.0185064,0.049
 4963,0.0295973,0.021994,-0.0566058,0.0124148,-0.0497837,0.0361481,-0.0
 259548,0.0360791,-0.0444947,0.0205047,0.6196942,0.083732,-0.0708856,0.
 0702872,0.2845878,0.015888,-0.0397072,0.0132761,0.315526,1.6245727,0.3
 678731,0.1136234,0.3622376,0.915304,0.6097352,0.2120456,0.6647138,0.85
 4642,-0.6912056,-0.123203,-0.0000402,-0.2890384,-0.7943298,-0.4186183,
 -0.1965249,-0.4560885,-0.7387281,-1.2966175,-0.3695801,-0.1493902,-0.2
 045357,-0.5468893,-0.1434836,-0.0713973,-0.1406463,-0.4864134,-0.37860
 71,0.0372848,0.0344989,0.0809414,-0.2787754,-0.2132348,0.1572438,-0.15
 77036,-0.7715316,-0.4003326,-0.0824386,0.086469,-0.1516167,-0.4713411,
 0.2913024,0.1119778,0.2104075,-0.4600822,-0.3687642,0.0416427,0.029479
 7,0.0535064,-0.3553822,-0.2656932,0.0317437,-0.1837452,-0.5956387,-0.3
 751488,-0.0184902,0.0372736,0.069647,-0.7246308,0.2745963,-0.0247255,0
 .208614,-0.3240192\Polar=145.2799486,6.13735,104.3877174,-0.1464364,2.
 1369686,101.7629754\Quadrupole=-14.6544181,5.401108,9.2533101,0.418864
 8,6.4245435,0.3508372\PG=C01 [X(C6H4F9N1O4S1)]\NImag=0\\0.58948796,0.0
 1596487,0.55812750,-0.00131352,0.00029932,0.56123232,-0.16760361,-0.02
 219481,-0.00791060,0.52625130,-0.05640060,-0.07465841,-0.00061929,0.00
 780076,0.56312030,-0.00432004,0.00170103,-0.03691277,-0.00089524,-0.00
 732317,0.53259902,-0.02424198,0.02464486,-0.00649733,-0.15726423,0.032
 37649,-0.01946710,0.50662786,0.00628968,0.03262439,-0.00239913,0.03329
 891,-0.10367463,0.00819635,0.00582980,0.55412890,-0.00332163,0.0026922
 5,0.01780011,-0.01742139,0.00249398,-0.04295956,-0.00535667,0.00268464
 ,0.53318704,-0.00128369,0.00267167,-0.00069095,-0.03021427,-0.00772762
 ,-0.01167001,-0.16609373,-0.01114065,-0.02512564,0.44217035,-0.0026635
 3,-0.00547433,0.00046349,0.02298513,0.03185517,0.00453003,-0.01874172,
 -0.08263252,-0.01162633,0.04111287,0.50257490,-0.00130044,-0.00156120,
 0.00175280,-0.00715696,0.00285966,0.01368796,-0.03212776,-0.01552249,-
 0.04964358,0.01015087,0.00628169,0.51248798,-0.00492348,-0.00113213,-0
 .00037537,-0.00142803,0.00529237,-0.00085243,-0.02655353,0.00394756,-0
 .00162951,-0.11601927,0.06388481,0.01586854,0.54881105,0.00223444,0.00
 491318,-0.00023246,-0.00305815,-0.00570173,-0.00034623,-0.00441384,0.0
 3321754,0.00231223,0.02744584,-0.07014986,-0.01487755,0.12487594,0.809
 13715,0.00000605,0.00092558,0.00194735,-0.00158050,-0.00226570,0.00191
 732,-0.00719473,0.00679504,0.02013922,0.00290142,-0.00976182,-0.026047
 18,-0.09641888,-0.22593275,1.01344551,0.00128025,-0.00016191,0.0003355
 3,0.00087473,-0.00096891,0.00030686,0.00312221,-0.00394471,0.00291216,
 0.01319758,0.00624785,-0.00684561,-0.10584897,-0.07535124,0.04932097,0
 .08436916,-0.00113766,-0.00192959,0.00012242,0.00003001,0.00103001,0.0
 0008571,-0.00114544,-0.00988240,-0.00064140,-0.01932545,-0.00204940,0.
 01904577,-0.08093055,-0.50592637,0.24624267,0.10264297,0.53015972,0.00
 040782,0.00049938,-0.00063495,0.00008642,-0.00021028,-0.00054413,0.001
 43205,0.00226506,-0.00419805,0.00889335,-0.00141494,-0.00364010,0.0478
 8302,0.24064224,-0.22594709,-0.05513387,-0.26574494,0.21073801,0.00193
 097,0.00058476,0.00006321,0.00058842,-0.00203516,0.00044916,0.00332000
 ,0.00206374,-0.00208698,0.01196524,-0.01173502,0.01640823,-0.11537665,
 -0.00074176,0.09974705,0.01719808,-0.00140387,0.00776528,0.09601722,-0
 .00053703,-0.00097092,-0.00000854,0.00012170,0.00062992,0.00016509,-0.
 00003153,-0.00530190,-0.00056466,0.00256146,0.00468220,-0.00594438,-0.
 00258159,-0.08806314,0.01716524,-0.00891783,0.01183967,0.03180752,0.00
 854060,0.06355725,-0.00104161,-0.00115926,-0.00103148,0.00068595,0.002
 49435,-0.00162280,0.00087153,-0.00689345,-0.00787978,-0.00887115,0.018
 70018,-0.01300545,0.10570472,0.02243517,-0.58582685,0.00147187,-0.0086
 0180,-0.00337735,-0.09715016,-0.01502595,0.63564517,0.00560610,-0.0229
 9233,-0.02224775,-0.07971687,-0.00234559,-0.00421268,0.00955610,0.0159
 4056,0.02017925,0.00291068,-0.00390818,-0.00108465,0.00128061,-0.00005
 802,0.00030522,-0.00031727,0.00030155,-0.00012192,-0.00049276,0.000093
 96,0.00011086,0.06929378,0.00747318,-0.02261833,-0.02831136,-0.0056230
 1,-0.19329620,-0.10460059,-0.00624355,-0.01757351,-0.03362479,-0.00128
 385,-0.00484330,-0.00202200,-0.00139388,-0.00078299,-0.00104836,0.0003
 8659,0.00043337,0.00014108,0.00050155,0.00022467,0.00039384,0.00582141
 ,0.21541577,0.00390706,-0.01694034,-0.02150142,-0.00824072,-0.11844008
 ,-0.16858799,0.00037789,-0.00910988,-0.01296832,0.00048971,-0.00298068
 ,-0.00561238,-0.00043174,-0.00035487,-0.00120089,0.00009392,0.00017390
 ,0.00028488,0.00011488,0.00009931,0.00073506,0.00368060,0.16741716,0.2
 6587483,-0.00003668,-0.01751394,0.03119398,-0.08480533,-0.01773680,0.0
 2356471,0.01084629,0.01162124,-0.01502836,0.00127942,-0.00396050,0.003
 22867,0.00104330,-0.00007032,0.00040574,-0.00032825,0.00036182,-0.0001
 7360,-0.00037502,0.00013418,-0.00005730,0.01044414,0.00207937,0.005774
 81,0.07919857,0.00344802,-0.01262180,0.02983133,-0.02128922,-0.1514642
 9,0.10188905,-0.00663825,-0.01377627,0.03043472,-0.00071282,-0.0056275
 8,0.00106890,-0.00165647,0.00008159,0.00106369,0.00052807,0.00026364,-
 0.00030112,0.00052654,0.00013946,-0.00081356,0.00385594,0.02588779,-0.
 01662019,0.02428918,0.15857605,0.00037329,0.01252907,-0.02554608,0.027
 84538,0.11732694,-0.21378129,0.00584268,0.01190742,-0.02654871,0.00154
 440,0.00349346,-0.00299830,0.00150864,-0.00049618,-0.00203556,-0.00050
 776,0.00003296,0.00043285,-0.00051393,-0.00003400,0.00142377,0.0067900
 4,-0.00330431,-0.07640833,-0.04211078,-0.14635890,0.32643752,-0.115563
 98,-0.03507007,0.06382825,0.00144672,-0.00898608,0.03312063,0.00173201
 ,-0.00168135,-0.00064355,0.00041039,0.00039812,0.00075979,0.00127723,-
 0.00072218,0.00012743,-0.00031937,0.00039562,-0.00017110,-0.00048686,0
 .00017912,0.00019597,-0.00056810,-0.00157626,-0.00167497,-0.00878028,-
 0.00706842,0.00493426,0.09850317,-0.03522059,-0.10725137,0.06804648,-0
 .00644367,-0.00075264,0.01948640,-0.00199598,-0.00569308,0.00204219,-0
 .00025278,0.00047590,0.00063942,0.00032276,-0.00102441,0.00019193,0.00
 003739,0.00046702,-0.00022644,-0.00017048,0.00022044,0.00006243,-0.000
 27221,0.00091631,0.00108108,-0.00468438,-0.00273136,0.00241258,0.02630
 596,0.12325981,0.07354585,0.07309041,-0.23263920,0.00269712,0.00381693
 ,-0.02373482,0.00170278,0.00467525,-0.00574839,0.00041215,-0.00068806,
 -0.00148505,-0.00038300,0.00084619,-0.00078468,-0.00004308,-0.00040021
 ,0.00038362,0.00019232,-0.00016657,0.00028023,-0.00082946,0.00150338,0
 .00693334,0.00501785,0.00243253,-0.00011173,-0.08056406,-0.10971085,0.
 36182922,-0.09042734,-0.02775131,-0.01888706,0.00984189,-0.01909185,-0
 .02038106,0.00207185,0.00001947,0.00210877,0.00072905,-0.00007528,0.00
 008449,0.00117600,-0.00044864,0.00013412,-0.00028831,0.00028366,-0.000
 11512,-0.00047550,0.00012416,0.00018954,-0.00725079,-0.00738501,-0.004
 54071,-0.00088250,-0.00076597,0.00193577,0.01324151,0.00967420,0.01624
 875,0.07511507,-0.03358819,-0.20087359,-0.10279216,0.00377573,-0.01681
 996,-0.02597341,-0.00088435,-0.00709068,-0.00246226,0.00007291,-0.0002
 0003,-0.00021948,0.00031793,-0.00133987,-0.00053064,-0.00000798,0.0006
 1753,-0.00004271,-0.00017692,0.00031626,0.00049913,-0.00755144,-0.0047
 9254,-0.00332236,-0.00114630,0.00078634,0.00284838,0.00599939,0.016213
 79,-0.01747066,0.00361143,0.27085599,-0.02542635,-0.10571360,-0.160711
 85,0.00490301,-0.01359252,-0.01262514,0.00102508,-0.00265525,-0.004573
 35,0.00023195,-0.00018195,-0.00052451,0.00029475,-0.00061069,-0.000741
 94,-0.00009864,0.00026601,0.00012516,-0.00012429,0.00016137,0.00051282
 ,-0.00444363,-0.00230346,-0.00030545,-0.00274566,-0.00178414,0.0058002
 9,0.00899555,-0.03166515,-0.07584638,0.00705901,0.17069460,0.23109538,
 -0.20133182,0.09024024,-0.04108145,-0.04090277,0.04352179,-0.01424987,
 -0.00382221,-0.01079336,-0.00042908,-0.00031441,0.00441915,0.00092501,
 0.00277063,-0.00177884,-0.00043534,-0.00063923,0.00066470,-0.00017761,
 -0.00105349,0.00031723,0.00081329,0.00222429,-0.00436521,-0.00138902,0
 .00151632,-0.00152063,0.00057693,0.01624135,0.00922639,-0.01592466,0.0
 0451530,0.02905323,0.01127945,0.22219398,0.09805348,-0.15559767,0.0349
 7421,0.00536736,-0.00742949,0.00408945,-0.00128217,-0.00133316,0.00012
 469,-0.00028035,-0.00116560,0.00008583,-0.00089580,-0.00027967,0.00007
 693,0.00028599,0.00015856,-0.00006026,0.00031327,0.00008019,-0.0001463
 8,-0.00047459,0.00473435,0.00158684,-0.00290045,0.00381435,-0.00249555
 ,0.01870348,-0.02778206,0.04460024,0.04092287,-0.06422548,-0.01531969,
 -0.15977099,0.24616487,-0.04463119,0.03443199,-0.08971555,-0.00778280,
 0.01019998,-0.00101627,-0.00034997,-0.00167725,-0.00189830,0.00001570,
 0.00103431,-0.00014500,0.00063606,-0.00027152,-0.00037795,-0.00017980,
 0.00007897,0.00006588,-0.00023132,0.00004499,0.00031974,0.00087601,0.0
 0140041,0.00229697,0.00201838,-0.00363620,0.00420502,-0.02792289,0.050
 62106,-0.03671820,0.01820579,-0.02461446,0.01299299,0.06022100,-0.0672
 3128,0.10807472,0.00232780,0.00131558,0.00011896,-0.00042286,-0.004293
 25,0.00016149,0.00009693,0.00884256,0.00271948,-0.01207939,-0.02312590
 ,-0.01327570,-0.17535145,-0.08839942,-0.06671708,-0.00513563,-0.011040
 32,-0.00629781,0.00838834,-0.00033612,-0.00188144,-0.00026095,0.000520
 21,0.00022106,-0.00025416,0.00087991,-0.00085026,-0.00058242,-0.000262
 32,0.00027590,-0.00047177,-0.00029421,-0.00019603,-0.00146362,0.000365
 72,-0.00032015,0.37581253,0.00055488,-0.00039148,0.00001766,0.00028992
 ,-0.00093361,-0.00020226,0.00066667,-0.00208734,0.00024724,0.00517269,
 -0.00318371,-0.00476099,-0.07510297,-0.11298058,-0.01545058,-0.0329117
 1,-0.01783198,-0.01233327,-0.00217598,0.01095466,0.00427894,-0.0000556
 5,0.00047661,0.00032420,-0.00013027,0.00036449,-0.00019371,-0.00011959
 ,0.00007204,-0.00000117,-0.00010581,0.00017517,0.00007522,-0.00032055,
 0.00023219,-0.00008280,0.22202035,0.34967460,0.00073354,0.00044805,-0.
 00038687,-0.00034709,-0.00179730,-0.00064427,-0.00045949,0.00343793,-0
 .00147130,-0.00489066,-0.01316585,-0.00642624,-0.07576430,-0.02621956,
 -0.13424177,0.01465654,0.01952748,0.01163025,-0.02831438,-0.01662876,-
 0.03022382,0.00003296,0.00048848,0.00048392,-0.00007331,0.00017624,0.0
 0009347,-0.00021602,-0.00014439,0.00028061,-0.00014367,0.00001159,0.00
 008992,-0.00047668,0.00010860,-0.00004211,0.13860245,-0.17865842,0.687
 55984,0.00004979,0.00014341,-0.00011606,-0.00026499,-0.00053939,-0.000
 25440,-0.00043443,0.00134068,-0.00006773,-0.00301396,-0.00357739,-0.00
 430900,-0.00598977,0.01061533,-0.02144723,0.00017137,0.00083942,0.0030
 1587,0.00111296,-0.00231799,-0.00171531,0.00007929,0.00010871,0.000159
 71,0.00001775,0.00004137,0.00002205,-0.00002066,-0.00003347,0.00007139
 ,0.00000425,0.00001185,0.00003157,-0.00007523,0.00000654,-0.00000009,-
 0.05361515,-0.00544189,-0.08798572,0.05732327,0.00015304,0.00009091,0.
 00000642,0.00009050,0.00001263,0.00014270,0.00028054,0.00027076,-0.000
 25383,0.00058908,0.00016873,0.00215211,0.00165891,0.00949727,-0.019109
 26,0.00123137,-0.00292746,0.00322151,-0.00525382,-0.00257397,-0.007260
 61,-0.00007463,-0.00003212,-0.00007199,-0.00002470,0.00000369,-0.00003
 357,-0.00004403,-0.00002737,0.00001840,-0.00004372,-0.00004509,-0.0000
 2367,-0.00006169,0.00000319,-0.00001275,-0.00615868,-0.06733436,0.1296
 2994,0.00318363,0.07248387,-0.00029819,-0.00015077,0.00008816,0.000017
 36,0.00049229,0.00014336,-0.00001250,-0.00078632,-0.00013079,0.0006487
 6,0.00154244,0.00198891,-0.00350160,0.00160882,-0.01461136,0.00269539,
 0.00049337,0.00163260,-0.00205714,-0.00092250,0.00008946,0.00004216,-0
 .00010737,-0.00010164,0.00006257,-0.00006868,0.00002365,0.00008947,0.0
 0004724,-0.00008694,0.00005920,0.00001000,-0.00001188,0.00018063,-0.00
 004096,0.00002226,-0.08678399,0.12765263,-0.40735089,0.08907442,-0.128
 10119,0.42049498,-0.00033415,-0.00003371,-0.00004126,-0.00012952,0.000
 33035,-0.00011203,-0.00045572,-0.00020397,0.00000533,-0.00216107,0.000
 30963,-0.00136587,-0.01988221,-0.01384403,0.00054706,0.00357850,-0.000
 33602,0.00033374,0.00002160,0.00059393,0.00327287,0.00009934,-0.000085
 18,0.00000553,0.00007497,-0.00010079,0.00008877,0.00007486,0.00000974,
 -0.00000737,0.00007487,0.00001665,0.00001878,0.00018036,-0.00007112,0.
 00004361,-0.11113818,-0.07549505,0.02469420,0.00453625,0.00891862,-0.0
 0110819,0.49316876,-0.00069254,-0.00026183,-0.00008512,0.00008327,0.00
 118812,-0.00016195,-0.00017699,-0.00195019,-0.00057466,0.00200805,0.00
 467373,0.00101918,-0.01756696,-0.02405205,-0.01319080,-0.00132607,0.00
 260886,0.00173651,-0.00012521,-0.00030789,0.00451492,0.00011971,-0.000
 17701,-0.00002364,0.00007088,-0.00029818,0.00029543,0.00016261,0.00004
 878,-0.00004008,0.00014310,0.00005477,0.00005364,0.00044145,-0.0001427
 4,0.00010907,-0.06962620,-0.13328423,0.06009366,-0.00177992,-0.0059130
 3,-0.00087389,0.01628719,0.52405161,0.00028323,-0.00001077,0.00008122,
 -0.00000089,-0.00048321,0.00020630,0.00036004,0.00017146,0.00018802,0.
 00091146,-0.00183321,0.00068950,0.00623712,-0.01036446,0.01430475,-0.0
 0753921,-0.00620992,0.00017667,-0.00040514,-0.00011441,-0.00425845,-0.
 00004430,0.00010053,-0.00002586,-0.00001012,0.00018272,-0.00018427,-0.
 00005441,0.00001212,-0.00002438,-0.00005736,0.00000628,-0.00002153,-0.
 00017384,0.00008145,-0.00005336,0.01675811,0.05083149,-0.12620760,0.01
 814568,0.01963927,-0.00207447,0.08352093,0.04110937,0.59048639,-0.0000
 9499,-0.00005292,-0.00000137,-0.00009268,-0.00002937,0.00002893,-0.000
 22230,-0.00011740,-0.00002930,-0.00020233,-0.00151352,0.00124637,0.002
 52030,-0.00154522,0.00100765,-0.00053299,0.00045180,-0.00011345,-0.001
 06105,-0.00013526,-0.00013145,0.00004618,0.00001639,-0.00000095,0.0000
 5731,0.00003154,-0.00002396,0.00002967,0.00001875,-0.00001898,0.000022
 43,0.00002405,0.00001238,0.00004130,-0.00000407,0.00000578,0.01054282,
 -0.01376423,0.02091533,-0.00167152,-0.00379078,0.00045692,-0.13585807,
 0.07856609,-0.11070216,0.14780387,-0.00004666,0.00003264,0.00001476,-0
 .00005408,0.00006412,0.00002758,-0.00011200,0.00010585,0.00011827,-0.0
 0074156,-0.00032716,0.00021644,0.00120658,-0.00023304,0.00557259,-0.00
 032461,0.00034821,-0.00078665,0.00038140,0.00109084,-0.00162677,0.0000
 1689,-0.00005109,-0.00003317,0.00002615,-0.00002249,0.00000209,0.00001
 241,-0.00000372,-0.00000735,0.00000898,-0.00001789,-0.00001270,0.00002
 706,-0.00002029,0.00000332,0.00705356,-0.01573743,0.02094477,-0.001407
 68,-0.00344155,-0.00069145,0.06796614,-0.10757059,0.08401676,-0.072894
 51,0.11815411,-0.00000416,0.00001806,0.00002087,0.00006564,0.00011428,
 0.00007662,0.00002059,-0.00009287,0.00009662,0.00044090,0.00124061,-0.
 00017261,-0.00196854,-0.00049695,-0.00116634,0.00051127,-0.00018544,0.
 00034510,-0.00066652,-0.00079107,0.00003262,-0.00002171,-0.00005622,-0
 .00004266,-0.00001815,-0.00001521,-0.00002731,0.00000203,-0.00000337,-
 0.00000705,-0.00000362,-0.00001889,-0.00001532,0.00001014,-0.00000948,
 -0.00000138,-0.00380568,0.00793800,-0.01268569,0.00084676,0.00212553,0
 .00101418,-0.09850519,0.08615094,-0.17399390,0.10738628,-0.10012045,0.
 18933060,0.00006695,-0.00001835,-0.00001161,-0.00000796,-0.00019832,-0
 .00006219,0.00005447,0.00004823,0.00002004,0.00017408,-0.00076490,-0.0
 0051111,0.00247499,-0.00149830,0.00181313,-0.00141646,-0.00115363,0.00
 006703,-0.00026560,-0.00035596,-0.00066266,-0.00000209,0.00007821,0.00
 005521,-0.00001154,0.00004946,-0.00001295,-0.00001423,0.00000449,0.000
 00798,-0.00001001,0.00001972,0.00001199,-0.00004890,0.00002717,-0.0000
 0970,-0.01063404,-0.01562307,-0.01269942,0.00042946,0.00032323,0.00003
 349,-0.06529615,-0.04695161,-0.05073584,-0.00346585,-0.01141063,-0.011
 40625,0.07495307,0.00003852,0.00000594,0.00000115,0.00000263,-0.000050
 84,0.00001301,0.00003460,-0.00001105,0.00004967,0.00016376,-0.00025273
 ,0.00000974,0.00335276,-0.00193646,0.00386343,-0.00163560,-0.00104391,
 -0.00013562,0.00023920,0.00092064,-0.00102170,-0.00000472,0.00000909,0
 .00000152,-0.00000440,0.00001762,-0.00001912,-0.00000934,-0.00000143,0
 .00000339,-0.00000903,-0.00000048,-0.00000161,-0.00002112,0.00000700,-
 0.00000491,-0.01555025,-0.02051932,-0.01331195,-0.00024084,0.00050270,
 -0.00011498,-0.04251265,-0.16331935,-0.12830252,0.00391158,0.01304089,
 0.01151633,0.05499810,0.18078895,-0.00004589,-0.00002202,-0.00000565,-
 0.00001076,0.00003981,-0.00001004,-0.00002242,-0.00004179,-0.00008012,
 -0.00008951,0.00010345,0.00011575,-0.00121644,0.00233685,-0.00320145,0
 .00158016,0.00129268,0.00010114,-0.00044638,-0.00093255,0.00162958,0.0
 0000843,0.00000112,0.00000122,0.00000844,-0.00001069,0.00001693,0.0000
 1201,0.00000516,-0.00000463,0.00001127,0.00000791,0.00000601,0.0000238
 6,-0.00000419,0.00000534,0.01064463,0.01610075,0.01322877,-0.00016613,
 -0.00035257,0.00097150,-0.05294346,-0.13434914,-0.19827667,-0.00363691
 ,-0.01419153,-0.01355103,0.05001938,0.13818780,0.20791915,-0.00073129,
 -0.00011396,0.00002521,-0.00025942,0.00067501,-0.00000823,-0.00102493,
 -0.00030898,0.00059065,-0.00197235,0.00216535,-0.00111585,-0.00005903,
 0.00071902,0.02608353,-0.00036952,0.00070598,-0.00372902,0.00566107,0.
 00029779,-0.01435799,0.00017790,-0.00022405,-0.00010606,0.00016395,-0.
 00016534,0.00010321,0.00018852,0.00005420,-0.00008550,0.00017384,0.000
 02133,0.00000816,0.00038861,-0.00013516,0.00007716,-0.00341298,-0.0018
 5012,-0.00352102,-0.00018891,-0.00092701,-0.00021004,0.00298223,0.0046
 4130,0.00167606,0.00003810,0.00041881,0.00033500,-0.00139061,0.0002311
 0,0.00072912,0.45606154,-0.00004109,0.00009228,0.00001972,0.00001650,0
 .00017578,-0.00003503,-0.00010215,0.00011108,0.00011444,-0.00014196,0.
 00082573,-0.00073552,0.00021905,0.00314124,0.00380096,0.00000197,-0.00
 110029,0.00007149,0.00047072,-0.00400455,-0.00187242,0.00000109,-0.000
 07187,-0.00002604,-0.00000012,-0.00007629,0.00004679,0.00000079,-0.000
 02091,0.00000155,0.00000098,-0.00004295,-0.00002572,0.00004007,-0.0000
 4164,0.00000926,-0.00021193,-0.00165013,-0.00116419,-0.00031943,-0.000
 03465,0.00009393,0.00130236,0.00134022,-0.00063719,0.00092865,-0.00111
 632,-0.00029026,-0.00066058,-0.00003274,0.00096709,0.10243714,0.066037
 77,0.00018951,0.00008104,0.00012098,0.00004536,-0.00021701,0.00017178,
 0.00017527,0.00026001,0.00030207,-0.00002698,-0.00032242,-0.00019280,0
 .00887511,0.00070063,0.00007488,-0.00099767,-0.00025737,-0.00035228,-0
 .00348479,0.00013741,-0.00412692,-0.00005076,-0.00000667,-0.00005658,-
 0.00003977,0.00009478,-0.00013477,-0.00003665,-0.00000319,-0.00002936,
 -0.00004750,-0.00004947,-0.00005586,-0.00011335,0.00003330,-0.00004266
 ,-0.00146649,0.00078666,-0.00016208,-0.00018843,0.00006080,-0.00033082
 ,0.00090211,-0.00185644,-0.00039475,0.00008218,-0.00004422,0.00005647,
 -0.00060333,0.00043394,0.00040455,0.07334473,0.04133252,0.05423479,-0.
 00128487,-0.00035495,-0.00003306,-0.00042338,0.00098179,-0.00004652,-0
 .00097993,-0.00130918,-0.00019121,-0.00064652,0.00105857,0.00150570,-0
 .01115016,-0.00577269,-0.00061544,0.00233811,0.00269020,-0.00106954,0.
 00266277,0.00164812,0.00058423,0.00032040,-0.00018682,-0.00006982,0.00
 030379,-0.00020347,0.00018910,0.00034235,0.00012152,-0.00014364,0.0002
 9615,0.00011275,0.00007036,0.00068404,-0.00019883,0.00014055,-0.011828
 56,-0.00334993,0.00906623,0.00203417,0.00099250,0.00119089,-0.12971597
 ,0.03041735,0.02896233,-0.01417946,0.00893121,0.00573980,0.00886976,-0
 .00358220,-0.00774651,-0.00473016,-0.03526950,-0.03407204,0.94340350,-
 0.00007030,0.00028277,0.00019418,-0.00014539,-0.00000886,0.00020092,-0
 .00053212,0.00100987,0.00092926,-0.00169293,-0.00054945,-0.00145246,0.
 00057893,0.00892325,0.02177725,-0.00028505,-0.00316984,-0.00269032,0.0
 0846226,-0.00061658,-0.00933160,0.00002079,-0.00018785,-0.00015786,0.0
 0003920,0.00000324,-0.00012684,0.00002051,-0.00002622,-0.00006157,0.00
 000404,-0.00013380,-0.00011337,0.00002062,-0.00006793,-0.00001923,-0.0
 3652421,-0.00469865,0.01078849,-0.00261362,-0.00000332,0.00085387,0.04
 639199,-0.09941360,-0.02143300,0.01104555,-0.00548146,-0.00868074,0.01
 930040,-0.00946179,-0.00876654,-0.01127826,-0.01373667,-0.00275533,0.1
 9257257,0.49402709,-0.00001786,0.00023344,0.00023363,0.00004384,0.0002
 2866,0.00027163,-0.00027380,0.00049599,0.00087811,-0.00028068,0.001933
 23,-0.00135975,0.00050560,0.00484178,0.01579430,-0.00088414,-0.0021220
 1,-0.00206939,0.00823419,-0.00087631,-0.00862271,-0.00003111,-0.000233
 11,-0.00019342,-0.00001963,-0.00003289,-0.00012109,0.00001085,-0.00002
 000,-0.00007695,-0.00001228,-0.00014410,-0.00012671,0.00001488,-0.0000
 5848,-0.00002584,0.01016677,-0.00287953,-0.00954153,0.00152935,-0.0010
 7393,-0.00070780,0.02906429,-0.01106327,-0.11182028,-0.02318295,0.0097
 0203,0.01426502,0.02181556,-0.01220184,-0.01055241,-0.01035805,-0.0031
 3385,-0.00831502,0.08719207,0.21647485,0.42809961,0.00062480,0.0001399
 7,-0.00000092,0.00020668,-0.00053190,0.00002854,0.00067824,0.00048270,
 -0.00019784,0.00093622,-0.00128417,0.00018515,0.00110742,0.00115295,-0
 .01042023,-0.00039903,-0.00090834,0.00178407,-0.01240416,-0.00162025,0
 .00747818,-0.00015319,0.00013807,0.00005609,-0.00014171,0.00012291,-0.
 00009371,-0.00016394,-0.00005337,0.00007030,-0.00014494,-0.00003913,-0
 .00002344,-0.00033396,0.00010519,-0.00006804,0.00144713,0.00067276,0.0
 0047470,-0.00036148,0.00038885,-0.00020095,0.00521831,0.01900994,0.022
 07037,0.00136463,-0.00074393,-0.00047626,-0.00499787,0.00236222,0.0029
 1527,-0.46109011,-0.06847580,-0.04200424,-0.11955776,-0.01232745,-0.00
 582996,0.60488068,0.00014604,-0.00019325,-0.00012658,0.00004005,-0.000
 28960,-0.00012387,0.00036183,-0.00038221,-0.00053792,0.00064507,-0.001
 07097,0.00087652,-0.00106700,-0.00505792,-0.01256236,0.00036755,0.0019
 0878,0.00131447,-0.00623945,0.00245721,0.00666462,-0.00001873,0.000196
 15,0.00013431,-0.00002314,0.00008277,0.00001920,-0.00003265,0.00002252
 ,0.00004576,-0.00001750,0.00010736,0.00008210,-0.00009018,0.00008346,-
 0.00000577,0.00464549,0.00723531,0.00218730,0.00101713,-0.00014351,-0.
 00043783,-0.00635885,-0.01382833,-0.02241139,-0.00106333,0.00081663,0.
 00052997,0.00370221,-0.00019185,-0.00199695,-0.10026311,-0.04825297,-0
 .03024601,0.03183529,-0.18810524,-0.13391320,0.12158681,0.27286413,-0.
 00001571,-0.00017276,-0.00021329,0.00001339,-0.00003698,-0.00028662,0.
 00016767,-0.00045948,-0.00071263,0.00054199,-0.00064894,0.00058094,-0.
 00443044,-0.00356049,-0.01225158,0.00102624,0.00117957,0.00165259,-0.0
 0389213,0.00029460,0.00840243,0.00002213,0.00016034,0.00016569,0.00000
 195,-0.00003634,0.00015348,-0.00000883,0.00000633,0.00007622,0.0000167
 6,0.00010872,0.00010575,0.00001660,0.00002871,0.00003328,0.00204688,0.
 00293806,0.00336934,0.00033635,0.00021945,0.00015171,-0.00093428,-0.02
 863663,-0.00782065,0.00254484,-0.00155201,-0.00174697,0.00397977,-0.00
 160249,-0.00047409,-0.07165282,-0.03058382,-0.04026821,0.03535441,-0.1
 3007053,-0.18352714,0.07762794,0.22629104,0.24455769,0.00103799,0.0002
 7036,0.00001062,0.00030338,-0.00090357,0.00001229,0.00075418,0.0011654
 5,0.00019515,0.00023621,-0.00155972,-0.00124959,0.00666556,0.00503827,
 0.00218557,-0.00148743,-0.00227715,0.00060636,-0.00300787,-0.00069190,
 0.00065150,-0.00024670,0.00018750,0.00008239,-0.00023503,0.00019283,-0
 .00016806,-0.00027424,-0.00009364,0.00012096,-0.00023529,-0.00007438,-
 0.00004553,-0.00056413,0.00017191,-0.00011495,-0.01152190,-0.00306897,
 0.00240434,-0.00139346,-0.00039907,-0.00087280,-0.04557199,-0.01410645
 ,-0.00883629,-0.00369290,0.00093699,0.00204880,0.00069776,-0.00165274,
 0.00038058,0.00689609,-0.00033647,-0.00003768,-0.66934495,-0.21397920,
 -0.11758667,-0.01513888,-0.04858344,-0.04259191,0.73816818,0.00017018,
 -0.00006892,-0.00005112,0.00007009,-0.00019251,-0.00005522,0.00024806,
 -0.00010710,-0.00022798,0.00044848,-0.00027785,0.00024190,0.00034101,-
 0.00152795,-0.00617560,0.00007026,0.00074193,0.00086667,-0.00324081,0.
 00004097,0.00324619,-0.00003755,0.00010497,0.00006700,-0.00004045,0.00
 004966,-0.00000340,-0.00004135,0.00000210,0.00002922,-0.00003259,0.000
 04140,0.00003141,-0.00009675,0.00005674,-0.00001534,0.00574512,0.00190
 435,0.00057417,0.00050021,-0.00015339,-0.00025695,-0.00335008,0.018048
 42,-0.00640347,-0.00154046,0.00050462,0.00207078,-0.00079194,0.0011674
 5,0.00178106,0.00523205,-0.00055927,-0.00822841,-0.22134442,-0.1772708
 1,-0.06352483,-0.06106341,-0.03011772,-0.03524828,0.27933919,0.1869751
 4,0.00003035,-0.00005296,-0.00010047,-0.00000282,-0.00008337,-0.000125
 90,0.00010652,-0.00010173,-0.00029495,0.00008879,-0.00054434,0.0002763
 0,-0.00006185,-0.00128192,-0.00499940,0.00025386,0.00057090,0.00067835
 ,-0.00287335,0.00032693,0.00289132,0.00000265,0.00008080,0.00007765,-0
 .00000482,-0.00000015,0.00005606,-0.00001403,-0.00000287,0.00004264,-0
 .00000121,0.00004337,0.00004527,-0.00001470,0.00001684,0.00001129,0.00
 042900,0.00183124,0.00222425,-0.00066524,0.00005385,-0.00012352,0.0122
 0961,-0.00561519,0.02004655,0.00505930,-0.00101380,-0.00190228,-0.0015
 1188,0.00271300,0.00169283,0.00441023,-0.00771042,-0.00035994,-0.12498
 614,-0.06361405,-0.12119739,-0.05442051,-0.03695754,-0.01341821,0.1620
 2621,0.11061025,0.11388756,0.00109338,-0.00006461,0.00022087,0.0016631
 6,0.00067654,0.00344210,0.00871770,-0.00845215,-0.02474692,-0.07274700
 ,-0.00033100,0.00818994,0.00144507,0.00486680,0.02333403,-0.00060570,0
 .00252631,-0.00273742,-0.00673708,0.00305049,0.00579438,-0.00459974,0.
 00162426,-0.00241819,0.00010136,0.00026278,-0.00071418,-0.00022619,-0.
 00002927,-0.00003071,-0.00034270,-0.00017210,-0.00015371,-0.00039393,0
 .00015848,-0.00011138,-0.00090598,0.00242754,0.00190473,0.00057718,-0.
 00095798,0.00011925,0.00074282,0.00039864,-0.00035900,-0.00002675,0.00
 011065,-0.00000707,-0.00000906,-0.00008116,-0.00001839,0.00117752,0.00
 024032,-0.00008238,0.00063769,0.00050420,0.00039693,-0.00059366,-0.000
 42039,-0.00027089,-0.00053610,-0.00023638,-0.00013654,0.06801925,0.000
 46363,-0.00004692,-0.00048297,-0.00095702,-0.00443372,-0.00221154,0.00
 145985,-0.00100861,-0.01757199,0.00012891,-0.09057924,-0.06781365,-0.0
 0592132,-0.00160135,-0.02412420,0.00151975,-0.00043080,0.00201779,0.00
 741802,-0.00240202,-0.00475885,0.00219716,0.00175202,0.00255771,0.0001
 2317,0.00050481,0.00031569,-0.00008473,0.00003034,0.00024913,0.0000045
 2,0.00041771,0.00033032,-0.00052668,0.00028246,-0.00006494,0.00083590,
 0.00160853,0.00358206,0.00082164,-0.00018600,-0.00024784,-0.00014177,-
 0.00021887,0.00019573,0.00013469,-0.00013124,-0.00019596,0.00026757,0.
 00006619,-0.00001539,-0.00139716,-0.00038754,-0.00007595,-0.00026202,-
 0.00083374,-0.00094341,0.00061263,0.00077218,0.00066220,0.00033013,0.0
 0034114,0.00031131,0.00102958,0.08778701,0.00106987,0.00073604,-0.0018
 7774,0.00055651,-0.00440444,-0.00511872,0.00539819,-0.00536103,-0.0364
 2087,-0.00392820,-0.07565719,-0.27745989,-0.00673948,-0.00127679,-0.03
 435936,0.00187025,-0.00636178,0.00802727,0.00994691,-0.00514480,-0.004
 68939,-0.00033101,0.00306777,0.00379758,-0.00079462,-0.00058597,0.0018
 9605,-0.00043493,-0.00037779,0.00109721,-0.00015078,0.00042904,0.00063
 217,-0.00081852,0.00016049,0.00012855,0.00104894,0.00263384,0.00712549
 ,0.00265829,-0.00074848,-0.00082143,0.00020939,0.00046993,-0.00005926,
 -0.00037895,-0.00034955,-0.00005244,0.00034365,0.00008627,-0.00005692,
 -0.00196861,-0.00036431,-0.00022060,-0.00083391,-0.00127526,-0.0009748
 7,0.00095241,0.00095425,0.00093720,0.00074285,0.00050660,0.00041140,-0
 .01168618,0.06866196,0.39568989,0.00046876,-0.00520304,0.00442980,0.01
 382650,0.01312072,-0.01095700,-0.09191038,-0.04246579,0.03098053,-0.00
 187733,-0.02728740,0.02571001,0.00319375,0.00095422,-0.00075416,-0.003
 80017,0.00090017,0.00031581,-0.00074512,0.00002597,0.00035045,-0.00061
 746,0.00085801,0.00040396,-0.00302438,0.00538259,-0.00406002,-0.005904
 25,0.00354587,-0.00248855,-0.00059770,0.00052298,-0.00116674,0.0007008
 8,0.00084404,-0.00043670,-0.00081645,-0.00046913,-0.00009414,0.0000258
 3,-0.00003389,0.00016052,0.00015174,0.00019999,-0.00011424,0.00008855,
 0.00004751,-0.00004151,-0.00003971,-0.00002568,0.00002837,0.00033614,0
 .00000561,-0.00010374,0.00058753,0.00004560,-0.00004817,-0.00028462,-0
 .00004666,0.00003142,-0.00046731,-0.00007579,-0.00000289,-0.00050467,-
 0.00070407,-0.00039310,0.09462087,-0.00247329,-0.00577032,0.00240820,-
 0.01670843,-0.01874616,0.03001574,-0.03831241,-0.19962421,0.10129361,-
 0.00966308,-0.01895647,0.02510944,0.00119092,-0.00878352,0.00206400,0.
 00213563,0.00423398,-0.00214335,-0.00077238,0.00142569,-0.00019209,0.0
 0188646,-0.00077222,-0.00318968,0.00717671,-0.00753975,0.00518245,0.00
 271766,0.00236835,-0.00252113,0.00066907,0.00193671,0.00008407,0.00049
 175,0.00105715,-0.00042325,-0.00139533,0.00106112,-0.00080610,-0.00024
 750,-0.00017667,0.00015067,0.00000658,0.00023925,0.00019857,0.00012220
 ,0.00001920,-0.00006862,0.00003755,0.00003202,-0.00000989,0.00016831,-
 0.00008168,-0.00001401,0.00042972,-0.00013087,-0.00015453,-0.00017906,
 0.00010652,0.00005210,-0.00034308,0.00000193,0.00001592,-0.00041772,0.
 00075537,-0.00088023,0.06019851,0.22616358,0.00254921,0.00234974,-0.00
 554340,0.00812021,0.01428314,-0.01597738,0.03365606,0.11400026,-0.1565
 1786,0.00543045,0.00706500,-0.00999269,-0.00092591,0.00435331,-0.00433
 364,-0.00103516,-0.00205699,0.00224986,0.00082712,-0.00064201,0.001563
 52,-0.00219227,0.00355977,0.00466044,-0.00397314,0.00413690,-0.0013192
 6,-0.00026918,-0.00196162,0.00378476,-0.00116336,0.00015264,0.00073330
 ,-0.00040735,-0.00058489,0.00072504,0.00069208,-0.00032910,0.00094804,
 0.00027711,0.00008682,-0.00014032,0.00003739,-0.00007858,-0.00011229,-
 0.00006237,-0.00004284,0.00000329,0.00000637,-0.00001329,0.00001116,-0
 .00024171,0.00000167,-0.00004689,-0.00026261,-0.00011908,-0.00013026,0
 .00016579,0.00008510,0.00013174,0.00021942,0.00005837,0.00006925,-0.00
 259145,-0.00246188,0.00658995,-0.06231837,-0.16091431,0.24233813,0.002
 72779,-0.00275005,-0.00150181,0.00469552,0.01502004,0.02603799,-0.0812
 3174,0.01750994,0.01735524,0.01264567,-0.01397204,-0.02173886,0.002095
 91,0.00206755,0.00455862,-0.00089584,0.00005804,-0.00110319,-0.0055707
 3,-0.00058441,-0.00192854,-0.00545484,0.00855528,0.00286316,0.00002049
 ,0.00089896,-0.00038428,-0.00026260,0.00013408,0.00025390,-0.00584389,
 0.00046663,0.00063998,-0.00032803,0.00055710,-0.00001510,0.00012221,-0
 .00057705,-0.00052779,0.00014010,-0.00013633,0.00006371,0.00022977,0.0
 0017822,-0.00007406,0.00001949,0.00005569,0.00000027,-0.00003756,-0.00
 000815,-0.00000431,0.00070065,0.00005695,-0.00013323,0.00051411,0.0003
 0828,0.00023770,-0.00043027,-0.00022516,-0.00012167,-0.00040629,-0.000
 15457,-0.00008422,-0.00537203,-0.00383125,-0.00640489,0.00558525,0.000
 34767,0.02220639,0.07764459,-0.00234432,-0.00597418,-0.00205609,0.0036
 8726,-0.01258770,-0.03132987,0.01332014,-0.14505677,-0.10082154,0.0082
 3344,-0.00678502,-0.02427456,0.00018983,-0.00532864,-0.00319005,0.0004
 7988,0.00219366,0.00057540,-0.00053172,0.00163586,0.00240273,0.0065069
 1,-0.00754277,-0.00243137,0.00112798,-0.00022061,-0.00066106,0.0003667
 8,0.00062892,0.00038106,0.00019422,0.00337972,0.00206885,0.00143711,0.
 00073620,0.00047010,-0.00061593,0.00080670,0.00040043,0.00009864,-0.00
 012016,-0.00004381,0.00004281,0.00012212,0.00002020,0.00007743,-0.0000
 3736,-0.00003988,0.00005956,0.00001355,0.00000734,-0.00011791,-0.00007
 167,-0.00007136,0.00008039,-0.00029273,-0.00031444,0.00001429,0.000217
 66,0.00023441,-0.00004547,0.00009069,0.00009809,-0.00601454,-0.0021553
 5,-0.00419105,-0.00205221,0.02524030,0.01921165,-0.02295983,0.15070469
 ,-0.00156017,-0.00468565,-0.00586756,0.00497731,-0.00720497,-0.0211398
 3,0.01809285,-0.11403625,-0.22006302,0.00714818,-0.01469150,-0.0288628
 1,0.00237699,-0.00217419,-0.00784874,-0.00146225,0.00094519,0.00116509
 ,0.00027888,0.00077988,0.00495117,0.00288675,-0.00282611,0.00079268,-0
 .00202875,0.00087497,0.00728589,0.00018106,-0.00024136,0.00209287,-0.0
 0050944,0.00292707,0.00331375,0.00149706,0.00022591,0.00097131,-0.0009
 1198,0.00027951,0.00107872,0.00023976,-0.00000531,-0.00000977,0.000074
 35,0.00022535,-0.00013344,0.00006200,-0.00006886,-0.00005541,0.0000406
 5,-0.00001376,0.00003208,-0.00022254,-0.00006745,-0.00016219,0.0001290
 6,-0.00044679,-0.00047602,0.00005382,0.00029705,0.00038991,-0.00008648
 ,0.00012549,0.00016028,-0.00706965,-0.00336717,-0.00344982,0.02054248,
 0.00533189,-0.07124617,-0.04096492,0.14206871,0.33372282,0.00115534,-0
 .00056764,0.00048368,0.00383764,0.00199257,0.00033610,0.00665725,-0.02
 798300,0.01920921,-0.07802956,-0.02808120,0.00781861,0.00672074,0.0177
 3229,-0.00689400,-0.00374584,0.00680617,-0.00164717,-0.00081478,0.0004
 2118,-0.00037773,-0.00235808,0.00001810,0.00058618,-0.00619281,-0.0003
 8872,-0.00231461,-0.00032068,0.00005680,-0.00009823,-0.00029147,-0.000
 09159,-0.00015799,-0.00018530,0.00013092,-0.00006594,0.00115772,-0.001
 24287,0.00202866,0.00052787,0.00009606,0.00015067,-0.00059133,-0.00037
 583,0.00018151,-0.00147378,0.00053564,-0.00048281,-0.00007290,0.000003
 42,-0.00001443,0.00028314,-0.00016317,-0.00012523,0.00084734,0.0001335
 9,-0.00068672,-0.00026853,0.00010210,0.00019034,-0.00063488,-0.0001180
 8,0.00016368,0.00942544,-0.00352113,0.01006595,-0.00899626,-0.00706647
 ,0.00125531,-0.00130775,-0.00123475,-0.00376499,0.07467146,0.00022584,
 -0.00146670,0.00076549,-0.00118607,-0.00703570,0.00182011,0.00138964,-
 0.02428277,0.02337017,-0.03829121,-0.25113112,0.07957771,-0.01913069,-
 0.03414167,0.02380278,0.00990035,-0.01071289,0.00093080,0.00510055,0.0
 0402505,-0.00698806,0.00103124,0.00259069,0.00025913,0.00118589,0.0038
 0312,-0.00268583,0.00017360,0.00058824,-0.00062580,0.00006601,0.000679
 60,0.00015591,-0.00055478,0.00067503,-0.00034377,0.00560968,0.00606704
 ,-0.00050268,-0.00020946,0.00007889,-0.00010072,0.00035722,-0.00163800
 ,0.00163762,0.00112237,0.00001452,-0.00063905,0.00051141,0.00024989,-0
 .00013775,-0.00098634,-0.00044195,0.00022679,-0.00003796,-0.00005684,-
 0.00122024,0.00043750,0.00076288,0.00043322,0.00048263,0.00020402,0.00
 030585,-0.00069928,0.01009763,0.02927247,-0.00828813,-0.00405931,-0.00
 013980,-0.00101560,0.00040291,-0.00425165,0.04280559,0.30472747,0.0002
 0100,0.00043395,-0.00058917,0.00129228,0.00232828,-0.00398646,0.002532
 56,0.00424751,-0.00048161,0.01572372,0.08712934,-0.10401178,0.00480895
 ,0.00841940,-0.00764756,-0.00230785,0.00252428,0.00107402,-0.00178073,
 -0.00318583,0.00618811,0.00067418,0.00012966,0.00090066,-0.00419910,-0
 .00192179,0.00139170,-0.00024667,-0.00029735,0.00049702,-0.00004031,-0
 .00009811,0.00010711,0.00013262,-0.00024233,0.00018421,-0.00137914,-0.
 00104361,0.00127153,0.00050704,-0.00030963,-0.00011913,-0.00001032,0.0
 0077140,-0.00071823,-0.00052516,-0.00007725,0.00017899,0.00001270,-0.0
 0013546,0.00007700,0.00019438,0.00018679,-0.00011379,-0.00005428,-0.00
 010425,0.00029626,-0.00012653,-0.00016228,0.00001143,-0.00009710,-0.00
 001851,-0.00004895,0.00973184,0.04545183,-0.06077146,0.00002600,-0.000
 58946,0.00155168,0.00076994,0.00148611,0.00335823,-0.02584003,-0.14492
 270,0.16140020\\0.00000860,-0.00001398,-0.00000732,-0.00000459,0.00000
 890,0.00000358,-0.00000399,-0.00000214,0.00001260,0.00000466,0.0000266
 4,-0.00001656,-0.00000562,-0.00001755,0.00002203,0.00000002,0.00000751
 ,-0.00000137,0.00000343,0.00000232,-0.00001235,-0.00000291,-0.00000339
 ,-0.00001191,0.00000135,0.00000251,0.00000494,0.00000187,0.00000666,-0
 .00000127,-0.00000061,0.00000658,0.00000457,-0.00000470,0.00000249,-0.
 00000330,-0.00001376,-0.00000954,-0.00000002,0.00000364,0.00000109,0.0
 0000402,0.00001326,0.00002608,0.00000074,-0.00000197,-0.00000452,-0.00
 000056,-0.00000280,-0.00000229,0.00000091,0.00000182,-0.00000500,-0.00
 000221,0.00000711,-0.00000324,-0.00000593,-0.00000109,0.00000148,0.000
 00467,-0.00000569,-0.00000213,0.00000242,-0.00000273,0.00000464,-0.000
 00043,0.00000456,-0.00000285,-0.00000120,-0.00000012,-0.00001273,-0.00
 000944,0.00000027,-0.00001753,0.00001341\\\@


 IF I AM NOT FOR MYSELF, WHO WILL BE?
 BUT IF I AM ONLY FOR MYSELF, WHAT AM I?
 THOUGH A SEEKER SINCE MY BIRTH,
 HERE IS ALL I'VE LEARNED ON EARTH,
 THIS IS THE GIST OF WHAT I KNOW:
 GIVE ADVICE AND BUY A FOE.

 PRESSED FOR RULES AND VERITIES,
 ALL I RECOLLECT ARE THESE:
 FEED A COLD TO STARVE A FEVER,
 ARGUE WITH NO TRUE-BELIEVER.
 THINK-TOO-LONG IS NEVER-ACT,
 SCRATCH A MYTH AND FIND A FACT.

 STITCH IN TIME SAVES TWENTY STITCHES,
 GIVE THE RICH TO PLEASE THEM, RICHES.
 GIVE TO LOVE YOU HEARTH AND HALL,
 BUT DO NOT GIVE ADVICE AT ALL.

                                  -- HILLEL
 Job cpu time:       1 days  8 hours 40 minutes 22.1 seconds.
 Elapsed time:       0 days  0 hours 35 minutes  1.2 seconds.
 File lengths (MBytes):  RWF=    902 Int=      0 D2E=      0 Chk=     29 Scr=      1
 Normal termination of Gaussian 16 at Tue Dec 30 13:16:42 2025.
