 Entering Gaussian System, Link 0=/applications/g16/g16/g16
 Initial command:
 /applications/g16/g16/l1.exe "/scratch/g98/Gau-29458.inp" -scrdir="/scratch/g98/"
 Entering Link 1 = /applications/g16/g16/l1.exe PID=     29459.
  
 Copyright (c) 1988,1990,1992,1993,1995,1998,2003,2009,2016,
            Gaussian, Inc.  All Rights Reserved.
  
 This is part of the Gaussian(R) 16 program.  It is based on
 the Gaussian(R) 09 system (copyright 2009, Gaussian, Inc.),
 the Gaussian(R) 03 system (copyright 2003, Gaussian, Inc.),
 the Gaussian(R) 98 system (copyright 1998, Gaussian, Inc.),
 the Gaussian(R) 94 system (copyright 1995, Gaussian, Inc.),
 the Gaussian 92(TM) system (copyright 1992, Gaussian, Inc.),
 the Gaussian 90(TM) system (copyright 1990, Gaussian, Inc.),
 the Gaussian 88(TM) system (copyright 1988, Gaussian, Inc.),
 the Gaussian 86(TM) system (copyright 1986, Carnegie Mellon
 University), and the Gaussian 82(TM) system (copyright 1983,
 Carnegie Mellon University). Gaussian is a federally registered
 trademark of Gaussian, Inc.
  
 This software contains proprietary and confidential information,
 including trade secrets, belonging to Gaussian, Inc.
  
 This software is provided under written license and may be
 used, copied, transmitted, or stored only in accord with that
 written license.
  
 The following legend is applicable only to US Government
 contracts under FAR:
  
                    RESTRICTED RIGHTS LEGEND
  
 Use, reproduction and disclosure by the US Government is
 subject to restrictions as set forth in subparagraphs (a)
 and (c) of the Commercial Computer Software - Restricted
 Rights clause in FAR 52.227-19.
  
 Gaussian, Inc.
 340 Quinnipiac St., Bldg. 40, Wallingford CT 06492
  
  
 ---------------------------------------------------------------
 Warning -- This program may not be used in any manner that
 competes with the business of Gaussian, Inc. or will provide
 assistance to any competitor of Gaussian, Inc.  The licensee
 of this program is prohibited from giving any competitor of
 Gaussian, Inc. access to this program.  By using this program,
 the user acknowledges that Gaussian, Inc. is engaged in the
 business of creating and licensing software in the field of
 computational chemistry and represents and warrants to the
 licensee that it is not a competitor of Gaussian, Inc. and that
 it will not use this program in any manner prohibited above.
 ---------------------------------------------------------------
  

 Cite this work as:
 Gaussian 16, Revision A.03,
 M. J. Frisch, G. W. Trucks, H. B. Schlegel, G. E. Scuseria, 
 M. A. Robb, J. R. Cheeseman, G. Scalmani, V. Barone, 
 G. A. Petersson, H. Nakatsuji, X. Li, M. Caricato, A. V. Marenich, 
 J. Bloino, B. G. Janesko, R. Gomperts, B. Mennucci, H. P. Hratchian, 
 J. V. Ortiz, A. F. Izmaylov, J. L. Sonnenberg, D. Williams-Young, 
 F. Ding, F. Lipparini, F. Egidi, J. Goings, B. Peng, A. Petrone, 
 T. Henderson, D. Ranasinghe, V. G. Zakrzewski, J. Gao, N. Rega, 
 G. Zheng, W. Liang, M. Hada, M. Ehara, K. Toyota, R. Fukuda, 
 J. Hasegawa, M. Ishida, T. Nakajima, Y. Honda, O. Kitao, H. Nakai, 
 T. Vreven, K. Throssell, J. A. Montgomery, Jr., J. E. Peralta, 
 F. Ogliaro, M. J. Bearpark, J. J. Heyd, E. N. Brothers, K. N. Kudin, 
 V. N. Staroverov, T. A. Keith, R. Kobayashi, J. Normand, 
 K. Raghavachari, A. P. Rendell, J. C. Burant, S. S. Iyengar, 
 J. Tomasi, M. Cossi, J. M. Millam, M. Klene, C. Adamo, R. Cammi, 
 J. W. Ochterski, R. L. Martin, K. Morokuma, O. Farkas, 
 J. B. Foresman, and D. J. Fox, Gaussian, Inc., Wallingford CT, 2016.
 
 ******************************************
 Gaussian 16:  EM64M-G16RevA.03 25-Dec-2016
                12-Feb-2023 
 ******************************************
 %mem=48GB
 %nprocshared=24
 Will use up to   24 processors via shared memory.
 %chk=oh.chk
 ----------------------------------------------------------
 # opt wb97xd/6-311+g(2d,2p) freq geom=connectivity scf=xqc
 ----------------------------------------------------------
 1/18=20,19=15,26=3,38=1,57=2/1,3;
 2/9=110,12=2,17=6,18=5,40=1/2;
 3/5=4,6=6,7=212,11=2,25=1,30=1,71=1,74=-58/1,2,3;
 4//1;
 5/5=2,8=3,13=1,38=5/2,8;
 6/7=2,8=2,9=2,10=2,28=1/1;
 7//1,2,3,16;
 1/18=20,19=15,26=3/3(2);
 2/9=110/2;
 99//99;
 2/9=110/2;
 3/5=4,6=6,7=212,11=2,25=1,30=1,71=1,74=-58/1,2,3;
 4/5=5,16=3,69=1/1;
 5/5=2,8=3,13=1,38=5/2,8;
 7//1,2,3,16;
 1/18=20,19=15,26=3/3(-5);
 2/9=110/2;
 6/7=2,8=2,9=2,10=2,19=2,28=1/1;
 99/9=1/99;
 -------------------
 Title Card Required
 -------------------
 Symbolic Z-matrix:
 Charge =  0 Multiplicity = 2
 H                    -2.46066  -0.19189  -0.03625 
 O                    -3.25909  -0.72167   0.02246 
 

 GradGradGradGradGradGradGradGradGradGradGradGradGradGradGradGradGradGrad
 Berny optimization.
 Initialization pass.
                           ----------------------------
                           !    Initial Parameters    !
                           ! (Angstroms and Degrees)  !
 --------------------------                            --------------------------
 ! Name  Definition              Value          Derivative Info.                !
 --------------------------------------------------------------------------------
 ! R1    R(1,2)                  0.96           estimate D2E/DX2                !
 --------------------------------------------------------------------------------
 Trust Radius=3.00D-01 FncErr=1.00D-07 GrdErr=1.00D-06 EigMax=2.50D+02 EigMin=1.00D-04
 Number of steps in this run=     20 maximum allowed number of steps=    100.
 GradGradGradGradGradGradGradGradGradGradGradGradGradGradGradGradGradGrad

                          Input orientation:                          
 ---------------------------------------------------------------------
 Center     Atomic      Atomic             Coordinates (Angstroms)
 Number     Number       Type             X           Y           Z
 ---------------------------------------------------------------------
      1          1           0       -2.460656   -0.191891   -0.036246
      2          8           0       -3.259085   -0.721668    0.022459
 ---------------------------------------------------------------------
 Stoichiometry    HO(2)
 Framework group  C*V[C*(HO)]
 Deg. of freedom     1
 Full point group                 C*V     NOp   4
 Largest Abelian subgroup         C2V     NOp   4
 Largest concise Abelian subgroup C1      NOp   1
                         Standard orientation:                         
 ---------------------------------------------------------------------
 Center     Atomic      Atomic             Coordinates (Angstroms)
 Number     Number       Type             X           Y           Z
 ---------------------------------------------------------------------
      1          1           0        0.000000    0.000000   -0.853333
      2          8           0       -0.000000   -0.000000    0.106667
 ---------------------------------------------------------------------
 Rotational constants (GHZ):           0.0000000         578.3977207         578.3977207
 Standard basis: 6-311+G(2d,2p) (5D, 7F)
 There are    20 symmetry adapted cartesian basis functions of A1  symmetry.
 There are     2 symmetry adapted cartesian basis functions of A2  symmetry.
 There are     8 symmetry adapted cartesian basis functions of B1  symmetry.
 There are     8 symmetry adapted cartesian basis functions of B2  symmetry.
 There are    18 symmetry adapted basis functions of A1  symmetry.
 There are     2 symmetry adapted basis functions of A2  symmetry.
 There are     8 symmetry adapted basis functions of B1  symmetry.
 There are     8 symmetry adapted basis functions of B2  symmetry.
    36 basis functions,    53 primitive gaussians,    38 cartesian basis functions
     5 alpha electrons        4 beta electrons
       nuclear repulsion energy         4.4098101093 Hartrees.
 NAtoms=    2 NActive=    2 NUniq=    2 SFac= 1.00D+00 NAtFMM=   60 NAOKFM=F Big=F
 Integral buffers will be    131072 words long.
 Raffenetti 2 integral format.
 Two-electron integral symmetry is turned on.
 Nuclear repulsion after empirical dispersion term =        4.4098095409 Hartrees.
 One-electron integrals computed using PRISM.
 NBasis=    36 RedAO= T EigKep=  4.32D-03  NBF=    18     2     8     8
 NBsUse=    36 1.00D-06 EigRej= -1.00D+00 NBFU=    18     2     8     8
 ExpMin= 8.45D-02 ExpMax= 8.59D+03 ExpMxC= 1.30D+03 IAcc=3 IRadAn=         5 AccDes= 0.00D+00
 Harris functional with IExCor= 4639 and IRadAn=       5 diagonalized for initial guess.
 HarFok:  IExCor= 4639 AccDes= 0.00D+00 IRadAn=         5 IDoV= 1 UseB2=F ITyADJ=14
 ICtDFT=  3500011 ScaDFX=  1.000000  1.000000  1.000000  1.000000
 FoFCou: FMM=F IPFlag=           0 FMFlag=      100000 FMFlg1=           0
         NFxFlg=           0 DoJE=T BraDBF=F KetDBF=T FulRan=T
         wScrn=  0.000000 ICntrl=       500 IOpCl=  0 I1Cent=   200000004 NGrid=           0
         NMat0=    1 NMatS0=      1 NMatT0=    0 NMatD0=    1 NMtDS0=    0 NMtDT0=    0
 Petite list used in FoFCou.
 Initial guess orbital symmetries:
 Alpha Orbitals:
       Occupied  (SG) (SG) (SG) (PI) (PI)
       Virtual   (SG) (SG) (PI) (PI) (SG) (SG) (PI) (PI) (SG) (PI)
                 (PI) (SG) (SG) (DLTA) (DLTA) (PI) (PI) (SG) (SG)
                 (PI) (PI) (SG) (PI) (PI) (SG) (DLTA) (DLTA) (PI)
                 (PI) (SG) (SG)
 Beta  Orbitals:
       Occupied  (SG) (SG) (SG) (PI)
       Virtual   (PI) (SG) (SG) (PI) (PI) (SG) (SG) (PI) (PI) (SG)
                 (PI) (PI) (SG) (SG) (DLTA) (DLTA) (PI) (PI) (SG)
                 (SG) (PI) (PI) (SG) (PI) (PI) (SG) (DLTA) (DLTA)
                 (PI) (PI) (SG) (SG)
 Initial guess <Sx>= 0.0000 <Sy>= 0.0000 <Sz>= 0.5000 <S**2>= 0.7500 S= 0.5000
 Keep R1 and R2 ints in memory in symmetry-blocked form, NReq=21154410.
 Requested convergence on RMS density matrix=1.00D-08 within  32 cycles.
 Requested convergence on MAX density matrix=1.00D-06.
 Requested convergence on             energy=1.00D-06.
 No special actions if energy rises.
 Integral accuracy reduced to 1.0D-05 until final iterations.
 Initial convergence to 1.0D-05 achieved.  Increase integral accuracy.
 SCF Done:  E(UwB97XD) =  -75.7360985970     A.U. after   13 cycles
            NFock= 13  Conv=0.39D-08     -V/T= 2.0022
 <Sx>= 0.0000 <Sy>= 0.0000 <Sz>= 0.5000 <S**2>= 0.7527 S= 0.5013
 <L.S>= 0.000000000000E+00
 Annihilation of the first spin contaminant:
 S**2 before annihilation     0.7527,   after     0.7500
 QCSCF skips out because SCF is already converged.

 **********************************************************************

            Population analysis using the SCF density.

 **********************************************************************

 Orbital symmetries:
 Alpha Orbitals:
       Occupied  (SG) (SG) (SG) (PI) (PI)
       Virtual   (SG) (PI) (SG) (PI) (SG) (SG) (PI) (PI) (SG) (PI)
                 (PI) (?A) (SG) (?A) (?A) (PI) (PI) (SG) (SG) (PI)
                 (PI) (SG) (PI) (PI) (SG) (?B) (?B) (PI) (PI) (?B)
                 (SG)
 Beta  Orbitals:
       Occupied  (SG) (SG) (SG) (?A)
       Virtual   (?A) (SG) (SG) (?A) (?A) (SG) (SG) (PI) (PI) (SG)
                 (PI) (PI) (SG) (?B) (?B) (?B) (PI) (PI) (SG) (SG)
                 (PI) (PI) (SG) (PI) (PI) (SG) (?C) (?C) (PI) (PI)
                 (?C) (SG)
 Unable to determine electronic state:  an orbital has unidentified symmetry.
 Alpha  occ. eigenvalues --  -19.32500  -1.13251  -0.57867  -0.51301  -0.44326
 Alpha virt. eigenvalues --    0.11667   0.21727   0.22236   0.22941   0.26412
 Alpha virt. eigenvalues --    0.53406   0.74722   0.75877   0.91945   1.03814
 Alpha virt. eigenvalues --    1.07355   1.26654   1.41799   1.50983   1.51159
 Alpha virt. eigenvalues --    1.81601   1.85231   2.26208   2.66936   3.77393
 Alpha virt. eigenvalues --    3.78442   4.16871   4.96194   5.02212   5.80334
 Alpha virt. eigenvalues --    6.70461   6.70471   6.85728   6.91535   7.38999
 Alpha virt. eigenvalues --   49.85595
  Beta  occ. eigenvalues --  -19.30298  -1.05616  -0.54918  -0.41334
  Beta virt. eigenvalues --   -0.09423   0.12404   0.22583   0.23186   0.24681
  Beta virt. eigenvalues --    0.26697   0.54226   0.75843   0.76211   0.92788
  Beta virt. eigenvalues --    1.08588   1.11483   1.29006   1.43643   1.55879
  Beta virt. eigenvalues --    1.56236   1.86104   1.86184   2.27243   2.67662
  Beta virt. eigenvalues --    3.77974   3.78083   4.17788   5.04566   5.08170
  Beta virt. eigenvalues --    5.83125   6.79622   6.82445   6.93871   6.95143
  Beta virt. eigenvalues --    7.43710  49.88345
          Condensed to atoms (all electrons):
               1          2
     1  H    0.529647   0.238984
     2  O    0.238984   7.992384
          Atomic-Atomic Spin Densities.
               1          2
     1  H   -0.029062   0.011531
     2  O    0.011531   1.006000
 Mulliken charges and spin densities:
               1          2
     1  H    0.231369  -0.017531
     2  O   -0.231369   1.017531
 Sum of Mulliken charges =  -0.00000   1.00000
 Mulliken charges and spin densities with hydrogens summed into heavy atoms:
               1          2
     2  O   -0.000000   1.000000
 Electronic spatial extent (au):  <R**2>=             15.5746
 Charge=              0.0000 electrons
 Dipole moment (field-independent basis, Debye):
    X=              0.0000    Y=              0.0000    Z=             -1.7276  Tot=              1.7276
 Quadrupole moment (field-independent basis, Debye-Ang):
   XX=             -5.4954   YY=             -6.8513   ZZ=             -4.6670
   XY=             -0.0000   XZ=              0.0000   YZ=             -0.0000
 Traceless Quadrupole moment (field-independent basis, Debye-Ang):
   XX=              0.1759   YY=             -1.1800   ZZ=              1.0042
   XY=             -0.0000   XZ=              0.0000   YZ=             -0.0000
 Octapole moment (field-independent basis, Debye-Ang**2):
  XXX=              0.0000  YYY=             -0.0000  ZZZ=             -1.9902  XYY=              0.0000
  XXY=             -0.0000  XXZ=             -0.2066  XZZ=              0.0000  YZZ=             -0.0000
  YYZ=             -0.2932  XYZ=             -0.0000
 Hexadecapole moment (field-independent basis, Debye-Ang**3):
 XXXX=             -3.9740 YYYY=             -6.1787 ZZZZ=             -5.6019 XXXY=             -0.0000
 XXXZ=              0.0000 YYYX=             -0.0000 YYYZ=              0.0000 ZZZX=              0.0000
 ZZZY=              0.0000 XXYY=             -1.6921 XXZZ=             -1.8306 YYZZ=             -2.2284
 XXYZ=              0.0000 YYXZ=              0.0000 ZZXY=             -0.0000
 N-N= 4.409809540935D+00 E-N=-1.883135387604D+02  KE= 7.557151230871D+01
 Symmetry A1   KE= 6.831102490953D+01
 Symmetry A2   KE= 1.403628172571D-30
 Symmetry B1   KE= 2.528057995255D+00
 Symmetry B2   KE= 4.732429403925D+00
 Symmetry A1   SP=-4.363168355261D-15
 Symmetry A2   SP= 5.404079033637D-33
 Symmetry B1   SP= 1.000000000000D+00
 Symmetry B2   SP= 1.633025312198D-15
                          Isotropic Fermi Contact Couplings
        Atom                 a.u.       MegaHertz       Gauss      10(-4) cm-1
     1  H(1)              -0.01523     -68.09380     -24.29756     -22.71365
     2  O(17)              0.10040     -60.86456     -21.71799     -20.30223
 --------------------------------------------------------
       Center         ----  Spin Dipole Couplings  ----
                      3XX-RR        3YY-RR        3ZZ-RR
 --------------------------------------------------------
     1   Atom       -0.038172     -0.138783      0.176954
     2   Atom        3.831640     -1.916339     -1.915301
 --------------------------------------------------------
                        XY            XZ            YZ
 --------------------------------------------------------
     1   Atom        0.000000      0.000000     -0.000000
     2   Atom        0.000000      0.000000      0.000000
 --------------------------------------------------------


 ---------------------------------------------------------------------------------
              Anisotropic Spin Dipole Couplings in Principal Axis System
 ---------------------------------------------------------------------------------

       Atom             a.u.   MegaHertz   Gauss  10(-4) cm-1        Axes

              Baa    -0.1388   -74.048   -26.422   -24.700  0.0000  1.0000  0.0000
     1 H(1)   Bbb    -0.0382   -20.367    -7.267    -6.794  1.0000 -0.0000 -0.0000
              Bcc     0.1770    94.414    33.689    31.493  0.0000 -0.0000  1.0000
 
              Baa    -1.9163   138.665    49.479    46.254  0.0000  1.0000 -0.0000
     2 O(17)  Bbb    -1.9153   138.590    49.452    46.229  0.0000  0.0000  1.0000
              Bcc     3.8316  -277.255   -98.931   -92.482  1.0000  0.0000  0.0000
 

 ---------------------------------------------------------------------------------

 Calling FoFJK, ICntrl=      2127 FMM=F ISym2X=1 I1Cent= 0 IOpClX= 1 NMat=1 NMatS=1 NMatT=0.
 ***** Axes restored to original set *****
 -------------------------------------------------------------------
 Center     Atomic                   Forces (Hartrees/Bohr)
 Number     Number              X              Y              Z
 -------------------------------------------------------------------
      1        1           0.008006741    0.005312669   -0.000588701
      2        8          -0.008006741   -0.005312669    0.000588701
 -------------------------------------------------------------------
 Cartesian Forces:  Max     0.008006741 RMS     0.005558145

 GradGradGradGradGradGradGradGradGradGradGradGradGradGradGradGradGradGrad
 Berny optimization.
 FormGI is forming the generalized inverse of G from B-inverse, IUseBI=4.
 Internal  Forces:  Max     0.009626989 RMS     0.009626989
 Search for a local minimum.
 Step number   1 out of a maximum of   20
 All quantities printed in internal units (Hartrees-Bohrs-Radians)
 Mixed Optimization -- RFO/linear search
 Second derivative matrix not updated -- first step.
 The second derivative matrix:
                          R1
           R1           0.55473
 ITU=  0
     Eigenvalues ---    0.55473
 RFO step:  Lambda=-1.67018811D-04 EMin= 5.54734054D-01
 Linear search not attempted -- first point.
 Iteration  1 RMS(Cart)=  0.01226761 RMS(Int)=  0.00000000
 Iteration  2 RMS(Cart)=  0.00000000 RMS(Int)=  0.00000000
 ClnCor:  largest displacement from symmetrization is 5.36D-16 for atom     1.
 Variable       Old X    -DE/DX   Delta X   Delta X   Delta X     New X
                                 (Linear)    (Quad)   (Total)
    R1        1.81414   0.00963   0.00000   0.01735   0.01735   1.83149
         Item               Value     Threshold  Converged?
 Maximum Force            0.009627     0.000450     NO 
 RMS     Force            0.009627     0.000300     NO 
 Maximum Displacement     0.007215     0.001800     NO 
 RMS     Displacement     0.012268     0.001200     NO 
 Predicted change in Energy=-8.353454D-05
 GradGradGradGradGradGradGradGradGradGradGradGradGradGradGradGradGradGrad

                          Input orientation:                          
 ---------------------------------------------------------------------
 Center     Atomic      Atomic             Coordinates (Angstroms)
 Number     Number       Type             X           Y           Z
 ---------------------------------------------------------------------
      1          1           0       -2.456838   -0.189357   -0.036527
      2          8           0       -3.262903   -0.724201    0.022740
 ---------------------------------------------------------------------
 Stoichiometry    HO(2)
 Framework group  C*V[C*(HO)]
 Deg. of freedom     1
 Full point group                 C*V     NOp   4
 Largest Abelian subgroup         C2V     NOp   4
 Largest concise Abelian subgroup C1      NOp   1
                         Standard orientation:                         
 ---------------------------------------------------------------------
 Center     Atomic      Atomic             Coordinates (Angstroms)
 Number     Number       Type             X           Y           Z
 ---------------------------------------------------------------------
      1          1           0       -0.000000    0.000000   -0.861494
      2          8           0        0.000000   -0.000000    0.107687
 ---------------------------------------------------------------------
 Rotational constants (GHZ):           0.0000000         567.4917077         567.4917077
 Standard basis: 6-311+G(2d,2p) (5D, 7F)
 There are    20 symmetry adapted cartesian basis functions of A1  symmetry.
 There are     2 symmetry adapted cartesian basis functions of A2  symmetry.
 There are     8 symmetry adapted cartesian basis functions of B1  symmetry.
 There are     8 symmetry adapted cartesian basis functions of B2  symmetry.
 There are    18 symmetry adapted basis functions of A1  symmetry.
 There are     2 symmetry adapted basis functions of A2  symmetry.
 There are     8 symmetry adapted basis functions of B1  symmetry.
 There are     8 symmetry adapted basis functions of B2  symmetry.
    36 basis functions,    53 primitive gaussians,    38 cartesian basis functions
     5 alpha electrons        4 beta electrons
       nuclear repulsion energy         4.3680375412 Hartrees.
 NAtoms=    2 NActive=    2 NUniq=    2 SFac= 1.00D+00 NAtFMM=   60 NAOKFM=F Big=F
 Integral buffers will be    131072 words long.
 Raffenetti 2 integral format.
 Two-electron integral symmetry is turned on.
 Nuclear repulsion after empirical dispersion term =        4.3680369395 Hartrees.
 One-electron integrals computed using PRISM.
 NBasis=    36 RedAO= T EigKep=  4.49D-03  NBF=    18     2     8     8
 NBsUse=    36 1.00D-06 EigRej= -1.00D+00 NBFU=    18     2     8     8
 Initial guess from the checkpoint file:  "oh.chk"
 B after Tr=     0.000000   -0.000000   -0.000000
         Rot=    1.000000    0.000000   -0.000000    0.000000 Ang=   0.00 deg.
 Initial guess orbital symmetries:
 Alpha Orbitals:
       Occupied  (SG) (SG) (SG) (PI) (PI)
       Virtual   (SG) (PI) (SG) (PI) (SG) (SG) (PI) (PI) (SG) (PI)
                 (PI) (?A) (SG) (?A) (?A) (PI) (PI) (SG) (SG) (PI)
                 (PI) (SG) (PI) (PI) (SG) (?B) (?B) (PI) (PI) (?B)
                 (SG)
 Beta  Orbitals:
       Occupied  (SG) (SG) (SG) (?A)
       Virtual   (?A) (SG) (SG) (?A) (?A) (SG) (SG) (PI) (PI) (SG)
                 (PI) (PI) (SG) (?B) (?B) (?B) (PI) (PI) (SG) (SG)
                 (PI) (PI) (SG) (PI) (PI) (SG) (?C) (?C) (PI) (PI)
                 (?C) (SG)
 Initial guess <Sx>= 0.0000 <Sy>= 0.0000 <Sz>= 0.5000 <S**2>= 0.7527 S= 0.5014
 Keep R1 and R2 ints in memory in symmetry-blocked form, NReq=21154410.
 Requested convergence on RMS density matrix=1.00D-08 within  32 cycles.
 Requested convergence on MAX density matrix=1.00D-06.
 Requested convergence on             energy=1.00D-06.
 No special actions if energy rises.
 SCF Done:  E(UwB97XD) =  -75.7361842484     A.U. after    9 cycles
            NFock=  9  Conv=0.23D-08     -V/T= 2.0024
 <Sx>= 0.0000 <Sy>= 0.0000 <Sz>= 0.5000 <S**2>= 0.7527 S= 0.5014
 <L.S>= 0.000000000000E+00
 Annihilation of the first spin contaminant:
 S**2 before annihilation     0.7527,   after     0.7500
 QCSCF skips out because SCF is already converged.
 Calling FoFJK, ICntrl=      2127 FMM=F ISym2X=1 I1Cent= 0 IOpClX= 1 NMat=1 NMatS=1 NMatT=0.
 ***** Axes restored to original set *****
 -------------------------------------------------------------------
 Center     Atomic                   Forces (Hartrees/Bohr)
 Number     Number              X              Y              Z
 -------------------------------------------------------------------
      1        1           0.000286679    0.000190219   -0.000021078
      2        8          -0.000286679   -0.000190219    0.000021078
 -------------------------------------------------------------------
 Cartesian Forces:  Max     0.000286679 RMS     0.000199008

 GradGradGradGradGradGradGradGradGradGradGradGradGradGradGradGradGradGrad
 Berny optimization.
 Using GEDIIS/GDIIS optimizer.
 Internal  Forces:  Max     0.000344692 RMS     0.000344692
 Search for a local minimum.
 Step number   2 out of a maximum of   20
 All quantities printed in internal units (Hartrees-Bohrs-Radians)
 Mixed Optimization -- En-DIIS/RFO-DIIS
 Update second derivatives using D2CorX and points    1    2
 DE= -8.57D-05 DEPred=-8.35D-05 R= 1.03D+00
 TightC=F SS=  1.41D+00  RLast= 1.73D-02 DXNew= 5.0454D-01 5.2047D-02
 Trust test= 1.03D+00 RLast= 1.73D-02 DXMaxT set to 3.00D-01
 The second derivative matrix:
                          R1
           R1           0.53503
 ITU=  1  0
 Use linear search instead of GDIIS.
     Eigenvalues ---    0.53503
 RFO step:  Lambda= 0.00000000D+00 EMin= 5.35033001D-01
 Quartic linear search produced a step of  0.03839.
 Iteration  1 RMS(Cart)=  0.00047091 RMS(Int)=  0.00000000
 Iteration  2 RMS(Cart)=  0.00000000 RMS(Int)=  0.00000000
 ClnCor:  largest displacement from symmetrization is 9.04D-16 for atom     1.
 Variable       Old X    -DE/DX   Delta X   Delta X   Delta X     New X
                                 (Linear)    (Quad)   (Total)
    R1        1.83149   0.00034   0.00067   0.00000   0.00067   1.83215
         Item               Value     Threshold  Converged?
 Maximum Force            0.000345     0.000450     YES
 RMS     Force            0.000345     0.000300     NO 
 Maximum Displacement     0.000277     0.001800     YES
 RMS     Displacement     0.000471     0.001200     YES
 Predicted change in Energy=-1.109064D-07
 GradGradGradGradGradGradGradGradGradGradGradGradGradGradGradGradGradGrad

                          Input orientation:                          
 ---------------------------------------------------------------------
 Center     Atomic      Atomic             Coordinates (Angstroms)
 Number     Number       Type             X           Y           Z
 ---------------------------------------------------------------------
      1          1           0       -2.456691   -0.189260   -0.036538
      2          8           0       -3.263049   -0.724298    0.022750
 ---------------------------------------------------------------------
 Stoichiometry    HO(2)
 Framework group  C*V[C*(HO)]
 Deg. of freedom     1
 Full point group                 C*V     NOp   4
 Largest Abelian subgroup         C2V     NOp   4
 Largest concise Abelian subgroup C1      NOp   1
                         Standard orientation:                         
 ---------------------------------------------------------------------
 Center     Atomic      Atomic             Coordinates (Angstroms)
 Number     Number       Type             X           Y           Z
 ---------------------------------------------------------------------
      1          1           0        0.000000    0.000000   -0.861807
      2          8           0       -0.000000   -0.000000    0.107726
 ---------------------------------------------------------------------
 Rotational constants (GHZ):           0.0000000         567.0792273         567.0792273
 Standard basis: 6-311+G(2d,2p) (5D, 7F)
 There are    20 symmetry adapted cartesian basis functions of A1  symmetry.
 There are     2 symmetry adapted cartesian basis functions of A2  symmetry.
 There are     8 symmetry adapted cartesian basis functions of B1  symmetry.
 There are     8 symmetry adapted cartesian basis functions of B2  symmetry.
 There are    18 symmetry adapted basis functions of A1  symmetry.
 There are     2 symmetry adapted basis functions of A2  symmetry.
 There are     8 symmetry adapted basis functions of B1  symmetry.
 There are     8 symmetry adapted basis functions of B2  symmetry.
    36 basis functions,    53 primitive gaussians,    38 cartesian basis functions
     5 alpha electrons        4 beta electrons
       nuclear repulsion energy         4.3664498024 Hartrees.
 NAtoms=    2 NActive=    2 NUniq=    2 SFac= 1.00D+00 NAtFMM=   60 NAOKFM=F Big=F
 Integral buffers will be    131072 words long.
 Raffenetti 2 integral format.
 Two-electron integral symmetry is turned on.
 Nuclear repulsion after empirical dispersion term =        4.3664491993 Hartrees.
 One-electron integrals computed using PRISM.
 NBasis=    36 RedAO= T EigKep=  4.50D-03  NBF=    18     2     8     8
 NBsUse=    36 1.00D-06 EigRej= -1.00D+00 NBFU=    18     2     8     8
 Initial guess from the checkpoint file:  "oh.chk"
 B after Tr=     0.000000   -0.000000    0.000000
         Rot=    1.000000    0.000000    0.000000    0.000000 Ang=   0.00 deg.
 Initial guess orbital symmetries:
 Alpha Orbitals:
       Occupied  (SG) (SG) (SG) (PI) (PI)
       Virtual   (SG) (PI) (SG) (PI) (SG) (SG) (PI) (PI) (SG) (PI)
                 (PI) (?A) (SG) (?A) (?A) (PI) (PI) (SG) (SG) (PI)
                 (PI) (SG) (PI) (PI) (SG) (?B) (?B) (PI) (PI) (?B)
                 (SG)
 Beta  Orbitals:
       Occupied  (SG) (SG) (SG) (?A)
       Virtual   (?A) (SG) (SG) (?A) (?A) (SG) (SG) (PI) (PI) (SG)
                 (PI) (PI) (SG) (?B) (?B) (?B) (PI) (PI) (SG) (SG)
                 (PI) (PI) (SG) (PI) (PI) (SG) (?C) (?C) (PI) (PI)
                 (?C) (SG)
 Initial guess <Sx>= 0.0000 <Sy>= 0.0000 <Sz>= 0.5000 <S**2>= 0.7527 S= 0.5014
 Keep R1 and R2 ints in memory in symmetry-blocked form, NReq=21154410.
 Requested convergence on RMS density matrix=1.00D-08 within  32 cycles.
 Requested convergence on MAX density matrix=1.00D-06.
 Requested convergence on             energy=1.00D-06.
 No special actions if energy rises.
 SCF Done:  E(UwB97XD) =  -75.7361843631     A.U. after    6 cycles
            NFock=  6  Conv=0.93D-08     -V/T= 2.0024
 <Sx>= 0.0000 <Sy>= 0.0000 <Sz>= 0.5000 <S**2>= 0.7527 S= 0.5014
 <L.S>= 0.000000000000E+00
 Annihilation of the first spin contaminant:
 S**2 before annihilation     0.7527,   after     0.7500
 QCSCF skips out because SCF is already converged.
 Calling FoFJK, ICntrl=      2127 FMM=F ISym2X=1 I1Cent= 0 IOpClX= 1 NMat=1 NMatS=1 NMatT=0.
 ***** Axes restored to original set *****
 -------------------------------------------------------------------
 Center     Atomic                   Forces (Hartrees/Bohr)
 Number     Number              X              Y              Z
 -------------------------------------------------------------------
      1        1          -0.000000053   -0.000000035    0.000000004
      2        8           0.000000053    0.000000035   -0.000000004
 -------------------------------------------------------------------
 Cartesian Forces:  Max     0.000000053 RMS     0.000000037

 GradGradGradGradGradGradGradGradGradGradGradGradGradGradGradGradGradGrad
 Berny optimization.
 Using GEDIIS/GDIIS optimizer.
 Internal  Forces:  Max     0.000000064 RMS     0.000000064
 Search for a local minimum.
 Step number   3 out of a maximum of   20
 All quantities printed in internal units (Hartrees-Bohrs-Radians)
 Mixed Optimization -- En-DIIS/RFO-DIIS
 Swapping is turned off.
 Update second derivatives using D2CorX and points    3
 DE= -1.15D-07 DEPred=-1.11D-07 R= 1.03D+00
 Trust test= 1.03D+00 RLast= 6.66D-04 DXMaxT set to 3.00D-01
 The second derivative matrix:
                          R1
           R1           0.53503
 ITU=  0  1
     Eigenvalues ---    0.53503
 En-DIIS/RFO-DIIS/Sim-DIIS IScMMF=       -3 using points:     3    2
 RFO step:  Lambda=-7.71605002D-15.
 DidBck=F Rises=F RFO-DIIS coefs:    0.99981    0.00019
 Iteration  1 RMS(Cart)=  0.00000009 RMS(Int)=  0.00000000
 ClnCor:  largest displacement from symmetrization is 4.44D-16 for atom     1.
 Variable       Old X    -DE/DX   Delta X   Delta X   Delta X     New X
                                 (Linear)    (Quad)   (Total)
    R1        1.83215  -0.00000  -0.00000   0.00000  -0.00000   1.83215
         Item               Value     Threshold  Converged?
 Maximum Force            0.000000     0.000450     YES
 RMS     Force            0.000000     0.000300     YES
 Maximum Displacement     0.000000     0.001800     YES
 RMS     Displacement     0.000000     0.001200     YES
 Predicted change in Energy=-3.849661D-15
 Optimization completed.
    -- Stationary point found.
                           ----------------------------
                           !   Optimized Parameters   !
                           ! (Angstroms and Degrees)  !
 --------------------------                            --------------------------
 ! Name  Definition              Value          Derivative Info.                !
 --------------------------------------------------------------------------------
 ! R1    R(1,2)                  0.9695         -DE/DX =    0.0                 !
 --------------------------------------------------------------------------------
 GradGradGradGradGradGradGradGradGradGradGradGradGradGradGradGradGradGrad

                          Input orientation:                          
 ---------------------------------------------------------------------
 Center     Atomic      Atomic             Coordinates (Angstroms)
 Number     Number       Type             X           Y           Z
 ---------------------------------------------------------------------
      1          1           0       -2.456691   -0.189260   -0.036538
      2          8           0       -3.263049   -0.724298    0.022750
 ---------------------------------------------------------------------
 Stoichiometry    HO(2)
 Framework group  C*V[C*(HO)]
 Deg. of freedom     1
 Full point group                 C*V     NOp   4
 Largest Abelian subgroup         C2V     NOp   4
 Largest concise Abelian subgroup C1      NOp   1
                         Standard orientation:                         
 ---------------------------------------------------------------------
 Center     Atomic      Atomic             Coordinates (Angstroms)
 Number     Number       Type             X           Y           Z
 ---------------------------------------------------------------------
      1          1           0        0.000000    0.000000   -0.861807
      2          8           0       -0.000000   -0.000000    0.107726
 ---------------------------------------------------------------------
 Rotational constants (GHZ):           0.0000000         567.0792273         567.0792273

 **********************************************************************

            Population analysis using the SCF density.

 **********************************************************************

 Orbital symmetries:
 Alpha Orbitals:
       Occupied  (SG) (SG) (SG) (PI) (PI)
       Virtual   (SG) (PI) (SG) (PI) (SG) (SG) (PI) (PI) (SG) (PI)
                 (PI) (?A) (SG) (?A) (?A) (PI) (PI) (SG) (SG) (PI)
                 (PI) (SG) (PI) (PI) (SG) (?B) (?B) (PI) (PI) (?B)
                 (SG)
 Beta  Orbitals:
       Occupied  (SG) (SG) (SG) (?A)
       Virtual   (?A) (SG) (SG) (?A) (?A) (SG) (SG) (PI) (PI) (SG)
                 (PI) (PI) (SG) (?B) (?B) (?B) (PI) (PI) (SG) (SG)
                 (PI) (PI) (SG) (PI) (PI) (SG) (?C) (?C) (PI) (PI)
                 (?C) (SG)
 Unable to determine electronic state:  an orbital has unidentified symmetry.
 Alpha  occ. eigenvalues --  -19.32569  -1.12985  -0.57715  -0.51256  -0.44281
 Alpha virt. eigenvalues --    0.11464   0.21729   0.22221   0.22942   0.26408
 Alpha virt. eigenvalues --    0.52713   0.74498   0.75647   0.92442   1.03864
 Alpha virt. eigenvalues --    1.07405   1.26804   1.40800   1.51032   1.51211
 Alpha virt. eigenvalues --    1.81099   1.84735   2.26711   2.65817   3.77436
 Alpha virt. eigenvalues --    3.78451   4.14767   4.96029   5.02047   5.78912
 Alpha virt. eigenvalues --    6.70471   6.70486   6.85398   6.91207   7.37563
 Alpha virt. eigenvalues --   49.84932
  Beta  occ. eigenvalues --  -19.30363  -1.05323  -0.54783  -0.41287
  Beta virt. eigenvalues --   -0.09381   0.12214   0.22576   0.23188   0.24684
  Beta virt. eigenvalues --    0.26683   0.53514   0.75609   0.75960   0.93287
  Beta virt. eigenvalues --    1.08639   1.11528   1.29110   1.42688   1.55928
  Beta virt. eigenvalues --    1.56282   1.85611   1.85689   2.27750   2.66535
  Beta virt. eigenvalues --    3.77958   3.78070   4.15643   5.04403   5.08018
  Beta virt. eigenvalues --    5.81681   6.79638   6.82455   6.93556   6.94837
  Beta virt. eigenvalues --    7.42305  49.87688
          Condensed to atoms (all electrons):
               1          2
     1  H    0.527618   0.238331
     2  O    0.238331   7.995721
          Atomic-Atomic Spin Densities.
               1          2
     1  H   -0.029762   0.011324
     2  O    0.011324   1.007113
 Mulliken charges and spin densities:
               1          2
     1  H    0.234052  -0.018437
     2  O   -0.234052   1.018437
 Sum of Mulliken charges =  -0.00000   1.00000
 Mulliken charges and spin densities with hydrogens summed into heavy atoms:
               1          2
     2  O   -0.000000   1.000000
 Electronic spatial extent (au):  <R**2>=             15.6355
 Charge=             -0.0000 electrons
 Dipole moment (field-independent basis, Debye):
    X=              0.0000    Y=             -0.0000    Z=             -1.7336  Tot=              1.7336
 Quadrupole moment (field-independent basis, Debye-Ang):
   XX=             -5.5049   YY=             -6.8619   ZZ=             -4.6502
   XY=             -0.0000   XZ=             -0.0000   YZ=             -0.0000
 Traceless Quadrupole moment (field-independent basis, Debye-Ang):
   XX=              0.1674   YY=             -1.1896   ZZ=              1.0222
   XY=             -0.0000   XZ=             -0.0000   YZ=             -0.0000
 Octapole moment (field-independent basis, Debye-Ang**2):
  XXX=             -0.0000  YYY=              0.0000  ZZZ=             -2.0136  XYY=             -0.0000
  XXY=              0.0000  XXZ=             -0.2004  XZZ=              0.0000  YZZ=              0.0000
  YYZ=             -0.2888  XYZ=             -0.0000
 Hexadecapole moment (field-independent basis, Debye-Ang**3):
 XXXX=             -3.9854 YYYY=             -6.1940 ZZZZ=             -5.6347 XXXY=             -0.0000
 XXXZ=             -0.0000 YYYX=             -0.0000 YYYZ=              0.0000 ZZZX=             -0.0000
 ZZZY=             -0.0000 XXYY=             -1.6965 XXZZ=             -1.8469 YYZZ=             -2.2457
 XXYZ=              0.0000 YYXZ=             -0.0000 ZZXY=             -0.0000
 N-N= 4.366449199341D+00 E-N=-1.882209644229D+02  KE= 7.555459004769D+01
 Symmetry A1   KE= 6.829331595351D+01
 Symmetry A2   KE= 3.262304093321D-30
 Symmetry B1   KE= 2.528498878107D+00
 Symmetry B2   KE= 4.732775216077D+00
 Symmetry A1   SP=-5.943582757038D-15
 Symmetry A2   SP= 1.374848253939D-32
 Symmetry B1   SP= 1.000000000000D+00
 Symmetry B2   SP= 1.051770975001D-15
                          Isotropic Fermi Contact Couplings
        Atom                 a.u.       MegaHertz       Gauss      10(-4) cm-1
     1  H(1)              -0.01530     -68.38558     -24.40168     -22.81097
     2  O(17)              0.10027     -60.78618     -21.69002     -20.27609
 --------------------------------------------------------
       Center         ----  Spin Dipole Couplings  ----
                      3XX-RR        3YY-RR        3ZZ-RR
 --------------------------------------------------------
     1   Atom       -0.038733     -0.135685      0.174418
     2   Atom        3.831306     -1.918384     -1.912922
 --------------------------------------------------------
                        XY            XZ            YZ
 --------------------------------------------------------
     1   Atom       -0.000000      0.000000     -0.000000
     2   Atom       -0.000000      0.000000      0.000000
 --------------------------------------------------------


 ---------------------------------------------------------------------------------
              Anisotropic Spin Dipole Couplings in Principal Axis System
 ---------------------------------------------------------------------------------

       Atom             a.u.   MegaHertz   Gauss  10(-4) cm-1        Axes

              Baa    -0.1357   -72.395   -25.832   -24.148 -0.0000  1.0000  0.0000
     1 H(1)   Bbb    -0.0387   -20.666    -7.374    -6.893  1.0000  0.0000 -0.0000
              Bcc     0.1744    93.061    33.206    31.042  0.0000 -0.0000  1.0000
 
              Baa    -1.9184   138.813    49.532    46.303  0.0000  1.0000 -0.0000
     2 O(17)  Bbb    -1.9129   138.418    49.391    46.171  0.0000  0.0000  1.0000
              Bcc     3.8313  -277.231   -98.923   -92.474  1.0000 -0.0000  0.0000
 

 ---------------------------------------------------------------------------------

 1\1\GINC-CCLEARCO\FOpt\UwB97XD\6-311+G(2d,2p)\H1O1(2)\RAPPE\12-Feb-202
 3\0\\# opt wb97xd/6-311+g(2d,2p) freq geom=connectivity scf=xqc\\Title
  Card Required\\0,2\H,-2.4566912344,-0.1892601063,-0.0365375103\O,-3.2
 630493356,-0.7242984337,0.0227504803\\Version=EM64M-G16RevA.03\HF=-75.
 7361844\S2=0.752729\S2-1=0.\S2A=0.750005\RMSD=9.344e-09\RMSF=3.708e-08
 \Dipole=0.5672663,0.3763951,-0.0417086\Quadrupole=0.375315,-0.194901,-
 0.180414,0.6028154,0.2084847,-0.4184125\PG=C*V [C*(H1O1)]\\@


 Life may have no meaning.  Or even worse, it may have a
 meaning of which I disapprove.
                                 -- Ashleigh Brilliant
 Job cpu time:       0 days  0 hours  2 minutes 38.3 seconds.
 Elapsed time:       0 days  0 hours  0 minutes  7.0 seconds.
 File lengths (MBytes):  RWF=      6 Int=      0 D2E=      0 Chk=      1 Scr=      1
 Normal termination of Gaussian 16 at Sun Feb 12 09:13:18 2023.
 Link1:  Proceeding to internal job step number  2.
 ----------------------------------------------------------------------
 #N Geom=AllCheck Guess=TCheck SCRF=Check GenChk UwB97XD/6-311+G(2d,2p)
  Freq
 ----------------------------------------------------------------------
 1/10=4,29=7,30=1,38=1,40=1/1,3;
 2/12=2,40=1/2;
 3/5=4,6=6,7=212,11=2,14=-4,25=1,30=1,70=2,71=2,74=-58,116=2,140=1/1,2,3;
 4/5=101/1;
 5/5=2,8=3,13=1,38=6,98=1/2,8;
 8/6=4,10=90,11=11/1;
 11/6=1,8=1,9=11,15=111,16=1/1,2,10;
 10/6=1/2;
 6/7=2,8=2,9=2,10=2,28=1/1;
 7/8=1,10=1,25=1/1,2,3,16;
 1/10=4,30=1/3;
 99//99;
 Structure from the checkpoint file:  "oh.chk"
 -------------------
 Title Card Required
 -------------------
 Charge =  0 Multiplicity = 2
 Redundant internal coordinates found in file.  (old form).
 H,0,-2.4566912344,-0.1892601063,-0.0365375103
 O,0,-3.2630493356,-0.7242984337,0.0227504803
 Recover connectivity data from disk.

 GradGradGradGradGradGradGradGradGradGradGradGradGradGradGradGradGradGrad
 Berny optimization.
 Initialization pass.
                           ----------------------------
                           !    Initial Parameters    !
                           ! (Angstroms and Degrees)  !
 --------------------------                            --------------------------
 ! Name  Definition              Value          Derivative Info.                !
 --------------------------------------------------------------------------------
 ! R1    R(1,2)                  0.9695         calculate D2E/DX2 analytically  !
 --------------------------------------------------------------------------------
 Trust Radius=3.00D-01 FncErr=1.00D-07 GrdErr=1.00D-07 EigMax=2.50D+02 EigMin=1.00D-04
 Number of steps in this run=      2 maximum allowed number of steps=      2.
 GradGradGradGradGradGradGradGradGradGradGradGradGradGradGradGradGradGrad

                          Input orientation:                          
 ---------------------------------------------------------------------
 Center     Atomic      Atomic             Coordinates (Angstroms)
 Number     Number       Type             X           Y           Z
 ---------------------------------------------------------------------
      1          1           0       -2.456691   -0.189260   -0.036538
      2          8           0       -3.263049   -0.724298    0.022750
 ---------------------------------------------------------------------
 Stoichiometry    HO(2)
 Framework group  C*V[C*(HO)]
 Deg. of freedom     1
 Full point group                 C*V     NOp   4
 Largest Abelian subgroup         C2V     NOp   4
 Largest concise Abelian subgroup C1      NOp   1
                         Standard orientation:                         
 ---------------------------------------------------------------------
 Center     Atomic      Atomic             Coordinates (Angstroms)
 Number     Number       Type             X           Y           Z
 ---------------------------------------------------------------------
      1          1           0       -0.000000   -0.000000   -0.861807
      2          8           0        0.000000    0.000000    0.107726
 ---------------------------------------------------------------------
 Rotational constants (GHZ):           0.0000000         567.0792273         567.0792273
 Standard basis: 6-311+G(2d,2p) (5D, 7F)
 There are    20 symmetry adapted cartesian basis functions of A1  symmetry.
 There are     2 symmetry adapted cartesian basis functions of A2  symmetry.
 There are     8 symmetry adapted cartesian basis functions of B1  symmetry.
 There are     8 symmetry adapted cartesian basis functions of B2  symmetry.
 There are    18 symmetry adapted basis functions of A1  symmetry.
 There are     2 symmetry adapted basis functions of A2  symmetry.
 There are     8 symmetry adapted basis functions of B1  symmetry.
 There are     8 symmetry adapted basis functions of B2  symmetry.
    36 basis functions,    53 primitive gaussians,    38 cartesian basis functions
     5 alpha electrons        4 beta electrons
       nuclear repulsion energy         4.3664498024 Hartrees.
 NAtoms=    2 NActive=    2 NUniq=    2 SFac= 1.00D+00 NAtFMM=   60 NAOKFM=F Big=F
 Integral buffers will be    131072 words long.
 Raffenetti 2 integral format.
 Two-electron integral symmetry is turned on.
 Nuclear repulsion after empirical dispersion term =        4.3664491993 Hartrees.
 One-electron integrals computed using PRISM.
 NBasis=    36 RedAO= T EigKep=  4.50D-03  NBF=    18     2     8     8
 NBsUse=    36 1.00D-06 EigRej= -1.00D+00 NBFU=    18     2     8     8
 Initial guess from the checkpoint file:  "oh.chk"
 B after Tr=     0.000000   -0.000000   -0.000000
         Rot=    1.000000    0.000000   -0.000000    0.000000 Ang=   0.00 deg.
 Initial guess orbital symmetries:
 Alpha Orbitals:
       Occupied  (SG) (SG) (SG) (PI) (PI)
       Virtual   (SG) (PI) (SG) (PI) (SG) (SG) (PI) (PI) (SG) (PI)
                 (PI) (?A) (SG) (?A) (?A) (PI) (PI) (SG) (SG) (PI)
                 (PI) (SG) (PI) (PI) (SG) (?B) (?B) (PI) (PI) (?B)
                 (SG)
 Beta  Orbitals:
       Occupied  (SG) (SG) (SG) (?A)
       Virtual   (?A) (SG) (SG) (?A) (?A) (SG) (SG) (PI) (PI) (SG)
                 (PI) (PI) (SG) (?B) (?B) (?B) (PI) (PI) (SG) (SG)
                 (PI) (PI) (SG) (PI) (PI) (SG) (?C) (?C) (PI) (PI)
                 (?C) (SG)
 Initial guess <Sx>= 0.0000 <Sy>= 0.0000 <Sz>= 0.5000 <S**2>= 0.7527 S= 0.5014
 Keep R1 and R2 ints in memory in symmetry-blocked form, NReq=21154410.
 Requested convergence on RMS density matrix=1.00D-08 within  32 cycles.
 Requested convergence on MAX density matrix=1.00D-06.
 Requested convergence on             energy=1.00D-06.
 No special actions if energy rises.
 SCF Done:  E(UwB97XD) =  -75.7361843631     A.U. after    1 cycles
            NFock=  1  Conv=0.19D-08     -V/T= 2.0024
 <Sx>= 0.0000 <Sy>= 0.0000 <Sz>= 0.5000 <S**2>= 0.7527 S= 0.5014
 <L.S>= 0.000000000000E+00
 Annihilation of the first spin contaminant:
 S**2 before annihilation     0.7527,   after     0.7500
 QCSCF skips out because SCF is already converged.
 DoSCS=F DFT=T ScalE2(SS,OS)=  1.000000  1.000000
 Range of M.O.s used for correlation:     1    36
 NBasis=    36 NAE=     5 NBE=     4 NFC=     0 NFV=     0
 NROrb=     36 NOA=     5 NOB=     4 NVA=    31 NVB=    32
 Symmetrizing basis deriv contribution to polar:
 IMax=3 JMax=2 DiffMx= 0.00D+00
 G2DrvN: will do     3 centers at a time, making    1 passes.
 Calling FoFCou, ICntrl=  3107 FMM=F I1Cent=   0 AccDes= 0.00D+00.
 End of G2Drv F.D. properties file   721 does not exist.
 End of G2Drv F.D. properties file   722 does not exist.
 End of G2Drv F.D. properties file   788 does not exist.
          IDoAtm=11
          Differentiating once with respect to electric field.
                with respect to dipole field.
          Differentiating once with respect to nuclear coordinates.
 Keep R1 and R2 ints in memory in symmetry-blocked form, NReq=21072287.
          There are     9 degrees of freedom in the 1st order CPHF.  IDoFFX=6 NUNeed=     3.
      6 vectors produced by pass  0 Test12= 3.14D-15 1.11D-08 XBig12= 4.17D+00 1.11D+00.
 AX will form     6 AO Fock derivatives at one time.
      6 vectors produced by pass  1 Test12= 3.14D-15 1.11D-08 XBig12= 4.58D-01 2.19D-01.
      6 vectors produced by pass  2 Test12= 3.14D-15 1.11D-08 XBig12= 1.51D-02 4.69D-02.
      6 vectors produced by pass  3 Test12= 3.14D-15 1.11D-08 XBig12= 7.13D-05 3.07D-03.
      6 vectors produced by pass  4 Test12= 3.14D-15 1.11D-08 XBig12= 1.30D-06 5.68D-04.
      6 vectors produced by pass  5 Test12= 3.14D-15 1.11D-08 XBig12= 1.24D-08 4.84D-05.
      6 vectors produced by pass  6 Test12= 3.14D-15 1.11D-08 XBig12= 1.70D-10 4.43D-06.
      4 vectors produced by pass  7 Test12= 3.14D-15 1.11D-08 XBig12= 1.17D-12 2.66D-07.
      1 vectors produced by pass  8 Test12= 3.14D-15 1.11D-08 XBig12= 8.56D-15 2.94D-08.
 InvSVY:  IOpt=1 It=  1 EMax= 4.44D-16
 Solved reduced A of dimension    47 with     6 vectors.
 Isotropic polarizability for W=    0.000000        5.76 Bohr**3.
 End of Minotr F.D. properties file   721 does not exist.
 End of Minotr F.D. properties file   722 does not exist.
 End of Minotr F.D. properties file   788 does not exist.

 **********************************************************************

            Population analysis using the SCF density.

 **********************************************************************

 Orbital symmetries:
 Alpha Orbitals:
       Occupied  (SG) (SG) (SG) (PI) (PI)
       Virtual   (SG) (PI) (SG) (PI) (SG) (SG) (PI) (PI) (SG) (PI)
                 (PI) (?A) (SG) (?A) (?A) (PI) (PI) (SG) (SG) (PI)
                 (PI) (SG) (PI) (PI) (SG) (?B) (?B) (PI) (PI) (?B)
                 (SG)
 Beta  Orbitals:
       Occupied  (SG) (SG) (SG) (?A)
       Virtual   (?A) (SG) (SG) (?A) (?A) (SG) (SG) (PI) (PI) (SG)
                 (PI) (PI) (SG) (?B) (?B) (?B) (PI) (PI) (SG) (SG)
                 (PI) (PI) (SG) (PI) (PI) (SG) (?C) (?C) (PI) (PI)
                 (?C) (SG)
 Unable to determine electronic state:  an orbital has unidentified symmetry.
 Alpha  occ. eigenvalues --  -19.32569  -1.12985  -0.57715  -0.51256  -0.44281
 Alpha virt. eigenvalues --    0.11464   0.21729   0.22221   0.22942   0.26408
 Alpha virt. eigenvalues --    0.52713   0.74498   0.75647   0.92442   1.03864
 Alpha virt. eigenvalues --    1.07405   1.26804   1.40800   1.51032   1.51211
 Alpha virt. eigenvalues --    1.81099   1.84735   2.26711   2.65817   3.77436
 Alpha virt. eigenvalues --    3.78451   4.14767   4.96029   5.02047   5.78912
 Alpha virt. eigenvalues --    6.70471   6.70486   6.85398   6.91207   7.37563
 Alpha virt. eigenvalues --   49.84932
  Beta  occ. eigenvalues --  -19.30363  -1.05323  -0.54783  -0.41287
  Beta virt. eigenvalues --   -0.09381   0.12214   0.22576   0.23188   0.24684
  Beta virt. eigenvalues --    0.26683   0.53514   0.75609   0.75960   0.93287
  Beta virt. eigenvalues --    1.08639   1.11528   1.29110   1.42688   1.55928
  Beta virt. eigenvalues --    1.56282   1.85611   1.85689   2.27750   2.66535
  Beta virt. eigenvalues --    3.77958   3.78070   4.15643   5.04403   5.08018
  Beta virt. eigenvalues --    5.81681   6.79638   6.82455   6.93556   6.94837
  Beta virt. eigenvalues --    7.42305  49.87688
          Condensed to atoms (all electrons):
               1          2
     1  H    0.527618   0.238331
     2  O    0.238331   7.995721
          Atomic-Atomic Spin Densities.
               1          2
     1  H   -0.029762   0.011324
     2  O    0.011324   1.007113
 Mulliken charges and spin densities:
               1          2
     1  H    0.234052  -0.018437
     2  O   -0.234052   1.018437
 Sum of Mulliken charges =   0.00000   1.00000
 Mulliken charges and spin densities with hydrogens summed into heavy atoms:
               1          2
     2  O    0.000000   1.000000
 APT charges:
               1
     1  H    0.291645
     2  O   -0.291645
 Sum of APT charges =   0.00000
 APT charges with hydrogens summed into heavy atoms:
               1
     2  O    0.000000
 Electronic spatial extent (au):  <R**2>=             15.6355
 Charge=              0.0000 electrons
 Dipole moment (field-independent basis, Debye):
    X=             -0.0000    Y=             -0.0000    Z=             -1.7336  Tot=              1.7336
 Quadrupole moment (field-independent basis, Debye-Ang):
   XX=             -5.5049   YY=             -6.8619   ZZ=             -4.6502
   XY=             -0.0000   XZ=             -0.0000   YZ=              0.0000
 Traceless Quadrupole moment (field-independent basis, Debye-Ang):
   XX=              0.1674   YY=             -1.1896   ZZ=              1.0222
   XY=             -0.0000   XZ=             -0.0000   YZ=              0.0000
 Octapole moment (field-independent basis, Debye-Ang**2):
  XXX=             -0.0000  YYY=              0.0000  ZZZ=             -2.0136  XYY=             -0.0000
  XXY=              0.0000  XXZ=             -0.2004  XZZ=             -0.0000  YZZ=             -0.0000
  YYZ=             -0.2888  XYZ=             -0.0000
 Hexadecapole moment (field-independent basis, Debye-Ang**3):
 XXXX=             -3.9854 YYYY=             -6.1940 ZZZZ=             -5.6347 XXXY=             -0.0000
 XXXZ=             -0.0000 YYYX=             -0.0000 YYYZ=             -0.0000 ZZZX=             -0.0000
 ZZZY=              0.0000 XXYY=             -1.6965 XXZZ=             -1.8469 YYZZ=             -2.2457
 XXYZ=             -0.0000 YYXZ=             -0.0000 ZZXY=             -0.0000
 N-N= 4.366449199341D+00 E-N=-1.882209645093D+02  KE= 7.555459008783D+01
 Symmetry A1   KE= 6.829331595689D+01
 Symmetry A2   KE= 1.273709306545D-30
 Symmetry B1   KE= 2.528498904869D+00
 Symmetry B2   KE= 4.732775226072D+00
 Symmetry A1   SP=-1.558015462521D-15
 Symmetry A2   SP= 4.665567952864D-33
 Symmetry B1   SP= 1.000000000000D+00
 Symmetry B2   SP= 2.121919176826D-15
  Exact polarizability:   4.263   0.000   5.491  -0.000   0.000   7.514
 Approx polarizability:   4.021   0.000   4.565   0.000   0.000   7.320
                          Isotropic Fermi Contact Couplings
        Atom                 a.u.       MegaHertz       Gauss      10(-4) cm-1
     1  H(1)              -0.01530     -68.38576     -24.40174     -22.81103
     2  O(17)              0.10027     -60.78618     -21.69002     -20.27609
 --------------------------------------------------------
       Center         ----  Spin Dipole Couplings  ----
                      3XX-RR        3YY-RR        3ZZ-RR
 --------------------------------------------------------
     1   Atom       -0.038733     -0.135685      0.174418
     2   Atom        3.831306     -1.918384     -1.912922
 --------------------------------------------------------
                        XY            XZ            YZ
 --------------------------------------------------------
     1   Atom        0.000000      0.000000      0.000000
     2   Atom        0.000000     -0.000000     -0.000000
 --------------------------------------------------------


 ---------------------------------------------------------------------------------
              Anisotropic Spin Dipole Couplings in Principal Axis System
 ---------------------------------------------------------------------------------

       Atom             a.u.   MegaHertz   Gauss  10(-4) cm-1        Axes

              Baa    -0.1357   -72.395   -25.832   -24.148  0.0000  1.0000 -0.0000
     1 H(1)   Bbb    -0.0387   -20.666    -7.374    -6.893  1.0000  0.0000 -0.0000
              Bcc     0.1744    93.061    33.207    31.042  0.0000  0.0000  1.0000
 
              Baa    -1.9184   138.813    49.532    46.303  0.0000  1.0000 -0.0000
     2 O(17)  Bbb    -1.9129   138.418    49.391    46.171  0.0000  0.0000  1.0000
              Bcc     3.8313  -277.231   -98.923   -92.474  1.0000  0.0000  0.0000
 

 ---------------------------------------------------------------------------------

 Calling FoFJK, ICntrl=    100127 FMM=F ISym2X=1 I1Cent= 0 IOpClX= 1 NMat=1 NMatS=1 NMatT=0.
 Full mass-weighted force constant matrix:
 Low frequencies ---  -58.8496   -0.0015    0.0008    0.0012   21.2448 3795.5145
 Diagonal vibrational polarizability:
        0.0000000       0.0000000       0.0326757
 Harmonic frequencies (cm**-1), IR intensities (KM/Mole), Raman scattering
 activities (A**4/AMU), depolarization ratios for plane and unpolarized
 incident light, reduced masses (AMU), force constants (mDyne/A),
 and normal coordinates:
                      1
                     SG
 Frequencies --   3795.5145
 Red. masses --      1.0671
 Frc consts  --      9.0572
 IR Inten    --     17.4917
  Atom  AN      X      Y      Z
     1   1     0.00   0.00   1.00
     2   8    -0.00  -0.00  -0.06

 -------------------
 - Thermochemistry -
 -------------------
 Temperature   298.150 Kelvin.  Pressure   1.00000 Atm.
 Atom     1 has atomic number  1 and mass   1.00783
 Atom     2 has atomic number  8 and mass  15.99491
 Molecular mass:    17.00274 amu.
 Principal axes and moments of inertia in atomic units:
                           1         2         3
     Eigenvalues --     0.00000   3.18252   3.18252
           X            0.00000   0.36099   0.93257
           Y            0.00000   0.93257  -0.36099
           Z            1.00000  -0.00000   0.00000
 This molecule is a prolate symmetric top.
 Rotational symmetry number  1.
 Rotational temperature (Kelvin)     27.21551
 Rotational constant (GHZ):         567.079227
 Zero-point vibrational energy      22702.2 (Joules/Mol)
                                    5.42596 (Kcal/Mol)
 Vibrational temperatures:   5460.90
          (Kelvin)
 
 Zero-point correction=                           0.008647 (Hartree/Particle)
 Thermal correction to Energy=                    0.011007
 Thermal correction to Enthalpy=                  0.011951
 Thermal correction to Gibbs Free Energy=        -0.008269
 Sum of electronic and zero-point Energies=            -75.727538
 Sum of electronic and thermal Energies=               -75.725177
 Sum of electronic and thermal Enthalpies=             -75.724233
 Sum of electronic and thermal Free Energies=          -75.744454
 
                     E (Thermal)             CV                S
                      KCal/Mol        Cal/Mol-Kelvin    Cal/Mol-Kelvin
 Total                    6.907              4.968             42.558
 Electronic               0.000              0.000              1.377
 Translational            0.889              2.981             34.437
 Rotational               0.592              1.987              6.744
 Vibrational              5.426              0.000              0.000
                       Q            Log10(Q)             Ln(Q)
 Total Bot       0.636244D+04          3.803624          8.758167
 Total V=0       0.603783D+08          7.780881         17.916140
 Vib (Bot)       0.105376D-03         -3.977257         -9.157972
 Vib (V=0)       0.100000D+01          0.000000          0.000000
 Electronic      0.200000D+01          0.301030          0.693147
 Translational   0.275570D+07          6.440232         14.829183
 Rotational      0.109551D+02          1.039618          2.393810
 ***** Axes restored to original set *****
 -------------------------------------------------------------------
 Center     Atomic                   Forces (Hartrees/Bohr)
 Number     Number              X              Y              Z
 -------------------------------------------------------------------
      1        1          -0.000000058   -0.000000038    0.000000004
      2        8           0.000000058    0.000000038   -0.000000004
 -------------------------------------------------------------------
 Cartesian Forces:  Max     0.000000058 RMS     0.000000040
 FormGI is forming the generalized inverse of G from B-inverse, IUseBI=4.

 GradGradGradGradGradGradGradGradGradGradGradGradGradGradGradGradGradGrad
 Berny optimization.
 Internal  Forces:  Max     0.000000069 RMS     0.000000069
 Search for a local minimum.
 Step number   1 out of a maximum of    2
 All quantities printed in internal units (Hartrees-Bohrs-Radians)
 Second derivative matrix not updated -- analytic derivatives used.
 The second derivative matrix:
                          R1
           R1           0.51687
 ITU=  0
     Eigenvalues ---    0.51687
 Angle between quadratic step and forces=  90.00 degrees.
 Linear search not attempted -- first point.
 Iteration  1 RMS(Cart)=  0.00000009 RMS(Int)=  0.00000000
 ClnCor:  largest displacement from symmetrization is 1.08D-15 for atom     1.
 Variable       Old X    -DE/DX   Delta X   Delta X   Delta X     New X
                                 (Linear)    (Quad)   (Total)
    R1        1.83215  -0.00000   0.00000  -0.00000  -0.00000   1.83215
         Item               Value     Threshold  Converged?
 Maximum Force            0.000000     0.000450     YES
 RMS     Force            0.000000     0.000300     YES
 Maximum Displacement     0.000000     0.001800     YES
 RMS     Displacement     0.000000     0.001200     YES
 Predicted change in Energy=-4.659275D-15
 Optimization completed.
    -- Stationary point found.
                           ----------------------------
                           !   Optimized Parameters   !
                           ! (Angstroms and Degrees)  !
 --------------------------                            --------------------------
 ! Name  Definition              Value          Derivative Info.                !
 --------------------------------------------------------------------------------
 ! R1    R(1,2)                  0.9695         -DE/DX =    0.0                 !
 --------------------------------------------------------------------------------
 GradGradGradGradGradGradGradGradGradGradGradGradGradGradGradGradGradGrad


 ----------------------------------------------------------------------

 Electric dipole moment (input orientation):
 (Debye = 10**-18 statcoulomb cm , SI units = C m)
                  (au)            (Debye)         (10**-30 SI)
   Tot        0.682059D+00      0.173362D+01      0.578273D+01
   x          0.567266D+00      0.144185D+01      0.480948D+01
   y          0.376395D+00      0.956701D+00      0.319121D+01
   z         -0.417086D-01     -0.106013D+00     -0.353620D+00

 Dipole polarizability, Alpha (input orientation).
 (esu units = cm**3 , SI units = C**2 m**2 J**-1)
 Alpha(0;0):
               (au)            (10**-24 esu)      (10**-40 SI)
   iso        0.575568D+01      0.852903D+00      0.948983D+00
   aniso      0.284332D+01      0.421337D+00      0.468801D+00
   xx         0.674115D+01      0.998936D+00      0.111147D+01
   yx         0.111335D+01      0.164981D+00      0.183566D+00
   yy         0.587706D+01      0.870891D+00      0.968997D+00
   zx        -0.458497D+00     -0.679423D-01     -0.755960D-01
   zy         0.373554D+00      0.553549D-01      0.615907D-01
   zz         0.464881D+01      0.688882D+00      0.766485D+00

 ----------------------------------------------------------------------

 Dipole orientation:
     1         -0.98974610          2.06602430         -4.05428022
     8         -0.98974610          2.06602430         -5.88643228

 Electric dipole moment (dipole orientation):
 (Debye = 10**-18 statcoulomb cm , SI units = C m)
                  (au)            (Debye)         (10**-30 SI)
   Tot        0.682059D+00      0.173362D+01      0.578273D+01
   x          0.000000D+00      0.000000D+00      0.000000D+00
   y          0.000000D+00      0.000000D+00      0.000000D+00
   z          0.682059D+00      0.173362D+01      0.578273D+01

 Dipole polarizability, Alpha (dipole orientation).
 (esu units = cm**3 , SI units = C**2 m**2 J**-1)
 Alpha(0;0):
               (au)            (10**-24 esu)      (10**-40 SI)
   iso        0.575568D+01      0.852903D+00      0.948983D+00
   aniso      0.284332D+01      0.421337D+00      0.468801D+00
   xx         0.530531D+01      0.786166D+00      0.874727D+00
   yx        -0.439795D+00     -0.651709D-01     -0.725124D-01
   yy         0.444812D+01      0.659143D+00      0.733396D+00
   zx         0.000000D+00      0.000000D+00      0.000000D+00
   zy         0.000000D+00      0.000000D+00      0.000000D+00
   zz         0.751360D+01      0.111340D+01      0.123882D+01

 ----------------------------------------------------------------------
 1\1\GINC-CCLEARCO\Freq\UwB97XD\6-311+G(2d,2p)\H1O1(2)\RAPPE\12-Feb-202
 3\0\\#N Geom=AllCheck Guess=TCheck SCRF=Check GenChk UwB97XD/6-311+G(2
 d,2p) Freq\\Title Card Required\\0,2\H,-2.4566912344,-0.1892601063,-0.
 0365375103\O,-3.2630493356,-0.7242984337,0.0227504803\\Version=EM64M-G
 16RevA.03\HF=-75.7361844\S2=0.752729\S2-1=0.\S2A=0.750005\RMSD=1.908e-
 09\RMSF=4.007e-08\ZeroPoint=0.0086468\Thermal=0.0110073\Dipole=0.56726
 63,0.3763951,-0.0417086\DipoleDeriv=0.2049788,-0.1109971,0.0122844,-0.
 1109971,0.2986171,0.0081818,0.0122844,0.0081818,0.3713394,-0.2049788,0
 .1109971,-0.0122844,0.1109971,-0.2986171,-0.0081818,-0.0122844,-0.0081
 818,-0.3713394\Polar=6.7411529,1.1133461,5.8770626,-0.4584973,0.373553
 7,4.6488094\Quadrupole=0.375315,-0.194901,-0.180414,0.6028154,0.208484
 7,-0.4184125\PG=C*V [C*(H1O1)]\NImag=0\\0.35751718,0.23724310,0.157392
 48,-0.02632741,-0.01739137,0.00185179,-0.35751718,-0.23724310,0.026327
 41,0.35751718,-0.23724310,-0.15739248,0.01739137,0.23724310,0.15739248
 ,0.02632741,0.01739137,-0.00185179,-0.02632741,-0.01739137,0.00185179\
 \0.00000006,0.00000004,0.,-0.00000006,-0.00000004,0.\\\@


 IT PROBABLY IS NOT POSSIBLE FOR A SCIENTIST TO INTERROGATE NATURE 
 FROM A WHOLLY DISINTERESTED VIEWPOINT.
 EVEN IF HE HAS NO PARTICULAR AXE TO GRIND, HE IS LIKELY TO HAVE 
 A DISTINCTIVE WAY OF VIEWING NATURE.

                                                   -- JOHN LOSEE
 Job cpu time:       0 days  0 hours  2 minutes 20.1 seconds.
 Elapsed time:       0 days  0 hours  0 minutes  6.1 seconds.
 File lengths (MBytes):  RWF=      6 Int=      0 D2E=      0 Chk=      1 Scr=      1
 Normal termination of Gaussian 16 at Sun Feb 12 09:13:24 2023.
