 Entering Gaussian System, Link 0=/applications/g16/g16/g16
 Initial command:
 /applications/g16/g16/l1.exe "/scratch/g98/Gau-37802.inp" -scrdir="/scratch/g98/"
 Entering Link 1 = /applications/g16/g16/l1.exe PID=     37803.
  
 Copyright (c) 1988,1990,1992,1993,1995,1998,2003,2009,2016,
            Gaussian, Inc.  All Rights Reserved.
  
 This is part of the Gaussian(R) 16 program.  It is based on
 the Gaussian(R) 09 system (copyright 2009, Gaussian, Inc.),
 the Gaussian(R) 03 system (copyright 2003, Gaussian, Inc.),
 the Gaussian(R) 98 system (copyright 1998, Gaussian, Inc.),
 the Gaussian(R) 94 system (copyright 1995, Gaussian, Inc.),
 the Gaussian 92(TM) system (copyright 1992, Gaussian, Inc.),
 the Gaussian 90(TM) system (copyright 1990, Gaussian, Inc.),
 the Gaussian 88(TM) system (copyright 1988, Gaussian, Inc.),
 the Gaussian 86(TM) system (copyright 1986, Carnegie Mellon
 University), and the Gaussian 82(TM) system (copyright 1983,
 Carnegie Mellon University). Gaussian is a federally registered
 trademark of Gaussian, Inc.
  
 This software contains proprietary and confidential information,
 including trade secrets, belonging to Gaussian, Inc.
  
 This software is provided under written license and may be
 used, copied, transmitted, or stored only in accord with that
 written license.
  
 The following legend is applicable only to US Government
 contracts under FAR:
  
                    RESTRICTED RIGHTS LEGEND
  
 Use, reproduction and disclosure by the US Government is
 subject to restrictions as set forth in subparagraphs (a)
 and (c) of the Commercial Computer Software - Restricted
 Rights clause in FAR 52.227-19.
  
 Gaussian, Inc.
 340 Quinnipiac St., Bldg. 40, Wallingford CT 06492
  
  
 ---------------------------------------------------------------
 Warning -- This program may not be used in any manner that
 competes with the business of Gaussian, Inc. or will provide
 assistance to any competitor of Gaussian, Inc.  The licensee
 of this program is prohibited from giving any competitor of
 Gaussian, Inc. access to this program.  By using this program,
 the user acknowledges that Gaussian, Inc. is engaged in the
 business of creating and licensing software in the field of
 computational chemistry and represents and warrants to the
 licensee that it is not a competitor of Gaussian, Inc. and that
 it will not use this program in any manner prohibited above.
 ---------------------------------------------------------------
  

 Cite this work as:
 Gaussian 16, Revision A.03,
 M. J. Frisch, G. W. Trucks, H. B. Schlegel, G. E. Scuseria, 
 M. A. Robb, J. R. Cheeseman, G. Scalmani, V. Barone, 
 G. A. Petersson, H. Nakatsuji, X. Li, M. Caricato, A. V. Marenich, 
 J. Bloino, B. G. Janesko, R. Gomperts, B. Mennucci, H. P. Hratchian, 
 J. V. Ortiz, A. F. Izmaylov, J. L. Sonnenberg, D. Williams-Young, 
 F. Ding, F. Lipparini, F. Egidi, J. Goings, B. Peng, A. Petrone, 
 T. Henderson, D. Ranasinghe, V. G. Zakrzewski, J. Gao, N. Rega, 
 G. Zheng, W. Liang, M. Hada, M. Ehara, K. Toyota, R. Fukuda, 
 J. Hasegawa, M. Ishida, T. Nakajima, Y. Honda, O. Kitao, H. Nakai, 
 T. Vreven, K. Throssell, J. A. Montgomery, Jr., J. E. Peralta, 
 F. Ogliaro, M. J. Bearpark, J. J. Heyd, E. N. Brothers, K. N. Kudin, 
 V. N. Staroverov, T. A. Keith, R. Kobayashi, J. Normand, 
 K. Raghavachari, A. P. Rendell, J. C. Burant, S. S. Iyengar, 
 J. Tomasi, M. Cossi, J. M. Millam, M. Klene, C. Adamo, R. Cammi, 
 J. W. Ochterski, R. L. Martin, K. Morokuma, O. Farkas, 
 J. B. Foresman, and D. J. Fox, Gaussian, Inc., Wallingford CT, 2016.
 
 ******************************************
 Gaussian 16:  EM64M-G16RevA.03 25-Dec-2016
                18-Nov-2025 
 ******************************************
 %mem=48GB
 %nprocshared=24
 Will use up to   24 processors via shared memory.
 %chk=propene.chk
 ----------------------------------------------------------------------
 # opt wb97xd/6-311+g(2d) geom=connectivity freq integral=grid=superfin
 egrid scf=(xqc,tight)
 ----------------------------------------------------------------------
 1/18=20,19=15,26=5,38=1,57=2/1,3;
 2/9=110,12=2,17=6,18=5,40=1/2;
 3/5=4,6=6,7=12,11=2,25=1,30=1,71=1,74=-58,75=-7/1,2,3;
 4//1;
 5/5=2,8=3,13=1,32=2,38=5/2,8;
 6/7=2,8=2,9=2,10=2,28=1/1;
 7//1,2,3,16;
 1/18=20,19=15,26=5/3(2);
 2/9=110/2;
 99//99;
 2/9=110/2;
 3/5=4,6=6,7=12,11=2,25=1,30=1,71=1,74=-58,75=-7/1,2,3;
 4/5=5,16=3,69=1/1;
 5/5=2,8=3,13=1,32=2,38=5/2,8;
 7//1,2,3,16;
 1/18=20,19=15,26=5/3(-5);
 2/9=110/2;
 6/7=2,8=2,9=2,10=2,19=2,28=1/1;
 99/9=1/99;
 -------------------
 Title Card Required
 -------------------
 Symbolic Z-matrix:
 Charge =  0 Multiplicity = 1
 C                    -0.25845   0.52401   0. 
 C                    -1.38615  -0.16608  0. 
 F                    -0.28985   1.8526    0. 
 F                    -1.43238  -1.47033  0. 
 F                    -2.57052   0.37648   0. 
 C                     1.1122   -0.10953   0. 
 F                     2.04271   0.83844  0. 
 F                     1.30249  -0.8814   -1.07526 
 F                     1.30249  -0.88139   1.07527 
 

 GradGradGradGradGradGradGradGradGradGradGradGradGradGradGradGradGradGrad
 Berny optimization.
 Initialization pass.
                           ----------------------------
                           !    Initial Parameters    !
                           ! (Angstroms and Degrees)  !
 --------------------------                            --------------------------
 ! Name  Definition              Value          Derivative Info.                !
 --------------------------------------------------------------------------------
 ! R1    R(1,2)                  1.3221         estimate D2E/DX2                !
 ! R2    R(1,3)                  1.329          estimate D2E/DX2                !
 ! R3    R(1,6)                  1.51           estimate D2E/DX2                !
 ! R4    R(2,4)                  1.3051         estimate D2E/DX2                !
 ! R5    R(2,5)                  1.3027         estimate D2E/DX2                !
 ! R6    R(6,7)                  1.3283         estimate D2E/DX2                !
 ! R7    R(6,8)                  1.3372         estimate D2E/DX2                !
 ! R8    R(6,9)                  1.3372         estimate D2E/DX2                !
 ! A1    A(2,1,3)              120.1106         estimate D2E/DX2                !
 ! A2    A(2,1,6)              123.7285         estimate D2E/DX2                !
 ! A3    A(3,1,6)              116.161          estimate D2E/DX2                !
 ! A4    A(1,2,4)              123.4941         estimate D2E/DX2                !
 ! A5    A(1,2,5)              123.9229         estimate D2E/DX2                !
 ! A6    A(4,2,5)              112.5829         estimate D2E/DX2                !
 ! A7    A(1,6,7)              109.6599         estimate D2E/DX2                !
 ! A8    A(1,6,8)              111.7988         estimate D2E/DX2                !
 ! A9    A(1,6,9)              111.7988         estimate D2E/DX2                !
 ! A10   A(7,6,8)              108.1946         estimate D2E/DX2                !
 ! A11   A(7,6,9)              108.1945         estimate D2E/DX2                !
 ! A12   A(8,6,9)              107.0472         estimate D2E/DX2                !
 ! D1    D(3,1,2,4)           -179.9999         estimate D2E/DX2                !
 ! D2    D(3,1,2,5)              0.0            estimate D2E/DX2                !
 ! D3    D(6,1,2,4)              0.0            estimate D2E/DX2                !
 ! D4    D(6,1,2,5)            179.9999         estimate D2E/DX2                !
 ! D5    D(2,1,6,7)            179.9998         estimate D2E/DX2                !
 ! D6    D(2,1,6,8)             60.0001         estimate D2E/DX2                !
 ! D7    D(2,1,6,9)            -60.0006         estimate D2E/DX2                !
 ! D8    D(3,1,6,7)             -0.0003         estimate D2E/DX2                !
 ! D9    D(3,1,6,8)           -120.0            estimate D2E/DX2                !
 ! D10   D(3,1,6,9)            119.9994         estimate D2E/DX2                !
 --------------------------------------------------------------------------------
 Trust Radius=3.00D-01 FncErr=1.00D-07 GrdErr=1.00D-07 EigMax=2.50D+02 EigMin=1.00D-04
 Number of steps in this run=     40 maximum allowed number of steps=    100.
 GradGradGradGradGradGradGradGradGradGradGradGradGradGradGradGradGradGrad

                          Input orientation:                          
 ---------------------------------------------------------------------
 Center     Atomic      Atomic             Coordinates (Angstroms)
 Number     Number       Type             X           Y           Z
 ---------------------------------------------------------------------
      1          6           0       -0.258452    0.524007    0.000000
      2          6           0       -1.386153   -0.166082   -0.000001
      3          9           0       -0.289848    1.852602    0.000002
      4          9           0       -1.432379   -1.470333   -0.000002
      5          9           0       -2.570517    0.376482    0.000000
      6          6           0        1.112200   -0.109534    0.000000
      7          9           0        2.042705    0.838440   -0.000004
      8          9           0        1.302487   -0.881396   -1.075262
      9          9           0        1.302490   -0.881389    1.075266
 ---------------------------------------------------------------------
                    Distance matrix (angstroms):
                    1          2          3          4          5
     1  C    0.000000
     2  C    1.322094   0.000000
     3  F    1.328966   2.297166   0.000000
     4  F    2.314195   1.305070   3.513869   0.000000
     5  F    2.316767   1.302726   2.716686   2.169351   0.000000
     6  C    1.509987   2.498993   2.411580   2.885595   3.714649
     7  F    2.322540   3.572972   2.543487   4.172127   4.636294
     8  F    2.359635   2.982724   3.341627   2.997086   4.211722
     9  F    2.359634   2.982728   3.341622   2.997093   4.211724
                    6          7          8          9
     6  C    0.000000
     7  F    1.328343   0.000000
     8  F    1.337224   2.159152   0.000000
     9  F    1.337224   2.159152   2.150528   0.000000
 Stoichiometry    C3F6
 Framework group  C1[X(C3F6)]
 Deg. of freedom    21
 Full point group                 C1      NOp   1
 Largest Abelian subgroup         C1      NOp   1
 Largest concise Abelian subgroup C1      NOp   1
                         Standard orientation:                         
 ---------------------------------------------------------------------
 Center     Atomic      Atomic             Coordinates (Angstroms)
 Number     Number       Type             X           Y           Z
 ---------------------------------------------------------------------
      1          6           0       -0.258452    0.524007    0.000000
      2          6           0       -1.386153   -0.166082   -0.000001
      3          9           0       -0.289848    1.852602    0.000002
      4          9           0       -1.432379   -1.470333   -0.000002
      5          9           0       -2.570517    0.376482    0.000000
      6          6           0        1.112200   -0.109534    0.000000
      7          9           0        2.042705    0.838440   -0.000004
      8          9           0        1.302487   -0.881396   -1.075262
      9          9           0        1.302490   -0.881389    1.075266
 ---------------------------------------------------------------------
 Rotational constants (GHZ):           2.5326569           1.2876690           1.0024227
 Standard basis: 6-311+G(2d) (5D, 7F)
 There are   261 symmetry adapted cartesian basis functions of A   symmetry.
 There are   243 symmetry adapted basis functions of A   symmetry.
   243 basis functions,   378 primitive gaussians,   261 cartesian basis functions
    36 alpha electrons       36 beta electrons
       nuclear repulsion energy       512.8346790274 Hartrees.
 NAtoms=    9 NActive=    9 NUniq=    9 SFac= 1.00D+00 NAtFMM=   60 NAOKFM=F Big=F
 Integral buffers will be    131072 words long.
 Raffenetti 2 integral format.
 Two-electron integral symmetry is turned on.
 Nuclear repulsion after empirical dispersion term =      512.8316744717 Hartrees.
 One-electron integrals computed using PRISM.
 NBasis=   243 RedAO= T EigKep=  4.40D-05  NBF=   243
 NBsUse=   243 1.00D-06 EigRej= -1.00D+00 NBFU=   243
 ExpMin= 4.38D-02 ExpMax= 1.14D+04 ExpMxC= 1.72D+03 IAcc=3 IRadAn=         7 AccDes= 0.00D+00
 Harris functional with IExCor= 4639 and IRadAn=       7 diagonalized for initial guess.
 HarFok:  IExCor= 4639 AccDes= 0.00D+00 IRadAn=         7 IDoV= 1 UseB2=F ITyADJ=14
 ICtDFT=  3500011 ScaDFX=  1.000000  1.000000  1.000000  1.000000
 FoFCou: FMM=F IPFlag=           0 FMFlag=      100000 FMFlg1=           0
         NFxFlg=           0 DoJE=T BraDBF=F KetDBF=T FulRan=T
         wScrn=  0.000000 ICntrl=       500 IOpCl=  0 I1Cent=   200000004 NGrid=           0
         NMat0=    1 NMatS0=      1 NMatT0=    0 NMatD0=    1 NMtDS0=    0 NMtDT0=    0
 Petite list used in FoFCou.
 Keep R1 ints in memory in canonical form, NReq=905192497.
 Requested convergence on RMS density matrix=1.00D-08 within  32 cycles.
 Requested convergence on MAX density matrix=1.00D-06.
 Requested convergence on             energy=1.00D-06.
 No special actions if energy rises.
 SCF Done:  E(RwB97XD) =  -713.357578735     A.U. after   13 cycles
            NFock= 13  Conv=0.61D-08     -V/T= 2.0025
 QCSCF skips out because SCF is already converged.

 **********************************************************************

            Population analysis using the SCF density.

 **********************************************************************

 Orbital symmetries:
       Occupied  (A) (A) (A) (A) (A) (A) (A) (A) (A) (A) (A) (A)
                 (A) (A) (A) (A) (A) (A) (A) (A) (A) (A) (A) (A)
                 (A) (A) (A) (A) (A) (A) (A) (A) (A) (A) (A) (A)
       Virtual   (A) (A) (A) (A) (A) (A) (A) (A) (A) (A) (A) (A)
                 (A) (A) (A) (A) (A) (A) (A) (A) (A) (A) (A) (A)
                 (A) (A) (A) (A) (A) (A) (A) (A) (A) (A) (A) (A)
                 (A) (A) (A) (A) (A) (A) (A) (A) (A) (A) (A) (A)
                 (A) (A) (A) (A) (A) (A) (A) (A) (A) (A) (A) (A)
                 (A) (A) (A) (A) (A) (A) (A) (A) (A) (A) (A) (A)
                 (A) (A) (A) (A) (A) (A) (A) (A) (A) (A) (A) (A)
                 (A) (A) (A) (A) (A) (A) (A) (A) (A) (A) (A) (A)
                 (A) (A) (A) (A) (A) (A) (A) (A) (A) (A) (A) (A)
                 (A) (A) (A) (A) (A) (A) (A) (A) (A) (A) (A) (A)
                 (A) (A) (A) (A) (A) (A) (A) (A) (A) (A) (A) (A)
                 (A) (A) (A) (A) (A) (A) (A) (A) (A) (A) (A) (A)
                 (A) (A) (A) (A) (A) (A) (A) (A) (A) (A) (A) (A)
                 (A) (A) (A) (A) (A) (A) (A) (A) (A) (A) (A) (A)
                 (A) (A) (A) (A) (A) (A) (A) (A) (A) (A) (A) (A)
                 (A) (A) (A) (A) (A) (A) (A) (A) (A) (A) (A) (A)
                 (A) (A) (A) (A) (A) (A) (A) (A) (A) (A) (A) (A)
                 (A) (A) (A)
 The electronic state is 1-A.
 Alpha  occ. eigenvalues --  -24.89411 -24.89373 -24.86967 -24.86813 -24.86533
 Alpha  occ. eigenvalues --  -24.86533 -10.57784 -10.50442 -10.42206  -1.45738
 Alpha  occ. eigenvalues --   -1.44951  -1.39181  -1.38285  -1.36376  -1.35966
 Alpha  occ. eigenvalues --   -0.95561  -0.85267  -0.78358  -0.74567  -0.73592
 Alpha  occ. eigenvalues --   -0.72027  -0.70864  -0.68341  -0.67184  -0.60067
 Alpha  occ. eigenvalues --   -0.59953  -0.59087  -0.58402  -0.58389  -0.57605
 Alpha  occ. eigenvalues --   -0.56658  -0.54818  -0.54445  -0.52737  -0.50226
 Alpha  occ. eigenvalues --   -0.37727
 Alpha virt. eigenvalues --    0.04336   0.05831   0.07712   0.09155   0.10228
 Alpha virt. eigenvalues --    0.11900   0.12940   0.13534   0.13625   0.14537
 Alpha virt. eigenvalues --    0.15049   0.17660   0.18624   0.18990   0.23015
 Alpha virt. eigenvalues --    0.25492   0.25508   0.27989   0.30028   0.30671
 Alpha virt. eigenvalues --    0.31674   0.33297   0.33500   0.35291   0.36012
 Alpha virt. eigenvalues --    0.36174   0.37753   0.38173   0.39088   0.39405
 Alpha virt. eigenvalues --    0.40723   0.41557   0.42387   0.43033   0.43467
 Alpha virt. eigenvalues --    0.43979   0.45342   0.46276   0.48715   0.49578
 Alpha virt. eigenvalues --    0.50921   0.51968   0.53374   0.55246   0.58037
 Alpha virt. eigenvalues --    0.61203   0.66691   0.67224   0.68919   0.69585
 Alpha virt. eigenvalues --    0.70228   0.75765   0.77971   0.81857   0.85573
 Alpha virt. eigenvalues --    0.88226   0.94129   0.96118   0.97316   0.99717
 Alpha virt. eigenvalues --    1.07891   1.10077   1.13550   1.17248   1.24931
 Alpha virt. eigenvalues --    1.28789   1.29307   1.30566   1.34890   1.35492
 Alpha virt. eigenvalues --    1.36690   1.38647   1.42221   1.42936   1.43861
 Alpha virt. eigenvalues --    1.44573   1.44982   1.45283   1.47475   1.47540
 Alpha virt. eigenvalues --    1.48615   1.49818   1.52814   1.55566   1.56023
 Alpha virt. eigenvalues --    1.56829   1.59423   1.63240   1.68154   1.76206
 Alpha virt. eigenvalues --    1.95442   1.96648   1.99613   2.02543   2.02729
 Alpha virt. eigenvalues --    2.03926   2.05659   2.05788   2.09134   2.11161
 Alpha virt. eigenvalues --    2.11244   2.14390   2.17002   2.17804   2.22770
 Alpha virt. eigenvalues --    2.23138   2.25809   2.28657   2.29577   2.33440
 Alpha virt. eigenvalues --    2.33720   2.40037   2.56525   2.59590   2.61766
 Alpha virt. eigenvalues --    2.67970   2.69869   2.70047   2.76296   2.80258
 Alpha virt. eigenvalues --    2.91382   2.93115   2.95896   3.02000   3.11888
 Alpha virt. eigenvalues --    3.13091   3.15257   3.20760   3.24712   3.28646
 Alpha virt. eigenvalues --    3.32824   3.36062   3.40776   3.49301   3.50279
 Alpha virt. eigenvalues --    3.54538   3.58239   3.59061   3.61831   3.69355
 Alpha virt. eigenvalues --    3.69859   3.75967   3.81729   3.91553   4.01416
 Alpha virt. eigenvalues --    4.27732   4.29703   4.32135   4.50369   4.82088
 Alpha virt. eigenvalues --    6.34752   6.36385   6.39726   6.42063   6.42169
 Alpha virt. eigenvalues --    6.44338   6.44746   6.45403   6.47386   6.48362
 Alpha virt. eigenvalues --    6.52548   6.56119   6.58003   6.66841   6.83239
 Alpha virt. eigenvalues --    6.88327   6.92368   6.97095   9.07074   9.08285
 Alpha virt. eigenvalues --    9.10411   9.10972   9.11286   9.14646   9.15088
 Alpha virt. eigenvalues --    9.16859   9.19871   9.22056   9.22853   9.24268
 Alpha virt. eigenvalues --    9.26031   9.27064   9.31403   9.32733   9.38198
 Alpha virt. eigenvalues --    9.41611   9.42188   9.51082   9.60657   9.67670
 Alpha virt. eigenvalues --    9.70865   9.72380   9.72980   9.79383   9.80904
 Alpha virt. eigenvalues --    9.86104   9.86896   9.94093  23.87326  24.03936
 Alpha virt. eigenvalues --   24.29463  66.89145  66.92962  66.93916  66.96089
 Alpha virt. eigenvalues --   66.97408  67.00484
          Condensed to atoms (all electrons):
               1          2          3          4          5          6
     1  C    5.741491  -0.106344   0.140558  -0.105849  -0.071834   0.226216
     2  C   -0.106344   5.551615  -0.111704   0.178672   0.175152  -0.308398
     3  F    0.140558  -0.111704   9.313839   0.016460  -0.006932  -0.068922
     4  F   -0.105849   0.178672   0.016460   9.191780  -0.025502   0.009474
     5  F   -0.071834   0.175152  -0.006932  -0.025502   9.188908   0.020755
     6  C    0.226216  -0.308398  -0.068922   0.009474   0.020755   4.691723
     7  F   -0.077343   0.056076   0.012443  -0.000517  -0.000110   0.213825
     8  F   -0.020710  -0.034393  -0.000402   0.012649  -0.000681   0.214456
     9  F   -0.020710  -0.034393  -0.000402   0.012649  -0.000681   0.214456
               7          8          9
     1  C   -0.077343  -0.020710  -0.020710
     2  C    0.056076  -0.034393  -0.034393
     3  F    0.012443  -0.000402  -0.000402
     4  F   -0.000517   0.012649   0.012649
     5  F   -0.000110  -0.000681  -0.000681
     6  C    0.213825   0.214456   0.214456
     7  F    9.098005   0.002758   0.002758
     8  F    0.002758   9.103035  -0.005245
     9  F    0.002758  -0.005245   9.103035
 Mulliken charges:
               1
     1  C    0.294526
     2  C    0.633717
     3  F   -0.294937
     4  F   -0.289815
     5  F   -0.279075
     6  C    0.786414
     7  F   -0.307895
     8  F   -0.271467
     9  F   -0.271467
 Sum of Mulliken charges =  -0.00000
 Mulliken charges with hydrogens summed into heavy atoms:
               1
     1  C    0.294526
     2  C    0.633717
     3  F   -0.294937
     4  F   -0.289815
     5  F   -0.279075
     6  C    0.786414
     7  F   -0.307895
     8  F   -0.271467
     9  F   -0.271467
 Electronic spatial extent (au):  <R**2>=           1036.9593
 Charge=             -0.0000 electrons
 Dipole moment (field-independent basis, Debye):
    X=             -0.9516    Y=             -0.0973    Z=             -0.0000  Tot=              0.9566
 Quadrupole moment (field-independent basis, Debye-Ang):
   XX=            -47.6491   YY=            -48.7608   ZZ=            -45.8546
   XY=              0.5315   XZ=              0.0000   YZ=             -0.0000
 Traceless Quadrupole moment (field-independent basis, Debye-Ang):
   XX=             -0.2276   YY=             -1.3393   ZZ=              1.5669
   XY=              0.5315   XZ=              0.0000   YZ=             -0.0000
 Octapole moment (field-independent basis, Debye-Ang**2):
  XXX=              1.3276  YYY=             -3.6824  ZZZ=             -0.0000  XYY=              0.6410
  XXY=             -1.5083  XXZ=              0.0000  XZZ=             -1.7897  YZZ=              0.7933
  YYZ=              0.0000  XYZ=              0.0000
 Hexadecapole moment (field-independent basis, Debye-Ang**3):
 XXXX=           -625.7045 YYYY=           -281.4645 ZZZZ=           -101.7845 XXXY=              0.2546
 XXXZ=             -0.0001 YYYX=              0.8500 YYYZ=             -0.0001 ZZZX=             -0.0001
 ZZZY=             -0.0001 XXYY=           -151.1607 XXZZ=           -118.8195 YYZZ=            -62.7943
 XXYZ=             -0.0000 YYXZ=             -0.0000 ZZXY=              2.0193
 N-N= 5.128316744717D+02 E-N=-2.720446188446D+03  KE= 7.115484901962D+02
 Calling FoFJK, ICntrl=      2127 FMM=F ISym2X=0 I1Cent= 0 IOpClX= 0 NMat=1 NMatS=1 NMatT=0.
 ***** Axes restored to original set *****
 -------------------------------------------------------------------
 Center     Atomic                   Forces (Hartrees/Bohr)
 Number     Number              X              Y              Z
 -------------------------------------------------------------------
      1        6           0.000117990   -0.000314333   -0.000000042
      2        6          -0.000199665    0.000097196    0.000000078
      3        9          -0.000032994    0.000181305   -0.000000003
      4        9          -0.000034808    0.000032448   -0.000000032
      5        9           0.000091979   -0.000109371   -0.000000029
      6        6           0.000202932    0.000537207   -0.000000160
      7        9          -0.000122215   -0.000198823   -0.000000052
      8        9          -0.000011634   -0.000112702   -0.000091622
      9        9          -0.000011585   -0.000112927    0.000091863
 -------------------------------------------------------------------
 Cartesian Forces:  Max     0.000537207 RMS     0.000154618

 GradGradGradGradGradGradGradGradGradGradGradGradGradGradGradGradGradGrad
 Berny optimization.
 FormGI is forming the generalized inverse of G from B-inverse, IUseBI=4.
 Internal  Forces:  Max     0.000227843 RMS     0.000083996
 Search for a local minimum.
 Step number   1 out of a maximum of   40
 All quantities printed in internal units (Hartrees-Bohrs-Radians)
 Mixed Optimization -- En-DIIS/RFO-DIIS
 Second derivative matrix not updated -- first step.
 ITU=  0
     Eigenvalues ---    0.00634   0.01672   0.03119   0.03119   0.10794
     Eigenvalues ---    0.11112   0.25000   0.25000   0.25000   0.25000
     Eigenvalues ---    0.25000   0.25000   0.25000   0.31352   0.57832
     Eigenvalues ---    0.57832   0.59751   0.59899   0.61413   0.65805
     Eigenvalues ---    0.66442
 RFO step:  Lambda=-5.76668725D-07 EMin= 6.33837069D-03
 Linear search not attempted -- first point.
 Iteration  1 RMS(Cart)=  0.00028875 RMS(Int)=  0.00000009
 Iteration  2 RMS(Cart)=  0.00000009 RMS(Int)=  0.00000005
 Variable       Old X    -DE/DX   Delta X   Delta X   Delta X     New X
                                 (Linear)    (Quad)   (Total)
    R1        2.49840   0.00011   0.00000   0.00018   0.00018   2.49858
    R2        2.51138   0.00018   0.00000   0.00030   0.00030   2.51169
    R3        2.85346   0.00001   0.00000   0.00002   0.00002   2.85348
    R4        2.46622  -0.00003   0.00000  -0.00005  -0.00005   2.46618
    R5        2.46179  -0.00013   0.00000  -0.00019  -0.00019   2.46160
    R6        2.51020  -0.00023   0.00000  -0.00038  -0.00038   2.50982
    R7        2.52699   0.00014   0.00000   0.00024   0.00024   2.52722
    R8        2.52699   0.00014   0.00000   0.00024   0.00024   2.52722
    A1        2.09632  -0.00008   0.00000  -0.00033  -0.00033   2.09600
    A2        2.15947   0.00009   0.00000   0.00038   0.00038   2.15984
    A3        2.02739  -0.00001   0.00000  -0.00005  -0.00005   2.02734
    A4        2.15538   0.00001   0.00000   0.00004   0.00004   2.15542
    A5        2.16286   0.00007   0.00000   0.00027   0.00027   2.16314
    A6        1.96494  -0.00008   0.00000  -0.00032  -0.00032   1.96463
    A7        1.91393   0.00013   0.00000   0.00069   0.00069   1.91461
    A8        1.95126  -0.00005   0.00000  -0.00029  -0.00029   1.95096
    A9        1.95126  -0.00005   0.00000  -0.00029  -0.00029   1.95096
   A10        1.88835  -0.00000   0.00000   0.00015   0.00015   1.88850
   A11        1.88835  -0.00000   0.00000   0.00015   0.00015   1.88850
   A12        1.86833  -0.00002   0.00000  -0.00039  -0.00039   1.86793
    D1       -3.14159  -0.00000   0.00000  -0.00000  -0.00000   3.14159
    D2       -0.00000   0.00000   0.00000   0.00000   0.00000   0.00000
    D3        0.00000  -0.00000   0.00000  -0.00000  -0.00000  -0.00000
    D4        3.14159   0.00000   0.00000   0.00000   0.00000  -3.14159
    D5        3.14159  -0.00000   0.00000  -0.00000  -0.00000   3.14159
    D6        1.04720  -0.00005   0.00000  -0.00046  -0.00046   1.04674
    D7       -1.04721   0.00005   0.00000   0.00045   0.00045  -1.04675
    D8       -0.00000  -0.00000   0.00000  -0.00000  -0.00000  -0.00001
    D9       -2.09439  -0.00005   0.00000  -0.00045  -0.00045  -2.09485
   D10        2.09438   0.00005   0.00000   0.00045   0.00045   2.09484
         Item               Value     Threshold  Converged?
 Maximum Force            0.000228     0.000450     YES
 RMS     Force            0.000084     0.000300     YES
 Maximum Displacement     0.000938     0.001800     YES
 RMS     Displacement     0.000289     0.001200     YES
 Predicted change in Energy=-2.883021D-07
 Optimization completed.
    -- Stationary point found.
                           ----------------------------
                           !   Optimized Parameters   !
                           ! (Angstroms and Degrees)  !
 --------------------------                            --------------------------
 ! Name  Definition              Value          Derivative Info.                !
 --------------------------------------------------------------------------------
 ! R1    R(1,2)                  1.3221         -DE/DX =    0.0001              !
 ! R2    R(1,3)                  1.329          -DE/DX =    0.0002              !
 ! R3    R(1,6)                  1.51           -DE/DX =    0.0                 !
 ! R4    R(2,4)                  1.3051         -DE/DX =    0.0                 !
 ! R5    R(2,5)                  1.3027         -DE/DX =   -0.0001              !
 ! R6    R(6,7)                  1.3283         -DE/DX =   -0.0002              !
 ! R7    R(6,8)                  1.3372         -DE/DX =    0.0001              !
 ! R8    R(6,9)                  1.3372         -DE/DX =    0.0001              !
 ! A1    A(2,1,3)              120.1106         -DE/DX =   -0.0001              !
 ! A2    A(2,1,6)              123.7285         -DE/DX =    0.0001              !
 ! A3    A(3,1,6)              116.161          -DE/DX =    0.0                 !
 ! A4    A(1,2,4)              123.4941         -DE/DX =    0.0                 !
 ! A5    A(1,2,5)              123.9229         -DE/DX =    0.0001              !
 ! A6    A(4,2,5)              112.5829         -DE/DX =   -0.0001              !
 ! A7    A(1,6,7)              109.6599         -DE/DX =    0.0001              !
 ! A8    A(1,6,8)              111.7988         -DE/DX =   -0.0001              !
 ! A9    A(1,6,9)              111.7988         -DE/DX =   -0.0001              !
 ! A10   A(7,6,8)              108.1946         -DE/DX =    0.0                 !
 ! A11   A(7,6,9)              108.1945         -DE/DX =    0.0                 !
 ! A12   A(8,6,9)              107.0472         -DE/DX =    0.0                 !
 ! D1    D(3,1,2,4)            180.0001         -DE/DX =    0.0                 !
 ! D2    D(3,1,2,5)              0.0            -DE/DX =    0.0                 !
 ! D3    D(6,1,2,4)              0.0            -DE/DX =    0.0                 !
 ! D4    D(6,1,2,5)           -180.0001         -DE/DX =    0.0                 !
 ! D5    D(2,1,6,7)            179.9998         -DE/DX =    0.0                 !
 ! D6    D(2,1,6,8)             60.0001         -DE/DX =    0.0                 !
 ! D7    D(2,1,6,9)            -60.0006         -DE/DX =    0.0                 !
 ! D8    D(3,1,6,7)             -0.0003         -DE/DX =    0.0                 !
 ! D9    D(3,1,6,8)           -120.0            -DE/DX =    0.0                 !
 ! D10   D(3,1,6,9)            119.9994         -DE/DX =    0.0                 !
 --------------------------------------------------------------------------------
 GradGradGradGradGradGradGradGradGradGradGradGradGradGradGradGradGradGrad

                          Input orientation:                          
 ---------------------------------------------------------------------
 Center     Atomic      Atomic             Coordinates (Angstroms)
 Number     Number       Type             X           Y           Z
 ---------------------------------------------------------------------
      1          6           0       -0.258452    0.524007    0.000000
      2          6           0       -1.386153   -0.166082   -0.000001
      3          9           0       -0.289848    1.852602    0.000002
      4          9           0       -1.432379   -1.470333   -0.000002
      5          9           0       -2.570517    0.376482    0.000000
      6          6           0        1.112200   -0.109534    0.000000
      7          9           0        2.042705    0.838440   -0.000004
      8          9           0        1.302487   -0.881396   -1.075262
      9          9           0        1.302490   -0.881389    1.075266
 ---------------------------------------------------------------------
                    Distance matrix (angstroms):
                    1          2          3          4          5
     1  C    0.000000
     2  C    1.322094   0.000000
     3  F    1.328966   2.297166   0.000000
     4  F    2.314195   1.305070   3.513869   0.000000
     5  F    2.316767   1.302726   2.716686   2.169351   0.000000
     6  C    1.509987   2.498993   2.411580   2.885595   3.714649
     7  F    2.322540   3.572972   2.543487   4.172127   4.636294
     8  F    2.359635   2.982724   3.341627   2.997086   4.211722
     9  F    2.359634   2.982728   3.341622   2.997093   4.211724
                    6          7          8          9
     6  C    0.000000
     7  F    1.328343   0.000000
     8  F    1.337224   2.159152   0.000000
     9  F    1.337224   2.159152   2.150528   0.000000
 Stoichiometry    C3F6
 Framework group  C1[X(C3F6)]
 Deg. of freedom    21
 Full point group                 C1      NOp   1
 Largest Abelian subgroup         C1      NOp   1
 Largest concise Abelian subgroup C1      NOp   1
                         Standard orientation:                         
 ---------------------------------------------------------------------
 Center     Atomic      Atomic             Coordinates (Angstroms)
 Number     Number       Type             X           Y           Z
 ---------------------------------------------------------------------
      1          6           0       -0.258452    0.524007    0.000000
      2          6           0       -1.386153   -0.166082   -0.000001
      3          9           0       -0.289848    1.852602    0.000002
      4          9           0       -1.432379   -1.470333   -0.000002
      5          9           0       -2.570517    0.376482    0.000000
      6          6           0        1.112200   -0.109534    0.000000
      7          9           0        2.042705    0.838440   -0.000004
      8          9           0        1.302487   -0.881396   -1.075262
      9          9           0        1.302490   -0.881389    1.075266
 ---------------------------------------------------------------------
 Rotational constants (GHZ):           2.5326569           1.2876690           1.0024227
 1\1\GINC-CCLEARCO\FOpt\RwB97XD\6-311+G(2d)\C3F6\RAPPE\18-Nov-2025\0\\#
  opt wb97xd/6-311+g(2d) geom=connectivity freq integral=grid=superfine
 grid scf=(xqc,tight)\\Title Card Required\\0,1\C,-0.258452,0.524007,0.
 \C,-1.386153,-0.166082,-0.000001\F,-0.289848,1.852602,0.000002\F,-1.43
 2379,-1.470333,-0.000002\F,-2.570517,0.376482,0.\C,1.1122,-0.109534,0.
 \F,2.042705,0.83844,-0.000004\F,1.302487,-0.881396,-1.075262\F,1.30249
 ,-0.881389,1.075266\\Version=EM64M-G16RevA.03\State=1-A\HF=-713.357578
 7\RMSD=6.136e-09\RMSF=1.546e-04\Dipole=-0.3743846,-0.0382825,-0.000000
 1\Quadrupole=-0.1691895,-0.9957473,1.1649368,0.3951715,0.0000012,-0.00
 00032\PG=C01 [X(C3F6)]\\@


 BETTER TO HUNT IN FIELDS, FOR HEALTH UNBOUGHT
 THAN FEE THE DOCTOR FOR A NAUSEOUS DRAUGHT.
 THE WISE, FOR CURE, ON EXERCISE DEPEND;
 GOD NEVER MADE HIS WORK FOR MAN TO MEND.
     -- JOHN DRYDEN (1631-1700)
 Job cpu time:       0 days  0 hours 17 minutes 37.7 seconds.
 Elapsed time:       0 days  0 hours  0 minutes 51.1 seconds.
 File lengths (MBytes):  RWF=     27 Int=      0 D2E=      0 Chk=      5 Scr=      1
 Normal termination of Gaussian 16 at Tue Nov 18 07:45:10 2025.
 Link1:  Proceeding to internal job step number  2.
 ----------------------------------------------------------------------
 #N Geom=AllCheck Guess=TCheck SCRF=Check GenChk RwB97XD/6-311+G(2d) Fr
 eq
 ----------------------------------------------------------------------
 1/10=4,29=7,30=1,38=1,40=1/1,3;
 2/12=2,40=1/2;
 3/5=4,6=6,7=12,11=2,14=-4,25=1,30=1,70=2,71=2,74=-58,75=-7,116=1,140=1/1,2,3;
 4/5=101/1;
 5/5=2,8=3,13=1,32=2,38=6,98=1/2,8;
 8/6=4,10=90,11=11/1;
 11/6=1,8=1,9=11,15=111,16=1/1,2,10;
 10/6=1/2;
 6/7=2,8=2,9=2,10=2,28=1/1;
 7/8=1,10=1,25=1/1,2,3,16;
 1/10=4,30=1/3;
 99//99;
 Structure from the checkpoint file:  "propene.chk"
 -------------------
 Title Card Required
 -------------------
 Charge =  0 Multiplicity = 1
 Redundant internal coordinates found in file.  (old form).
 C,0,-0.258452,0.524007,0.
 C,0,-1.386153,-0.166082,-0.000001
 F,0,-0.289848,1.852602,0.000002
 F,0,-1.432379,-1.470333,-0.000002
 F,0,-2.570517,0.376482,0.
 C,0,1.1122,-0.109534,0.
 F,0,2.042705,0.83844,-0.000004
 F,0,1.302487,-0.881396,-1.075262
 F,0,1.30249,-0.881389,1.075266
 Recover connectivity data from disk.

 GradGradGradGradGradGradGradGradGradGradGradGradGradGradGradGradGradGrad
 Berny optimization.
 Initialization pass.
                           ----------------------------
                           !    Initial Parameters    !
                           ! (Angstroms and Degrees)  !
 --------------------------                            --------------------------
 ! Name  Definition              Value          Derivative Info.                !
 --------------------------------------------------------------------------------
 ! R1    R(1,2)                  1.3221         calculate D2E/DX2 analytically  !
 ! R2    R(1,3)                  1.329          calculate D2E/DX2 analytically  !
 ! R3    R(1,6)                  1.51           calculate D2E/DX2 analytically  !
 ! R4    R(2,4)                  1.3051         calculate D2E/DX2 analytically  !
 ! R5    R(2,5)                  1.3027         calculate D2E/DX2 analytically  !
 ! R6    R(6,7)                  1.3283         calculate D2E/DX2 analytically  !
 ! R7    R(6,8)                  1.3372         calculate D2E/DX2 analytically  !
 ! R8    R(6,9)                  1.3372         calculate D2E/DX2 analytically  !
 ! A1    A(2,1,3)              120.1106         calculate D2E/DX2 analytically  !
 ! A2    A(2,1,6)              123.7285         calculate D2E/DX2 analytically  !
 ! A3    A(3,1,6)              116.161          calculate D2E/DX2 analytically  !
 ! A4    A(1,2,4)              123.4941         calculate D2E/DX2 analytically  !
 ! A5    A(1,2,5)              123.9229         calculate D2E/DX2 analytically  !
 ! A6    A(4,2,5)              112.5829         calculate D2E/DX2 analytically  !
 ! A7    A(1,6,7)              109.6599         calculate D2E/DX2 analytically  !
 ! A8    A(1,6,8)              111.7988         calculate D2E/DX2 analytically  !
 ! A9    A(1,6,9)              111.7988         calculate D2E/DX2 analytically  !
 ! A10   A(7,6,8)              108.1946         calculate D2E/DX2 analytically  !
 ! A11   A(7,6,9)              108.1945         calculate D2E/DX2 analytically  !
 ! A12   A(8,6,9)              107.0472         calculate D2E/DX2 analytically  !
 ! D1    D(3,1,2,4)           -179.9999         calculate D2E/DX2 analytically  !
 ! D2    D(3,1,2,5)              0.0            calculate D2E/DX2 analytically  !
 ! D3    D(6,1,2,4)              0.0            calculate D2E/DX2 analytically  !
 ! D4    D(6,1,2,5)            179.9999         calculate D2E/DX2 analytically  !
 ! D5    D(2,1,6,7)            179.9998         calculate D2E/DX2 analytically  !
 ! D6    D(2,1,6,8)             60.0001         calculate D2E/DX2 analytically  !
 ! D7    D(2,1,6,9)            -60.0006         calculate D2E/DX2 analytically  !
 ! D8    D(3,1,6,7)             -0.0003         calculate D2E/DX2 analytically  !
 ! D9    D(3,1,6,8)           -120.0            calculate D2E/DX2 analytically  !
 ! D10   D(3,1,6,9)            119.9994         calculate D2E/DX2 analytically  !
 --------------------------------------------------------------------------------
 Trust Radius=3.00D-01 FncErr=1.00D-07 GrdErr=1.00D-07 EigMax=2.50D+02 EigMin=1.00D-04
 Number of steps in this run=      2 maximum allowed number of steps=      2.
 GradGradGradGradGradGradGradGradGradGradGradGradGradGradGradGradGradGrad

                          Input orientation:                          
 ---------------------------------------------------------------------
 Center     Atomic      Atomic             Coordinates (Angstroms)
 Number     Number       Type             X           Y           Z
 ---------------------------------------------------------------------
      1          6           0       -0.258452    0.524007    0.000000
      2          6           0       -1.386153   -0.166082   -0.000001
      3          9           0       -0.289848    1.852602    0.000002
      4          9           0       -1.432379   -1.470333   -0.000002
      5          9           0       -2.570517    0.376482    0.000000
      6          6           0        1.112200   -0.109534    0.000000
      7          9           0        2.042705    0.838440   -0.000004
      8          9           0        1.302487   -0.881396   -1.075262
      9          9           0        1.302490   -0.881389    1.075266
 ---------------------------------------------------------------------
                    Distance matrix (angstroms):
                    1          2          3          4          5
     1  C    0.000000
     2  C    1.322094   0.000000
     3  F    1.328966   2.297166   0.000000
     4  F    2.314195   1.305070   3.513869   0.000000
     5  F    2.316767   1.302726   2.716686   2.169351   0.000000
     6  C    1.509987   2.498993   2.411580   2.885595   3.714649
     7  F    2.322540   3.572972   2.543487   4.172127   4.636294
     8  F    2.359635   2.982724   3.341627   2.997086   4.211722
     9  F    2.359634   2.982728   3.341622   2.997093   4.211724
                    6          7          8          9
     6  C    0.000000
     7  F    1.328343   0.000000
     8  F    1.337224   2.159152   0.000000
     9  F    1.337224   2.159152   2.150528   0.000000
 Stoichiometry    C3F6
 Framework group  C1[X(C3F6)]
 Deg. of freedom    21
 Full point group                 C1      NOp   1
 Largest Abelian subgroup         C1      NOp   1
 Largest concise Abelian subgroup C1      NOp   1
                         Standard orientation:                         
 ---------------------------------------------------------------------
 Center     Atomic      Atomic             Coordinates (Angstroms)
 Number     Number       Type             X           Y           Z
 ---------------------------------------------------------------------
      1          6           0       -0.258452    0.524007    0.000000
      2          6           0       -1.386153   -0.166082   -0.000001
      3          9           0       -0.289848    1.852602    0.000002
      4          9           0       -1.432379   -1.470333   -0.000002
      5          9           0       -2.570517    0.376482    0.000000
      6          6           0        1.112200   -0.109534    0.000000
      7          9           0        2.042705    0.838440   -0.000004
      8          9           0        1.302487   -0.881396   -1.075262
      9          9           0        1.302490   -0.881389    1.075266
 ---------------------------------------------------------------------
 Rotational constants (GHZ):           2.5326569           1.2876690           1.0024227
 Standard basis: 6-311+G(2d) (5D, 7F)
 There are   261 symmetry adapted cartesian basis functions of A   symmetry.
 There are   243 symmetry adapted basis functions of A   symmetry.
   243 basis functions,   378 primitive gaussians,   261 cartesian basis functions
    36 alpha electrons       36 beta electrons
       nuclear repulsion energy       512.8346790274 Hartrees.
 NAtoms=    9 NActive=    9 NUniq=    9 SFac= 1.00D+00 NAtFMM=   60 NAOKFM=F Big=F
 Integral buffers will be    131072 words long.
 Raffenetti 2 integral format.
 Two-electron integral symmetry is turned on.
 Nuclear repulsion after empirical dispersion term =      512.8316744717 Hartrees.
 One-electron integrals computed using PRISM.
 NBasis=   243 RedAO= T EigKep=  4.40D-05  NBF=   243
 NBsUse=   243 1.00D-06 EigRej= -1.00D+00 NBFU=   243
 Initial guess from the checkpoint file:  "propene.chk"
 B after Tr=     0.000000   -0.000000   -0.000000
         Rot=    1.000000   -0.000000    0.000000    0.000000 Ang=   0.00 deg.
 Keep R1 ints in memory in canonical form, NReq=905192497.
 Requested convergence on RMS density matrix=1.00D-08 within  32 cycles.
 Requested convergence on MAX density matrix=1.00D-06.
 Requested convergence on             energy=1.00D-06.
 No special actions if energy rises.
 SCF Done:  E(RwB97XD) =  -713.357578735     A.U. after    1 cycles
            NFock=  1  Conv=0.15D-08     -V/T= 2.0025
 QCSCF skips out because SCF is already converged.
 DoSCS=F DFT=T ScalE2(SS,OS)=  1.000000  1.000000
 Range of M.O.s used for correlation:     1   243
 NBasis=   243 NAE=    36 NBE=    36 NFC=     0 NFV=     0
 NROrb=    243 NOA=    36 NOB=    36 NVA=   207 NVB=   207

 **** Warning!!: The largest alpha MO coefficient is  0.55258092D+02

 Symmetrizing basis deriv contribution to polar:
 IMax=3 JMax=2 DiffMx= 0.00D+00
 G2DrvN: will do    10 centers at a time, making    1 passes.
 Calling FoFCou, ICntrl=  3107 FMM=F I1Cent=   0 AccDes= 0.00D+00.
 End of G2Drv F.D. properties file   721 does not exist.
 End of G2Drv F.D. properties file   722 does not exist.
 End of G2Drv F.D. properties file   788 does not exist.
          IDoAtm=111111111
          Differentiating once with respect to electric field.
                with respect to dipole field.
          Differentiating once with respect to nuclear coordinates.
 Keep R1 ints in memory in canonical form, NReq=905048798.
          There are    30 degrees of freedom in the 1st order CPHF.  IDoFFX=6 NUNeed=     3.
     27 vectors produced by pass  0 Test12= 2.48D-14 3.33D-09 XBig12= 1.78D+01 3.00D+00.
 AX will form    27 AO Fock derivatives at one time.
     27 vectors produced by pass  1 Test12= 2.48D-14 3.33D-09 XBig12= 2.32D+00 2.47D-01.
     27 vectors produced by pass  2 Test12= 2.48D-14 3.33D-09 XBig12= 1.03D-01 6.84D-02.
     27 vectors produced by pass  3 Test12= 2.48D-14 3.33D-09 XBig12= 2.69D-03 1.13D-02.
     27 vectors produced by pass  4 Test12= 2.48D-14 3.33D-09 XBig12= 4.02D-05 1.32D-03.
     27 vectors produced by pass  5 Test12= 2.48D-14 3.33D-09 XBig12= 3.49D-07 1.41D-04.
     27 vectors produced by pass  6 Test12= 2.48D-14 3.33D-09 XBig12= 2.55D-09 1.34D-05.
     14 vectors produced by pass  7 Test12= 2.48D-14 3.33D-09 XBig12= 1.59D-11 8.74D-07.
      4 vectors produced by pass  8 Test12= 2.48D-14 3.33D-09 XBig12= 1.06D-13 5.53D-08.
      2 vectors produced by pass  9 Test12= 2.48D-14 3.33D-09 XBig12= 5.05D-16 3.99D-09.
 InvSVY:  IOpt=1 It=  1 EMax= 2.66D-15
 Solved reduced A of dimension   209 with    30 vectors.
 Isotropic polarizability for W=    0.000000       40.19 Bohr**3.
 End of Minotr F.D. properties file   721 does not exist.
 End of Minotr F.D. properties file   722 does not exist.
 End of Minotr F.D. properties file   788 does not exist.

 **********************************************************************

            Population analysis using the SCF density.

 **********************************************************************

 Orbital symmetries:
       Occupied  (A) (A) (A) (A) (A) (A) (A) (A) (A) (A) (A) (A)
                 (A) (A) (A) (A) (A) (A) (A) (A) (A) (A) (A) (A)
                 (A) (A) (A) (A) (A) (A) (A) (A) (A) (A) (A) (A)
       Virtual   (A) (A) (A) (A) (A) (A) (A) (A) (A) (A) (A) (A)
                 (A) (A) (A) (A) (A) (A) (A) (A) (A) (A) (A) (A)
                 (A) (A) (A) (A) (A) (A) (A) (A) (A) (A) (A) (A)
                 (A) (A) (A) (A) (A) (A) (A) (A) (A) (A) (A) (A)
                 (A) (A) (A) (A) (A) (A) (A) (A) (A) (A) (A) (A)
                 (A) (A) (A) (A) (A) (A) (A) (A) (A) (A) (A) (A)
                 (A) (A) (A) (A) (A) (A) (A) (A) (A) (A) (A) (A)
                 (A) (A) (A) (A) (A) (A) (A) (A) (A) (A) (A) (A)
                 (A) (A) (A) (A) (A) (A) (A) (A) (A) (A) (A) (A)
                 (A) (A) (A) (A) (A) (A) (A) (A) (A) (A) (A) (A)
                 (A) (A) (A) (A) (A) (A) (A) (A) (A) (A) (A) (A)
                 (A) (A) (A) (A) (A) (A) (A) (A) (A) (A) (A) (A)
                 (A) (A) (A) (A) (A) (A) (A) (A) (A) (A) (A) (A)
                 (A) (A) (A) (A) (A) (A) (A) (A) (A) (A) (A) (A)
                 (A) (A) (A) (A) (A) (A) (A) (A) (A) (A) (A) (A)
                 (A) (A) (A) (A) (A) (A) (A) (A) (A) (A) (A) (A)
                 (A) (A) (A) (A) (A) (A) (A) (A) (A) (A) (A) (A)
                 (A) (A) (A)
 The electronic state is 1-A.
 Alpha  occ. eigenvalues --  -24.89411 -24.89373 -24.86967 -24.86813 -24.86533
 Alpha  occ. eigenvalues --  -24.86533 -10.57784 -10.50442 -10.42206  -1.45738
 Alpha  occ. eigenvalues --   -1.44951  -1.39181  -1.38285  -1.36376  -1.35966
 Alpha  occ. eigenvalues --   -0.95561  -0.85267  -0.78358  -0.74567  -0.73592
 Alpha  occ. eigenvalues --   -0.72027  -0.70864  -0.68341  -0.67184  -0.60067
 Alpha  occ. eigenvalues --   -0.59953  -0.59087  -0.58402  -0.58389  -0.57605
 Alpha  occ. eigenvalues --   -0.56658  -0.54818  -0.54445  -0.52737  -0.50226
 Alpha  occ. eigenvalues --   -0.37727
 Alpha virt. eigenvalues --    0.04336   0.05831   0.07712   0.09155   0.10228
 Alpha virt. eigenvalues --    0.11900   0.12940   0.13534   0.13625   0.14537
 Alpha virt. eigenvalues --    0.15049   0.17660   0.18624   0.18990   0.23015
 Alpha virt. eigenvalues --    0.25492   0.25508   0.27989   0.30028   0.30671
 Alpha virt. eigenvalues --    0.31674   0.33297   0.33500   0.35291   0.36012
 Alpha virt. eigenvalues --    0.36174   0.37753   0.38173   0.39088   0.39405
 Alpha virt. eigenvalues --    0.40723   0.41557   0.42387   0.43033   0.43467
 Alpha virt. eigenvalues --    0.43979   0.45342   0.46276   0.48715   0.49578
 Alpha virt. eigenvalues --    0.50921   0.51968   0.53374   0.55246   0.58037
 Alpha virt. eigenvalues --    0.61203   0.66691   0.67224   0.68919   0.69585
 Alpha virt. eigenvalues --    0.70228   0.75765   0.77971   0.81857   0.85573
 Alpha virt. eigenvalues --    0.88226   0.94129   0.96118   0.97316   0.99717
 Alpha virt. eigenvalues --    1.07891   1.10077   1.13550   1.17248   1.24931
 Alpha virt. eigenvalues --    1.28789   1.29307   1.30566   1.34890   1.35492
 Alpha virt. eigenvalues --    1.36690   1.38648   1.42221   1.42936   1.43861
 Alpha virt. eigenvalues --    1.44573   1.44982   1.45283   1.47475   1.47540
 Alpha virt. eigenvalues --    1.48615   1.49818   1.52814   1.55566   1.56023
 Alpha virt. eigenvalues --    1.56829   1.59423   1.63240   1.68154   1.76206
 Alpha virt. eigenvalues --    1.95442   1.96648   1.99613   2.02543   2.02729
 Alpha virt. eigenvalues --    2.03926   2.05659   2.05788   2.09134   2.11161
 Alpha virt. eigenvalues --    2.11244   2.14390   2.17002   2.17804   2.22770
 Alpha virt. eigenvalues --    2.23138   2.25809   2.28657   2.29577   2.33440
 Alpha virt. eigenvalues --    2.33720   2.40037   2.56525   2.59590   2.61766
 Alpha virt. eigenvalues --    2.67970   2.69869   2.70047   2.76296   2.80258
 Alpha virt. eigenvalues --    2.91382   2.93115   2.95896   3.02000   3.11888
 Alpha virt. eigenvalues --    3.13091   3.15257   3.20760   3.24712   3.28646
 Alpha virt. eigenvalues --    3.32824   3.36062   3.40776   3.49301   3.50279
 Alpha virt. eigenvalues --    3.54538   3.58239   3.59061   3.61831   3.69355
 Alpha virt. eigenvalues --    3.69859   3.75967   3.81729   3.91553   4.01416
 Alpha virt. eigenvalues --    4.27732   4.29703   4.32135   4.50369   4.82088
 Alpha virt. eigenvalues --    6.34752   6.36385   6.39726   6.42063   6.42169
 Alpha virt. eigenvalues --    6.44338   6.44746   6.45403   6.47386   6.48362
 Alpha virt. eigenvalues --    6.52548   6.56119   6.58003   6.66841   6.83239
 Alpha virt. eigenvalues --    6.88327   6.92368   6.97095   9.07074   9.08285
 Alpha virt. eigenvalues --    9.10411   9.10972   9.11286   9.14646   9.15088
 Alpha virt. eigenvalues --    9.16859   9.19871   9.22056   9.22853   9.24268
 Alpha virt. eigenvalues --    9.26031   9.27064   9.31403   9.32733   9.38198
 Alpha virt. eigenvalues --    9.41611   9.42188   9.51082   9.60657   9.67670
 Alpha virt. eigenvalues --    9.70865   9.72380   9.72980   9.79383   9.80904
 Alpha virt. eigenvalues --    9.86104   9.86896   9.94093  23.87326  24.03936
 Alpha virt. eigenvalues --   24.29463  66.89145  66.92962  66.93916  66.96089
 Alpha virt. eigenvalues --   66.97408  67.00484
          Condensed to atoms (all electrons):
               1          2          3          4          5          6
     1  C    5.741491  -0.106344   0.140558  -0.105849  -0.071834   0.226216
     2  C   -0.106344   5.551615  -0.111704   0.178672   0.175152  -0.308398
     3  F    0.140558  -0.111704   9.313838   0.016460  -0.006932  -0.068922
     4  F   -0.105849   0.178672   0.016460   9.191780  -0.025502   0.009474
     5  F   -0.071834   0.175152  -0.006932  -0.025502   9.188908   0.020755
     6  C    0.226216  -0.308398  -0.068922   0.009474   0.020755   4.691723
     7  F   -0.077343   0.056076   0.012443  -0.000517  -0.000110   0.213825
     8  F   -0.020710  -0.034393  -0.000402   0.012649  -0.000681   0.214456
     9  F   -0.020710  -0.034393  -0.000402   0.012649  -0.000681   0.214456
               7          8          9
     1  C   -0.077343  -0.020710  -0.020710
     2  C    0.056076  -0.034393  -0.034393
     3  F    0.012443  -0.000402  -0.000402
     4  F   -0.000517   0.012649   0.012649
     5  F   -0.000110  -0.000681  -0.000681
     6  C    0.213825   0.214456   0.214456
     7  F    9.098005   0.002758   0.002758
     8  F    0.002758   9.103035  -0.005245
     9  F    0.002758  -0.005245   9.103035
 Mulliken charges:
               1
     1  C    0.294525
     2  C    0.633717
     3  F   -0.294937
     4  F   -0.289815
     5  F   -0.279075
     6  C    0.786414
     7  F   -0.307895
     8  F   -0.271467
     9  F   -0.271467
 Sum of Mulliken charges =  -0.00000
 Mulliken charges with hydrogens summed into heavy atoms:
               1
     1  C    0.294525
     2  C    0.633717
     3  F   -0.294937
     4  F   -0.289815
     5  F   -0.279075
     6  C    0.786414
     7  F   -0.307895
     8  F   -0.271467
     9  F   -0.271467
 APT charges:
               1
     1  C    0.145922
     2  C    1.134652
     3  F   -0.417914
     4  F   -0.464038
     5  F   -0.513344
     6  C    1.731955
     7  F   -0.531811
     8  F   -0.542710
     9  F   -0.542711
 Sum of APT charges =  -0.00000
 APT charges with hydrogens summed into heavy atoms:
               1
     1  C    0.145922
     2  C    1.134652
     3  F   -0.417914
     4  F   -0.464038
     5  F   -0.513344
     6  C    1.731955
     7  F   -0.531811
     8  F   -0.542710
     9  F   -0.542711
 Electronic spatial extent (au):  <R**2>=           1036.9593
 Charge=             -0.0000 electrons
 Dipole moment (field-independent basis, Debye):
    X=             -0.9516    Y=             -0.0973    Z=             -0.0000  Tot=              0.9566
 Quadrupole moment (field-independent basis, Debye-Ang):
   XX=            -47.6491   YY=            -48.7608   ZZ=            -45.8546
   XY=              0.5315   XZ=              0.0000   YZ=             -0.0000
 Traceless Quadrupole moment (field-independent basis, Debye-Ang):
   XX=             -0.2276   YY=             -1.3393   ZZ=              1.5669
   XY=              0.5315   XZ=              0.0000   YZ=             -0.0000
 Octapole moment (field-independent basis, Debye-Ang**2):
  XXX=              1.3276  YYY=             -3.6824  ZZZ=             -0.0000  XYY=              0.6410
  XXY=             -1.5083  XXZ=              0.0000  XZZ=             -1.7897  YZZ=              0.7933
  YYZ=              0.0000  XYZ=              0.0000
 Hexadecapole moment (field-independent basis, Debye-Ang**3):
 XXXX=           -625.7045 YYYY=           -281.4645 ZZZZ=           -101.7845 XXXY=              0.2546
 XXXZ=             -0.0001 YYYX=              0.8500 YYYZ=             -0.0001 ZZZX=             -0.0001
 ZZZY=             -0.0001 XXYY=           -151.1607 XXZZ=           -118.8195 YYZZ=            -62.7943
 XXYZ=             -0.0000 YYXZ=             -0.0000 ZZXY=              2.0193
 N-N= 5.128316744717D+02 E-N=-2.720446188623D+03  KE= 7.115484899734D+02
  Exact polarizability:  48.785   3.934  41.030   0.000   0.000  30.756
 Approx polarizability:  49.302   5.690  46.808   0.000   0.000  35.075
 Calling FoFJK, ICntrl=    100127 FMM=F ISym2X=0 I1Cent= 0 IOpClX= 0 NMat=1 NMatS=1 NMatT=0.
 Full mass-weighted force constant matrix:
 Low frequencies ---  -32.1209   -6.6676   -3.5424   -2.8322   -0.0010   -0.0009
 Low frequencies ---    0.0009  138.5783  143.4398
 ******    1 imaginary frequencies (negative Signs) ****** 
 Diagonal vibrational polarizability:
       13.7017326      11.8692312       9.7515717
 Harmonic frequencies (cm**-1), IR intensities (KM/Mole), Raman scattering
 activities (A**4/AMU), depolarization ratios for plane and unpolarized
 incident light, reduced masses (AMU), force constants (mDyne/A),
 and normal coordinates:
                      1                      2                      3
                      A                      A                      A
 Frequencies --    -32.1175               138.5779               143.4398
 Red. masses --     18.8328                18.2003                18.1465
 Frc consts  --      0.0114                 0.2059                 0.2200
 IR Inten    --      0.0885                 0.3399                 1.3903
  Atom  AN      X      Y      Z        X      Y      Z        X      Y      Z
     1   6     0.00  -0.00   0.08     0.00   0.00  -0.33     0.00   0.28   0.00
     2   6    -0.00  -0.00  -0.13     0.00   0.00  -0.05     0.12   0.10   0.00
     3   9     0.00  -0.00   0.45     0.00   0.00  -0.22     0.06   0.27   0.00
     4   9    -0.00   0.00  -0.43     0.00   0.00  -0.41     0.59   0.07   0.00
     5   9     0.00   0.00  -0.04    -0.00  -0.00   0.66    -0.06  -0.32  -0.00
     6   6     0.00  -0.00   0.03    -0.00   0.00  -0.07    -0.13   0.03   0.00
     7   9    -0.00  -0.00  -0.43     0.00  -0.00   0.08     0.14  -0.24  -0.00
     8   9    -0.21  -0.33   0.23     0.30  -0.13   0.08    -0.36  -0.03  -0.00
     9   9     0.21   0.33   0.23    -0.30   0.13   0.08    -0.36  -0.03   0.00
                      4                      5                      6
                      A                      A                      A
 Frequencies --    259.0632               289.3253               362.2123
 Red. masses --     17.7131                18.4594                18.4686
 Frc consts  --      0.7004                 0.9104                 1.4276
 IR Inten    --      0.9826                 2.3733                 0.4103
  Atom  AN      X      Y      Z        X      Y      Z        X      Y      Z
     1   6    -0.00   0.00  -0.33    -0.07  -0.01   0.00    -0.08   0.01   0.00
     2   6    -0.00  -0.00  -0.11    -0.16   0.13   0.00    -0.20   0.01   0.00
     3   9     0.00  -0.00   0.50     0.68  -0.01  -0.00     0.24   0.02  -0.00
     4   9    -0.00  -0.00   0.37     0.12   0.11  -0.00    -0.35  -0.00  -0.00
     5   9    -0.00   0.00  -0.12    -0.31  -0.18  -0.00    -0.41  -0.35  -0.00
     6   6    -0.00   0.00  -0.25    -0.13  -0.12   0.00     0.13   0.10   0.00
     7   9     0.00  -0.00  -0.15    -0.47   0.23  -0.00     0.51  -0.23   0.00
     8   9     0.42  -0.13  -0.08     0.11  -0.07   0.02     0.05   0.24  -0.09
     9   9    -0.42   0.13  -0.08     0.11  -0.07  -0.02     0.05   0.24   0.09
                      7                      8                      9
                      A                      A                      A
 Frequencies --    378.7391               448.5622               509.9035
 Red. masses --     17.9014                15.1383                17.8048
 Frc consts  --      1.5129                 1.7946                 2.7275
 IR Inten    --      1.3744                 2.9262                 1.6428
  Atom  AN      X      Y      Z        X      Y      Z        X      Y      Z
     1   6     0.09  -0.16  -0.00    -0.00  -0.00   0.59    -0.13  -0.23  -0.00
     2   6     0.17  -0.27  -0.00     0.00  -0.00   0.44    -0.23   0.08  -0.00
     3   9     0.40  -0.20  -0.00     0.00   0.00  -0.11    -0.07  -0.34  -0.00
     4   9    -0.13  -0.30   0.00     0.00  -0.00  -0.16     0.43   0.06   0.00
     5   9     0.35   0.06   0.00     0.00   0.00  -0.10    -0.19   0.35   0.00
     6   6    -0.08   0.12   0.00    -0.00   0.00   0.07    -0.08  -0.18   0.00
     7   9    -0.07   0.11   0.00    -0.00  -0.00  -0.42    -0.07  -0.29   0.00
     8   9    -0.33   0.27  -0.13     0.30   0.14   0.05     0.09   0.22  -0.29
     9   9    -0.33   0.27   0.13    -0.30  -0.14   0.05     0.09   0.22   0.29
                     10                     11                     12
                      A                      A                      A
 Frequencies --    578.8355               603.0873               668.0790
 Red. masses --     15.4779                17.7462                16.8626
 Frc consts  --      3.0554                 3.8029                 4.4344
 IR Inten    --      0.2636                 0.3883                15.7565
  Atom  AN      X      Y      Z        X      Y      Z        X      Y      Z
     1   6    -0.00  -0.00   0.18    -0.09  -0.20   0.00     0.33  -0.19  -0.00
     2   6    -0.00  -0.00   0.63    -0.22  -0.03   0.00     0.18   0.26   0.00
     3   9    -0.00  -0.00  -0.01     0.08  -0.35  -0.00    -0.14  -0.38  -0.00
     4   9     0.00  -0.00  -0.13     0.23  -0.08  -0.00    -0.08   0.52   0.00
     5   9    -0.00   0.00  -0.15    -0.25   0.25   0.00     0.01  -0.28  -0.00
     6   6     0.00   0.00  -0.28     0.13   0.25   0.00     0.23  -0.08   0.00
     7   9     0.00   0.00   0.35     0.36   0.32  -0.00     0.03   0.25  -0.00
     8   9     0.00  -0.36  -0.20    -0.15  -0.08   0.33    -0.14  -0.05  -0.17
     9   9    -0.00   0.36  -0.20    -0.15  -0.08  -0.33    -0.14  -0.05   0.17
                     13                     14                     15
                      A                      A                      A
 Frequencies --    695.5321               775.7691              1052.3201
 Red. masses --     12.8194                17.9704                14.4184
 Frc consts  --      3.6539                 6.3720                 9.4073
 IR Inten    --      1.8735                11.7375               257.9609
  Atom  AN      X      Y      Z        X      Y      Z        X      Y      Z
     1   6    -0.00  -0.00   0.68     0.01   0.06  -0.00     0.61  -0.06   0.00
     2   6     0.00   0.00  -0.64    -0.10  -0.07   0.00     0.25   0.14  -0.00
     3   9    -0.00   0.00  -0.07    -0.01   0.28   0.00    -0.07   0.07   0.00
     4   9    -0.00   0.00   0.10     0.03  -0.30  -0.00    -0.02  -0.23  -0.00
     5   9     0.00  -0.00   0.12    -0.20   0.16   0.00    -0.34   0.10   0.00
     6   6     0.00   0.00  -0.09     0.33  -0.14   0.00     0.41  -0.17  -0.00
     7   9     0.00   0.00   0.09     0.15   0.39  -0.00    -0.23  -0.14   0.00
     8   9     0.06  -0.16  -0.11    -0.07  -0.22  -0.41    -0.07   0.13   0.14
     9   9    -0.06   0.16  -0.11    -0.07  -0.22   0.41    -0.07   0.13  -0.14
                     16                     17                     18
                      A                      A                      A
 Frequencies --   1175.4143              1204.4960              1247.8381
 Red. masses --     13.0900                13.3118                13.3627
 Frc consts  --     10.6554                11.3788                12.2592
 IR Inten    --    310.9391               299.2912                46.8149
  Atom  AN      X      Y      Z        X      Y      Z        X      Y      Z
     1   6     0.00   0.00  -0.10     0.09   0.21   0.00     0.13   0.55   0.00
     2   6     0.00  -0.00   0.01     0.18  -0.06  -0.00     0.30   0.27   0.00
     3   9     0.00  -0.00   0.01     0.02  -0.17  -0.00    -0.02  -0.29  -0.00
     4   9    -0.00  -0.00  -0.00    -0.02  -0.03   0.00    -0.05  -0.22  -0.00
     5   9    -0.00   0.00   0.01    -0.13   0.05  -0.00    -0.12   0.03   0.00
     6   6     0.00   0.00   0.91     0.06   0.85  -0.00    -0.51  -0.23   0.00
     7   9    -0.00  -0.00  -0.06    -0.15  -0.19   0.00     0.15   0.12  -0.00
     8   9     0.05  -0.13  -0.24     0.04  -0.15  -0.13     0.05  -0.01  -0.02
     9   9    -0.05   0.13  -0.24     0.04  -0.15   0.13     0.05  -0.01   0.02
                     19                     20                     21
                      A                      A                      A
 Frequencies --   1352.8971              1403.3402              1861.2785
 Red. masses --     13.2014                12.5511                12.1543
 Frc consts  --     14.2363                14.5632                24.8086
 IR Inten    --    247.0239               247.8316               170.6679
  Atom  AN      X      Y      Z        X      Y      Z        X      Y      Z
     1   6    -0.25   0.28   0.00     0.40  -0.47  -0.00    -0.53  -0.40  -0.00
     2   6    -0.34   0.59   0.00    -0.28   0.47   0.00     0.64   0.37   0.00
     3   9     0.00  -0.16  -0.00    -0.03   0.15   0.00     0.01   0.07   0.00
     4   9    -0.01  -0.23  -0.00     0.01  -0.18  -0.00    -0.03  -0.08  -0.00
     5   9     0.25  -0.11  -0.00     0.09  -0.07  -0.00    -0.09   0.02   0.00
     6   6     0.47   0.01   0.00    -0.43   0.25  -0.00     0.03   0.04  -0.00
     7   9    -0.10  -0.07   0.00     0.07   0.02  -0.00     0.02   0.00  -0.00
     8   9    -0.03   0.01   0.02     0.03  -0.04  -0.04     0.00  -0.01  -0.00
     9   9    -0.03   0.01  -0.02     0.03  -0.04   0.04     0.00  -0.01   0.00

 -------------------
 - Thermochemistry -
 -------------------
 Temperature   298.150 Kelvin.  Pressure   1.00000 Atm.
 Atom     1 has atomic number  6 and mass  12.00000
 Atom     2 has atomic number  6 and mass  12.00000
 Atom     3 has atomic number  9 and mass  18.99840
 Atom     4 has atomic number  9 and mass  18.99840
 Atom     5 has atomic number  9 and mass  18.99840
 Atom     6 has atomic number  6 and mass  12.00000
 Atom     7 has atomic number  9 and mass  18.99840
 Atom     8 has atomic number  9 and mass  18.99840
 Atom     9 has atomic number  9 and mass  18.99840
 Molecular mass:   149.99042 amu.
 Principal axes and moments of inertia in atomic units:
                           1         2         3
     Eigenvalues --   712.588121401.556751800.37948
           X            1.00000  -0.00010  -0.00000
           Y            0.00010   1.00000  -0.00000
           Z            0.00000   0.00000   1.00000
 This molecule is an asymmetric top.
 Rotational symmetry number  1.
 Warning -- assumption of classical behavior for rotation
           may cause significant error
 Rotational temperatures (Kelvin)      0.12155     0.06180     0.04811
 Rotational constants (GHZ):           2.53266     1.28767     1.00242
    1 imaginary frequencies ignored.
 Zero-point vibrational energy      90609.4 (Joules/Mol)
                                   21.65617 (Kcal/Mol)
 Warning -- explicit consideration of  10 degrees of freedom as
           vibrations may cause significant error
 Vibrational temperatures:    199.38   206.38   372.73   416.27   521.14
          (Kelvin)            544.92   645.38   733.64   832.82   867.71
                              961.22  1000.72  1116.16  1514.05  1691.16
                             1733.00  1795.36  1946.52  2019.09  2677.96
 
 Zero-point correction=                           0.034511 (Hartree/Particle)
 Thermal correction to Energy=                    0.041483
 Thermal correction to Enthalpy=                  0.042427
 Thermal correction to Gibbs Free Energy=         0.002385
 Sum of electronic and zero-point Energies=           -713.323067
 Sum of electronic and thermal Energies=              -713.316096
 Sum of electronic and thermal Enthalpies=            -713.315152
 Sum of electronic and thermal Free Energies=         -713.355194
 
                     E (Thermal)             CV                S
                      KCal/Mol        Cal/Mol-Kelvin    Cal/Mol-Kelvin
 Total                   26.031             24.579             84.276
 Electronic               0.000              0.000              0.000
 Translational            0.889              2.981             40.926
 Rotational               0.889              2.981             28.977
 Vibrational             24.254             18.618             14.373
 Vibration     1          0.614              1.915              2.823
 Vibration     2          0.616              1.910              2.757
 Vibration     3          0.668              1.747              1.668
 Vibration     4          0.686              1.694              1.478
 Vibration     5          0.736              1.550              1.113
 Vibration     6          0.749              1.515              1.044
 Vibration     7          0.808              1.364              0.800
 Vibration     8          0.865              1.228              0.634
 Vibration     9          0.935              1.077              0.488
 Vibration    10          0.961              1.025              0.444
                       Q            Log10(Q)             Ln(Q)
 Total Bot       0.799930D-01         -1.096948         -2.525817
 Total V=0       0.598597D+15         14.777135         34.025610
 Vib (Bot)       0.230808D-14        -14.636750        -33.702362
 Vib (Bot)    1  0.146786D+01          0.166685          0.383806
 Vib (Bot)    2  0.141624D+01          0.151136          0.348003
 Vib (Bot)    3  0.750091D+00         -0.124886         -0.287561
 Vib (Bot)    4  0.661205D+00         -0.179664         -0.413691
 Vib (Bot)    5  0.505283D+00         -0.296465         -0.682636
 Vib (Bot)    6  0.477808D+00         -0.320747         -0.738546
 Vib (Bot)    7  0.382750D+00         -0.417085         -0.960375
 Vib (Bot)    8  0.319478D+00         -0.495560         -1.141068
 Vib (Bot)    9  0.263563D+00         -0.579116         -1.333464
 Vib (Bot)   10  0.246805D+00         -0.607646         -1.399156
 Vib (V=0)       0.172716D+02          1.237333          2.849065
 Vib (V=0)    1  0.205068D+01          0.311898          0.718173
 Vib (V=0)    2  0.200191D+01          0.301444          0.694100
 Vib (V=0)    3  0.140146D+01          0.146582          0.337517
 Vib (V=0)    4  0.132897D+01          0.123515          0.284405
 Vib (V=0)    5  0.121085D+01          0.083091          0.191325
 Vib (V=0)    6  0.119159D+01          0.076128          0.175291
 Vib (V=0)    7  0.112968D+01          0.052956          0.121935
 Vib (V=0)    8  0.109335D+01          0.038760          0.089248
 Vib (V=0)    9  0.106521D+01          0.027436          0.063174
 Vib (V=0)   10  0.105760D+01          0.024320          0.055998
 Electronic      0.100000D+01          0.000000          0.000000
 Translational   0.722020D+08          7.858549         18.094978
 Rotational      0.480012D+06          5.681252         13.081567
 ***** Axes restored to original set *****
 -------------------------------------------------------------------
 Center     Atomic                   Forces (Hartrees/Bohr)
 Number     Number              X              Y              Z
 -------------------------------------------------------------------
      1        6           0.000117968   -0.000314285   -0.000000042
      2        6          -0.000199740    0.000097173    0.000000078
      3        9          -0.000032988    0.000181298   -0.000000003
      4        9          -0.000034808    0.000032465   -0.000000032
      5        9           0.000092020   -0.000109386   -0.000000029
      6        6           0.000203016    0.000537220   -0.000000160
      7        9          -0.000122240   -0.000198844   -0.000000052
      8        9          -0.000011638   -0.000112708   -0.000091630
      9        9          -0.000011590   -0.000112933    0.000091870
 -------------------------------------------------------------------
 Cartesian Forces:  Max     0.000537220 RMS     0.000154626
 FormGI is forming the generalized inverse of G from B-inverse, IUseBI=4.

 GradGradGradGradGradGradGradGradGradGradGradGradGradGradGradGradGradGrad
 Berny optimization.
 Internal  Forces:  Max     0.000227875 RMS     0.000084004
 Search for a local minimum.
 Step number   1 out of a maximum of    2
 All quantities printed in internal units (Hartrees-Bohrs-Radians)
 Second derivative matrix not updated -- analytic derivatives used.
 ITU=  0
     Eigenvalues ---   -0.00117   0.01609   0.03285   0.06678   0.12871
     Eigenvalues ---    0.12947   0.16111   0.17267   0.20714   0.23263
     Eigenvalues ---    0.25179   0.25584   0.26908   0.36952   0.38246
     Eigenvalues ---    0.41861   0.44861   0.46918   0.52893   0.54954
     Eigenvalues ---    0.66787
 Eigenvalue     1 is  -1.17D-03 should be greater than     0.000000 Eigenvector:
                          D10       D9        D8        D7        D6
   1                    0.43341   0.43341   0.42625   0.38527   0.38527
                          D5        D1        D4        D2        D3
   1                    0.37811  -0.02789   0.02732  -0.02263   0.02206
 Angle between quadratic step and forces=  27.81 degrees.
 Linear search not attempted -- first point.
 Iteration  1 RMS(Cart)=  0.00032337 RMS(Int)=  0.00000015
 Iteration  2 RMS(Cart)=  0.00000018 RMS(Int)=  0.00000008
 Variable       Old X    -DE/DX   Delta X   Delta X   Delta X     New X
                                 (Linear)    (Quad)   (Total)
    R1        2.49840   0.00011   0.00000   0.00015   0.00015   2.49855
    R2        2.51138   0.00018   0.00000   0.00059   0.00059   2.51197
    R3        2.85346   0.00001   0.00000  -0.00017  -0.00017   2.85329
    R4        2.46622  -0.00003   0.00000  -0.00003  -0.00003   2.46619
    R5        2.46179  -0.00013   0.00000  -0.00033  -0.00033   2.46146
    R6        2.51020  -0.00023   0.00000  -0.00094  -0.00094   2.50926
    R7        2.52699   0.00014   0.00000   0.00054   0.00054   2.52753
    R8        2.52699   0.00014   0.00000   0.00054   0.00054   2.52753
    A1        2.09632  -0.00008   0.00000  -0.00056  -0.00056   2.09576
    A2        2.15947   0.00009   0.00000   0.00073   0.00073   2.16020
    A3        2.02739  -0.00001   0.00000  -0.00017  -0.00017   2.02722
    A4        2.15538   0.00001   0.00000  -0.00000  -0.00000   2.15538
    A5        2.16286   0.00007   0.00000   0.00024   0.00024   2.16310
    A6        1.96494  -0.00008   0.00000  -0.00024  -0.00024   1.96470
    A7        1.91393   0.00013   0.00000   0.00083   0.00083   1.91475
    A8        1.95126  -0.00005   0.00000  -0.00039  -0.00039   1.95087
    A9        1.95126  -0.00005   0.00000  -0.00039  -0.00039   1.95087
   A10        1.88835  -0.00000   0.00000   0.00019   0.00019   1.88854
   A11        1.88835  -0.00000   0.00000   0.00019   0.00019   1.88854
   A12        1.86833  -0.00002   0.00000  -0.00042  -0.00042   1.86790
    D1       -3.14159  -0.00000   0.00000  -0.00000  -0.00000  -3.14159
    D2       -0.00000   0.00000   0.00000   0.00000   0.00000   0.00000
    D3        0.00000  -0.00000   0.00000  -0.00000  -0.00000  -0.00000
    D4        3.14159   0.00000   0.00000   0.00000   0.00000   3.14159
    D5        3.14159  -0.00000   0.00000  -0.00000  -0.00000   3.14158
    D6        1.04720  -0.00005   0.00000  -0.00054  -0.00054   1.04666
    D7       -1.04721   0.00005   0.00000   0.00053   0.00053  -1.04667
    D8       -0.00000  -0.00000   0.00000  -0.00000  -0.00000  -0.00001
    D9       -2.09439  -0.00005   0.00000  -0.00054  -0.00054  -2.09494
   D10        2.09438   0.00005   0.00000   0.00053   0.00053   2.09492
         Item               Value     Threshold  Converged?
 Maximum Force            0.000228     0.000450     YES
 RMS     Force            0.000084     0.000300     YES
 Maximum Displacement     0.000887     0.001800     YES
 RMS     Displacement     0.000323     0.001200     YES
 Predicted change in Energy=-4.713551D-07
 Optimization completed.
    -- Stationary point found.
                           ----------------------------
                           !   Optimized Parameters   !
                           ! (Angstroms and Degrees)  !
 --------------------------                            --------------------------
 ! Name  Definition              Value          Derivative Info.                !
 --------------------------------------------------------------------------------
 ! R1    R(1,2)                  1.3221         -DE/DX =    0.0001              !
 ! R2    R(1,3)                  1.329          -DE/DX =    0.0002              !
 ! R3    R(1,6)                  1.51           -DE/DX =    0.0                 !
 ! R4    R(2,4)                  1.3051         -DE/DX =    0.0                 !
 ! R5    R(2,5)                  1.3027         -DE/DX =   -0.0001              !
 ! R6    R(6,7)                  1.3283         -DE/DX =   -0.0002              !
 ! R7    R(6,8)                  1.3372         -DE/DX =    0.0001              !
 ! R8    R(6,9)                  1.3372         -DE/DX =    0.0001              !
 ! A1    A(2,1,3)              120.1106         -DE/DX =   -0.0001              !
 ! A2    A(2,1,6)              123.7285         -DE/DX =    0.0001              !
 ! A3    A(3,1,6)              116.161          -DE/DX =    0.0                 !
 ! A4    A(1,2,4)              123.4941         -DE/DX =    0.0                 !
 ! A5    A(1,2,5)              123.9229         -DE/DX =    0.0001              !
 ! A6    A(4,2,5)              112.5829         -DE/DX =   -0.0001              !
 ! A7    A(1,6,7)              109.6599         -DE/DX =    0.0001              !
 ! A8    A(1,6,8)              111.7988         -DE/DX =   -0.0001              !
 ! A9    A(1,6,9)              111.7988         -DE/DX =   -0.0001              !
 ! A10   A(7,6,8)              108.1946         -DE/DX =    0.0                 !
 ! A11   A(7,6,9)              108.1945         -DE/DX =    0.0                 !
 ! A12   A(8,6,9)              107.0472         -DE/DX =    0.0                 !
 ! D1    D(3,1,2,4)           -179.9999         -DE/DX =    0.0                 !
 ! D2    D(3,1,2,5)              0.0            -DE/DX =    0.0                 !
 ! D3    D(6,1,2,4)              0.0            -DE/DX =    0.0                 !
 ! D4    D(6,1,2,5)            179.9999         -DE/DX =    0.0                 !
 ! D5    D(2,1,6,7)            179.9998         -DE/DX =    0.0                 !
 ! D6    D(2,1,6,8)             60.0001         -DE/DX =    0.0                 !
 ! D7    D(2,1,6,9)            -60.0006         -DE/DX =    0.0                 !
 ! D8    D(3,1,6,7)             -0.0003         -DE/DX =    0.0                 !
 ! D9    D(3,1,6,8)           -120.0            -DE/DX =    0.0                 !
 ! D10   D(3,1,6,9)            119.9994         -DE/DX =    0.0                 !
 --------------------------------------------------------------------------------
 GradGradGradGradGradGradGradGradGradGradGradGradGradGradGradGradGradGrad


 ----------------------------------------------------------------------

 Electric dipole moment (input orientation):
 (Debye = 10**-18 statcoulomb cm , SI units = C m)
                  (au)            (Debye)         (10**-30 SI)
   Tot        0.376337D+00      0.956553D+00      0.319072D+01
   x         -0.374385D+00     -0.951591D+00     -0.317417D+01
   y         -0.382823D-01     -0.973040D-01     -0.324571D+00
   z          0.000000D+00      0.000000D+00      0.000000D+00

 Dipole polarizability, Alpha (input orientation).
 (esu units = cm**3 , SI units = C**2 m**2 J**-1)
 Alpha(0;0):
               (au)            (10**-24 esu)      (10**-40 SI)
   iso        0.401905D+02      0.595562D+01      0.662652D+01
   aniso      0.170818D+02      0.253127D+01      0.281642D+01
   xx         0.487851D+02      0.722921D+01      0.804358D+01
   yx         0.393385D+01      0.582936D+00      0.648604D+00
   yy         0.410302D+02      0.608004D+01      0.676496D+01
   zx         0.000000D+00      0.000000D+00      0.000000D+00
   zy         0.148423D-04      0.219939D-05      0.244716D-05
   zz         0.307563D+02      0.455762D+01      0.507103D+01

 ----------------------------------------------------------------------

 Dipole orientation:
     6         -0.10526094          1.02940759          0.38514025
     6          0.00465413         -0.04552430          2.63778757
     9         -0.35994188          3.52011283          0.18876681
     9          0.25316379         -2.47585802          2.97540479
     9         -0.12225856          1.19565291          4.76000438
     6          0.04269401         -0.41753640         -2.06979527
     9         -0.12040239          1.17739411         -4.00130236
     9         -1.82739029         -2.10413742         -2.27914467
     9          2.21543665         -1.69072939         -2.27915316

 Electric dipole moment (dipole orientation):
 (Debye = 10**-18 statcoulomb cm , SI units = C m)
                  (au)            (Debye)         (10**-30 SI)
   Tot        0.376337D+00      0.956553D+00      0.319072D+01
   x          0.000000D+00      0.000000D+00      0.000000D+00
   y          0.000000D+00      0.000000D+00      0.000000D+00
   z          0.376337D+00      0.956553D+00      0.319072D+01

 Dipole polarizability, Alpha (dipole orientation).
 (esu units = cm**3 , SI units = C**2 m**2 J**-1)
 Alpha(0;0):
               (au)            (10**-24 esu)      (10**-40 SI)
   iso        0.401905D+02      0.595562D+01      0.662652D+01
   aniso      0.170818D+02      0.253127D+01      0.281642D+01
   xx         0.308552D+02      0.457227D+01      0.508734D+01
   yx        -0.967208D+00     -0.143325D+00     -0.159471D+00
   yy         0.402153D+02      0.595930D+01      0.663061D+01
   zx         0.312051D+00      0.462412D-01      0.514503D-01
   zy        -0.305175D+01     -0.452223D+00     -0.503166D+00
   zz         0.495010D+02      0.733530D+01      0.816162D+01

 ----------------------------------------------------------------------
 1\1\GINC-CCLEARCO\Freq\RwB97XD\6-311+G(2d)\C3F6\RAPPE\18-Nov-2025\0\\#
 N Geom=AllCheck Guess=TCheck SCRF=Check GenChk RwB97XD/6-311+G(2d) Fre
 q\\Title Card Required\\0,1\C,-0.258452,0.524007,0.\C,-1.386153,-0.166
 082,-0.000001\F,-0.289848,1.852602,0.000002\F,-1.432379,-1.470333,-0.0
 00002\F,-2.570517,0.376482,0.\C,1.1122,-0.109534,0.\F,2.042705,0.83844
 ,-0.000004\F,1.302487,-0.881396,-1.075262\F,1.30249,-0.881389,1.075266
 \\Version=EM64M-G16RevA.03\State=1-A\HF=-713.3575787\RMSD=1.549e-09\RM
 SF=1.546e-04\ZeroPoint=0.0345113\Thermal=0.041483\Dipole=-0.3743846,-0
 .0382823,-0.0000001\DipoleDeriv=-0.3265291,-0.1136715,0.,0.1415572,0.8
 887204,0.0000017,0.0000016,0.000002,-0.1244264,1.7400936,-0.0382978,-0
 .0000003,0.1649906,1.4249647,0.000001,-0.0000009,0.0000007,0.2388969,-
 0.2082902,0.0712792,0.,-0.2525425,-0.9783422,-0.0000014,-0.0000006,-0.
 0000016,-0.0671105,-0.2925721,-0.085266,0.,-0.3339153,-1.0287241,-0.00
 0001,0.,-0.0000005,-0.070817,-1.1857994,0.1468473,0.0000002,0.3440492,
 -0.296192,-0.0000002,0.000001,-0.0000003,-0.0580418,1.9176888,0.227223
 1,0.0000007,-0.1859103,1.536856,-0.0000005,0.0000006,-0.0000006,1.7413
 212,-0.7232406,-0.3803724,0.0000015,-0.2703308,-0.5972588,0.0000014,0.
 000001,0.0000015,-0.2749342,-0.4606746,0.0861292,0.1207699,0.1960507,-
 0.4750139,-0.3127418,0.1130666,-0.2709292,-0.6924423,-0.4606764,0.0861
 289,-0.1207718,0.1960513,-0.4750103,0.3127408,-0.1130692,0.2709278,-0.
 6924458\Polar=48.7851042,3.9338463,41.0301545,0.000008,0.0000148,30.75
 63241\Quadrupole=-0.1691886,-0.9957475,1.1649361,0.395172,0.0000012,-0
 .0000032\PG=C01 [X(C3F6)]\NImag=1\\0.79738146,0.14986804,0.73141288,0.
 00000047,0.00000074,0.13399359,-0.43582423,-0.22943603,-0.00000041,0.9
 0954250,-0.18966892,-0.21396418,-0.00000027,0.16379398,0.73888037,-0.0
 0000025,-0.00000017,-0.05703486,0.00000016,0.00000064,0.14433908,-0.07
 180819,0.00230710,-0.00000003,0.00418089,-0.03449697,-0.00000004,0.069
 56414,-0.00838484,-0.37437656,-0.00000049,0.02119834,-0.04335896,-0.00
 000012,0.00152729,0.45515685,-0.00000004,-0.00000049,-0.02802544,0.000
 00004,-0.00000006,0.00472031,0.,0.00000064,0.01814083,0.01231422,-0.03
 116179,-0.00000004,-0.08792628,-0.03684964,-0.00000003,-0.00494935,-0.
 00557738,0.,0.08330676,-0.00801504,-0.02850813,0.00000002,-0.04815924,
 -0.38328098,-0.00000031,-0.00410933,-0.01755099,-0.00000004,0.01869794
 ,0.47731432,-0.00000001,-0.00000005,0.00452911,-0.00000003,-0.00000027
 ,-0.04450521,0.,-0.00000003,0.01128803,0.,0.00000041,0.02354203,-0.061
 55418,0.04492194,0.00000011,-0.35998582,0.08858070,0.00000016,0.006855
 17,-0.01303228,-0.00000003,-0.00187706,0.03468839,0.00000004,0.4135974
 4,-0.00276918,0.00337954,-0.00000003,0.10294965,-0.11416166,-0.0000000
 9,-0.00235319,0.01170965,0.00000003,0.05546293,-0.04716249,-0.00000007
 ,-0.14951898,0.14872636,0.,-0.00000003,0.01276992,0.00000022,-0.000000
 10,-0.04672323,0.,0.00000004,-0.00643853,0.00000006,-0.00000005,0.0081
 8849,-0.00000026,0.00000017,0.02276279,-0.17785187,0.06808481,-0.00000
 003,-0.04394741,-0.01161580,0.,0.00189022,-0.00755009,0.00000002,0.002
 35151,0.01647678,0.00000001,0.01862013,-0.00643081,-0.00000002,0.59584
 035,0.02943701,-0.09307208,-0.00000002,0.00079318,0.04050653,0.0000000
 3,0.02649555,-0.03462430,-0.00000003,0.00032372,-0.01795767,0.,-0.0142
 7242,-0.00201286,-0.00000001,-0.01401998,0.54423006,0.00000002,0.00000
 001,-0.06345381,-0.00000005,0.00000004,-0.00227353,0.00000007,-0.00000
 010,0.00376038,0.00000001,-0.00000002,-0.00325568,0.,-0.00000002,0.009
 93430,0.00000005,-0.00000038,0.49256173,-0.04648459,-0.04276901,0.0000
 0016,0.00189083,0.01034824,0.00000004,0.00096085,0.00077298,-0.0000000
 1,-0.00043311,-0.00201533,0.,-0.00694271,-0.00040624,-0.00000002,-0.21
 121773,-0.09122895,0.00000047,0.24412127,-0.00804045,-0.00769795,0.000
 00001,0.00144443,-0.00104485,0.,0.00672360,0.00613579,0.,-0.00011265,0
 .00178033,0.,-0.00125878,0.00069931,0.,-0.10364018,-0.15730387,0.00000
 040,0.16852687,0.25542875,0.00000006,0.00000006,0.00992866,0.00000002,
 -0.00000001,0.00159853,0.,0.,-0.00041036,0.,0.,0.00017190,0.,0.,-0.001
 16674,0.00000047,0.00000034,-0.07400179,-0.00000074,-0.00000082,0.0793
 6404,-0.00808616,0.01909253,0.02490280,0.00603473,0.00495415,0.0011087
 0,-0.00334689,0.00552299,0.00223639,-0.00139336,-0.00378206,0.00035117
 ,-0.00435646,0.00153291,-0.00124691,-0.09284255,0.03123590,0.03664419,
 0.00905253,-0.03182151,-0.02682681,0.07923748,0.01878662,-0.00858690,-
 0.02429636,-0.00629216,-0.01178816,-0.00208851,0.00195300,-0.00154576,
 -0.00052639,-0.00039158,0.00768283,0.00018174,0.00494572,-0.00058893,0
 .00170318,0.02934760,-0.13988331,-0.08702275,-0.02161436,-0.04899893,-
 0.04263974,-0.02372208,0.18344649,0.00741566,-0.01319961,-0.00635351,-
 0.00317157,-0.00528122,-0.00006054,0.00343775,-0.00271062,-0.00151761,
 0.00062871,0.00396030,0.00002067,0.00283293,-0.00031837,0.00033649,0.0
 3738231,-0.08492625,-0.18163510,-0.01753968,-0.03546402,-0.00774181,-0
 .03407769,0.14631466,0.28588040,-0.00808645,0.01909241,-0.02490303,0.0
 0603479,0.00495426,-0.00110873,-0.00334684,0.00552298,-0.00223636,-0.0
 0139334,-0.00378212,-0.00035118,-0.00435651,0.00153291,0.00124694,-0.0
 9284266,0.03123599,-0.03664477,0.00905264,-0.03182133,0.02682700,0.015
 70069,-0.00301277,0.00309157,0.07923769,0.01878675,-0.00858663,0.02429
 640,-0.00629216,-0.01178811,0.00208852,0.00195293,-0.00154573,0.000526
 35,-0.00039156,0.00768279,-0.00018173,0.00494572,-0.00058893,-0.001703
 20,0.02934767,-0.13988249,0.08702282,-0.02161421,-0.04899857,0.0426401
 6,-0.00301282,0.02026267,-0.00837487,-0.02372231,0.18344500,-0.0074159
 1,0.01319953,-0.00635366,0.00317162,0.00528125,-0.00006055,-0.00343774
 ,0.00271067,-0.00151761,-0.00062872,-0.00396031,0.00002066,-0.00283297
 ,0.00031838,0.00033651,-0.03738281,0.08492633,-0.18163650,0.01753979,0
 .03546443,-0.00774244,-0.00309184,0.00837417,-0.08892899,0.03407857,-0
 .14631445,0.28588259\\-0.00011797,0.00031428,0.00000004,0.00019974,-0.
 00009717,-0.00000008,0.00003299,-0.00018130,0.,0.00003481,-0.00003246,
 0.00000003,-0.00009202,0.00010939,0.00000003,-0.00020302,-0.00053722,0
 .00000016,0.00012224,0.00019884,0.00000005,0.00001164,0.00011271,0.000
 09163,0.00001159,0.00011293,-0.00009187\\\@


 ANYONE WHO IS NOT SHOCKED BY QUANTUM THEORY HAS
 NOT UNDERSTOOD IT. -- NIELS BOHR(1885-1962)
 Job cpu time:       0 days  2 hours  5 minutes  5.4 seconds.
 Elapsed time:       0 days  0 hours  5 minutes 17.7 seconds.
 File lengths (MBytes):  RWF=     64 Int=      0 D2E=      0 Chk=      6 Scr=      1
 Normal termination of Gaussian 16 at Tue Nov 18 07:50:29 2025.
