 Entering Gaussian System, Link 0=/applications/g16/g16/g16
 Initial command:
 /applications/g16/g16/l1.exe "/scratch/g98/Gau-37273.inp" -scrdir="/scratch/g98/"
 Entering Link 1 = /applications/g16/g16/l1.exe PID=     37274.
  
 Copyright (c) 1988,1990,1992,1993,1995,1998,2003,2009,2016,
            Gaussian, Inc.  All Rights Reserved.
  
 This is part of the Gaussian(R) 16 program.  It is based on
 the Gaussian(R) 09 system (copyright 2009, Gaussian, Inc.),
 the Gaussian(R) 03 system (copyright 2003, Gaussian, Inc.),
 the Gaussian(R) 98 system (copyright 1998, Gaussian, Inc.),
 the Gaussian(R) 94 system (copyright 1995, Gaussian, Inc.),
 the Gaussian 92(TM) system (copyright 1992, Gaussian, Inc.),
 the Gaussian 90(TM) system (copyright 1990, Gaussian, Inc.),
 the Gaussian 88(TM) system (copyright 1988, Gaussian, Inc.),
 the Gaussian 86(TM) system (copyright 1986, Carnegie Mellon
 University), and the Gaussian 82(TM) system (copyright 1983,
 Carnegie Mellon University). Gaussian is a federally registered
 trademark of Gaussian, Inc.
  
 This software contains proprietary and confidential information,
 including trade secrets, belonging to Gaussian, Inc.
  
 This software is provided under written license and may be
 used, copied, transmitted, or stored only in accord with that
 written license.
  
 The following legend is applicable only to US Government
 contracts under FAR:
  
                    RESTRICTED RIGHTS LEGEND
  
 Use, reproduction and disclosure by the US Government is
 subject to restrictions as set forth in subparagraphs (a)
 and (c) of the Commercial Computer Software - Restricted
 Rights clause in FAR 52.227-19.
  
 Gaussian, Inc.
 340 Quinnipiac St., Bldg. 40, Wallingford CT 06492
  
  
 ---------------------------------------------------------------
 Warning -- This program may not be used in any manner that
 competes with the business of Gaussian, Inc. or will provide
 assistance to any competitor of Gaussian, Inc.  The licensee
 of this program is prohibited from giving any competitor of
 Gaussian, Inc. access to this program.  By using this program,
 the user acknowledges that Gaussian, Inc. is engaged in the
 business of creating and licensing software in the field of
 computational chemistry and represents and warrants to the
 licensee that it is not a competitor of Gaussian, Inc. and that
 it will not use this program in any manner prohibited above.
 ---------------------------------------------------------------
  

 Cite this work as:
 Gaussian 16, Revision A.03,
 M. J. Frisch, G. W. Trucks, H. B. Schlegel, G. E. Scuseria, 
 M. A. Robb, J. R. Cheeseman, G. Scalmani, V. Barone, 
 G. A. Petersson, H. Nakatsuji, X. Li, M. Caricato, A. V. Marenich, 
 J. Bloino, B. G. Janesko, R. Gomperts, B. Mennucci, H. P. Hratchian, 
 J. V. Ortiz, A. F. Izmaylov, J. L. Sonnenberg, D. Williams-Young, 
 F. Ding, F. Lipparini, F. Egidi, J. Goings, B. Peng, A. Petrone, 
 T. Henderson, D. Ranasinghe, V. G. Zakrzewski, J. Gao, N. Rega, 
 G. Zheng, W. Liang, M. Hada, M. Ehara, K. Toyota, R. Fukuda, 
 J. Hasegawa, M. Ishida, T. Nakajima, Y. Honda, O. Kitao, H. Nakai, 
 T. Vreven, K. Throssell, J. A. Montgomery, Jr., J. E. Peralta, 
 F. Ogliaro, M. J. Bearpark, J. J. Heyd, E. N. Brothers, K. N. Kudin, 
 V. N. Staroverov, T. A. Keith, R. Kobayashi, J. Normand, 
 K. Raghavachari, A. P. Rendell, J. C. Burant, S. S. Iyengar, 
 J. Tomasi, M. Cossi, J. M. Millam, M. Klene, C. Adamo, R. Cammi, 
 J. W. Ochterski, R. L. Martin, K. Morokuma, O. Farkas, 
 J. B. Foresman, and D. J. Fox, Gaussian, Inc., Wallingford CT, 2016.
 
 ******************************************
 Gaussian 16:  EM64M-G16RevA.03 25-Dec-2016
                24-Oct-2025 
 ******************************************
 %mem=48GB
 %nprocshared=24
 Will use up to   24 processors via shared memory.
 %chk=tfcof_oh.chk
 ----------------------------------------------------------------------
 # opt freq uwb97xd/6-311+g(2d,2p) geom=connectivity integral=grid=supe
 rfinegrid scf=(xqc,tight)
 ----------------------------------------------------------------------
 1/18=20,19=15,26=5,38=1,57=2/1,3;
 2/9=110,12=2,17=6,18=5,40=1/2;
 3/5=4,6=6,7=212,11=2,25=1,30=1,71=1,74=-58,75=-7,116=2/1,2,3;
 4//1;
 5/5=2,8=3,13=1,32=2,38=5/2,8;
 6/7=2,8=2,9=2,10=2,28=1/1;
 7//1,2,3,16;
 1/18=20,19=15,26=5/3(2);
 2/9=110/2;
 99//99;
 2/9=110/2;
 3/5=4,6=6,7=212,11=2,25=1,30=1,71=1,74=-58,75=-7,116=2/1,2,3;
 4/5=5,16=3,69=1/1;
 5/5=2,8=3,13=1,32=2,38=5/2,8;
 7//1,2,3,16;
 1/18=20,19=15,26=5/3(-5);
 2/9=110/2;
 6/7=2,8=2,9=2,10=2,19=2,28=1/1;
 99/9=1/99;
 -------------------
 Title Card Required
 -------------------
 Symbolic Z-matrix:
 Charge =  0 Multiplicity = 2
 C                    -0.4807    0.01096   0.05044 
 F                    -1.16334  -0.38185  -1.04601 
 F                    -0.92872  -0.66918   1.12709 
 O                     1.43702   0.35963  -1.15284 
 F                    -0.66508   1.33404   0.24528 
 F                     1.70203   0.11845   0.94721 
 C                     1.0194   -0.27436  -0.14924 
 O                     1.2147   -1.67585  -0.35563 
 H                     2.1416   -1.84681  -0.5379 
 

 GradGradGradGradGradGradGradGradGradGradGradGradGradGradGradGradGradGrad
 Berny optimization.
 Initialization pass.
                           ----------------------------
                           !    Initial Parameters    !
                           ! (Angstroms and Degrees)  !
 --------------------------                            --------------------------
 ! Name  Definition              Value          Derivative Info.                !
 --------------------------------------------------------------------------------
 ! R1    R(1,2)                  1.35           estimate D2E/DX2                !
 ! R2    R(1,3)                  1.35           estimate D2E/DX2                !
 ! R3    R(1,5)                  1.35           estimate D2E/DX2                !
 ! R4    R(1,7)                  1.54           estimate D2E/DX2                !
 ! R5    R(4,7)                  1.2584         estimate D2E/DX2                !
 ! R6    R(6,7)                  1.35           estimate D2E/DX2                !
 ! R7    R(7,8)                  1.43           estimate D2E/DX2                !
 ! R8    R(8,9)                  0.96           estimate D2E/DX2                !
 ! A1    A(2,1,3)              109.4712         estimate D2E/DX2                !
 ! A2    A(2,1,5)              109.4712         estimate D2E/DX2                !
 ! A3    A(2,1,7)              109.4712         estimate D2E/DX2                !
 ! A4    A(3,1,5)              109.4712         estimate D2E/DX2                !
 ! A5    A(3,1,7)              109.4712         estimate D2E/DX2                !
 ! A6    A(5,1,7)              109.4712         estimate D2E/DX2                !
 ! A7    A(1,7,4)              109.4712         estimate D2E/DX2                !
 ! A8    A(1,7,6)              109.4712         estimate D2E/DX2                !
 ! A9    A(1,7,8)              109.4712         estimate D2E/DX2                !
 ! A10   A(4,7,6)              109.4712         estimate D2E/DX2                !
 ! A11   A(4,7,8)              109.4712         estimate D2E/DX2                !
 ! A12   A(6,7,8)              109.4712         estimate D2E/DX2                !
 ! A13   A(7,8,9)              109.5            estimate D2E/DX2                !
 ! D1    D(2,1,7,4)             60.0            estimate D2E/DX2                !
 ! D2    D(2,1,7,6)           -180.0            estimate D2E/DX2                !
 ! D3    D(2,1,7,8)            -60.0            estimate D2E/DX2                !
 ! D4    D(3,1,7,4)           -180.0            estimate D2E/DX2                !
 ! D5    D(3,1,7,6)            -60.0            estimate D2E/DX2                !
 ! D6    D(3,1,7,8)             60.0            estimate D2E/DX2                !
 ! D7    D(5,1,7,4)            -60.0            estimate D2E/DX2                !
 ! D8    D(5,1,7,6)             60.0            estimate D2E/DX2                !
 ! D9    D(5,1,7,8)            180.0            estimate D2E/DX2                !
 ! D10   D(1,7,8,9)            176.2779         estimate D2E/DX2                !
 ! D11   D(4,7,8,9)             56.2779         estimate D2E/DX2                !
 ! D12   D(6,7,8,9)            -63.7221         estimate D2E/DX2                !
 --------------------------------------------------------------------------------
 Trust Radius=3.00D-01 FncErr=1.00D-07 GrdErr=1.00D-07 EigMax=2.50D+02 EigMin=1.00D-04
 Number of steps in this run=     43 maximum allowed number of steps=    100.
 GradGradGradGradGradGradGradGradGradGradGradGradGradGradGradGradGradGrad

                          Input orientation:                          
 ---------------------------------------------------------------------
 Center     Atomic      Atomic             Coordinates (Angstroms)
 Number     Number       Type             X           Y           Z
 ---------------------------------------------------------------------
      1          6           0       -0.480705    0.010963    0.050440
      2          9           0       -1.163338   -0.381851   -1.046013
      3          9           0       -0.928723   -0.669179    1.127095
      4          8           0        1.437019    0.359631   -1.152845
      5          9           0       -0.665081    1.334043    0.245283
      6          9           0        1.702034    0.118451    0.947210
      7          6           0        1.019400   -0.274363   -0.149243
      8          8           0        1.214703   -1.675848   -0.355632
      9          1           0        2.141605   -1.846813   -0.537905
 ---------------------------------------------------------------------
                    Distance matrix (angstroms):
                    1          2          3          4          5
     1  C    0.000000
     2  F    1.350000   0.000000
     3  F    1.350000   2.204541   0.000000
     4  O    2.290661   2.706117   3.442863   0.000000
     5  F    1.350000   2.204541   2.204541   2.706117   0.000000
     6  F    2.362224   3.526131   2.752017   2.130406   2.752017
     7  C    1.540000   2.362224   2.362224   1.258400   2.362224
     8  O    2.425826   2.793946   2.793946   2.197304   3.599185
     9  H    3.267107   3.650608   3.685913   2.396453   4.313782
                    6          7          8          9
     6  F    0.000000
     7  C    1.350000   0.000000
     8  O    2.270330   1.430000   0.000000
     9  H    2.502209   1.970533   0.960000   0.000000
 Stoichiometry    C2HF4O2(2)
 Framework group  C1[X(C2HF4O2)]
 Deg. of freedom    21
 Full point group                 C1      NOp   1
 Largest Abelian subgroup         C1      NOp   1
 Largest concise Abelian subgroup C1      NOp   1
                         Standard orientation:                         
 ---------------------------------------------------------------------
 Center     Atomic      Atomic             Coordinates (Angstroms)
 Number     Number       Type             X           Y           Z
 ---------------------------------------------------------------------
      1          6           0        0.765788    0.031566    0.021845
      2          9           0        1.208346    1.081491   -0.702240
      3          9           0        1.114492    0.198049    1.315363
      4          8           0       -1.092620   -0.213738   -1.294694
      5          9           0        1.318708   -1.105843   -0.450469
      6          9           0       -1.210135   -1.108477    0.635141
      7          6           0       -0.767576   -0.058551   -0.088943
      8          8           0       -1.353261    1.146260    0.411360
      9          1           0       -2.304924    1.114753    0.289105
 ---------------------------------------------------------------------
 Rotational constants (GHZ):           2.8741419           1.9186063           1.8542284
 Standard basis: 6-311+G(2d,2p) (5D, 7F)
 There are   241 symmetry adapted cartesian basis functions of A   symmetry.
 There are   225 symmetry adapted basis functions of A   symmetry.
   225 basis functions,   347 primitive gaussians,   241 cartesian basis functions
    33 alpha electrons       32 beta electrons
       nuclear repulsion energy       448.0976138684 Hartrees.
 NAtoms=    9 NActive=    9 NUniq=    9 SFac= 1.00D+00 NAtFMM=   60 NAOKFM=F Big=F
 Integral buffers will be    131072 words long.
 Raffenetti 2 integral format.
 Two-electron integral symmetry is turned on.
 Nuclear repulsion after empirical dispersion term =      448.0950313166 Hartrees.
 One-electron integrals computed using PRISM.
 NBasis=   225 RedAO= T EigKep=  1.04D-04  NBF=   225
 NBsUse=   225 1.00D-06 EigRej= -1.00D+00 NBFU=   225
 ExpMin= 4.38D-02 ExpMax= 1.14D+04 ExpMxC= 1.72D+03 IAcc=3 IRadAn=         7 AccDes= 0.00D+00
 Harris functional with IExCor= 4639 and IRadAn=       7 diagonalized for initial guess.
 HarFok:  IExCor= 4639 AccDes= 0.00D+00 IRadAn=         7 IDoV= 1 UseB2=F ITyADJ=14
 ICtDFT=  3500011 ScaDFX=  1.000000  1.000000  1.000000  1.000000
 FoFCou: FMM=F IPFlag=           0 FMFlag=      100000 FMFlg1=           0
         NFxFlg=           0 DoJE=T BraDBF=F KetDBF=T FulRan=T
         wScrn=  0.000000 ICntrl=       500 IOpCl=  0 I1Cent=   200000004 NGrid=           0
         NMat0=    1 NMatS0=      1 NMatT0=    0 NMatD0=    1 NMtDS0=    0 NMtDT0=    0
 Petite list used in FoFCou.
 Initial guess <Sx>= 0.0000 <Sy>= 0.0000 <Sz>= 0.5000 <S**2>= 0.7500 S= 0.5000
 Keep R1 and R2 ints in memory in canonical form, NReq=1318693155.
 Requested convergence on RMS density matrix=1.00D-08 within  32 cycles.
 Requested convergence on MAX density matrix=1.00D-06.
 Requested convergence on             energy=1.00D-06.
 No special actions if energy rises.
 Rare condition: small coef for last iteration:  0.000D+00
 SCF Done:  E(UwB97XD) =  -626.579143831     A.U. after   28 cycles
            NFock= 28  Conv=0.18D-08     -V/T= 2.0025
 <Sx>= 0.0000 <Sy>= 0.0000 <Sz>= 0.5000 <S**2>= 0.7559 S= 0.5029
 <L.S>= 0.000000000000E+00
 Annihilation of the first spin contaminant:
 S**2 before annihilation     0.7559,   after     0.7500
 QCSCF skips out because SCF is already converged.

 **********************************************************************

            Population analysis using the SCF density.

 **********************************************************************

 Orbital symmetries:
 Alpha Orbitals:
       Occupied  (A) (A) (A) (A) (A) (A) (A) (A) (A) (A) (A) (A)
                 (A) (A) (A) (A) (A) (A) (A) (A) (A) (A) (A) (A)
                 (A) (A) (A) (A) (A) (A) (A) (A) (A)
       Virtual   (A) (A) (A) (A) (A) (A) (A) (A) (A) (A) (A) (A)
                 (A) (A) (A) (A) (A) (A) (A) (A) (A) (A) (A) (A)
                 (A) (A) (A) (A) (A) (A) (A) (A) (A) (A) (A) (A)
                 (A) (A) (A) (A) (A) (A) (A) (A) (A) (A) (A) (A)
                 (A) (A) (A) (A) (A) (A) (A) (A) (A) (A) (A) (A)
                 (A) (A) (A) (A) (A) (A) (A) (A) (A) (A) (A) (A)
                 (A) (A) (A) (A) (A) (A) (A) (A) (A) (A) (A) (A)
                 (A) (A) (A) (A) (A) (A) (A) (A) (A) (A) (A) (A)
                 (A) (A) (A) (A) (A) (A) (A) (A) (A) (A) (A) (A)
                 (A) (A) (A) (A) (A) (A) (A) (A) (A) (A) (A) (A)
                 (A) (A) (A) (A) (A) (A) (A) (A) (A) (A) (A) (A)
                 (A) (A) (A) (A) (A) (A) (A) (A) (A) (A) (A) (A)
                 (A) (A) (A) (A) (A) (A) (A) (A) (A) (A) (A) (A)
                 (A) (A) (A) (A) (A) (A) (A) (A) (A) (A) (A) (A)
                 (A) (A) (A) (A) (A) (A) (A) (A) (A) (A) (A) (A)
                 (A) (A) (A) (A) (A) (A) (A) (A) (A) (A) (A) (A)
 Beta  Orbitals:
       Occupied  (A) (A) (A) (A) (A) (A) (A) (A) (A) (A) (A) (A)
                 (A) (A) (A) (A) (A) (A) (A) (A) (A) (A) (A) (A)
                 (A) (A) (A) (A) (A) (A) (A) (A)
       Virtual   (A) (A) (A) (A) (A) (A) (A) (A) (A) (A) (A) (A)
                 (A) (A) (A) (A) (A) (A) (A) (A) (A) (A) (A) (A)
                 (A) (A) (A) (A) (A) (A) (A) (A) (A) (A) (A) (A)
                 (A) (A) (A) (A) (A) (A) (A) (A) (A) (A) (A) (A)
                 (A) (A) (A) (A) (A) (A) (A) (A) (A) (A) (A) (A)
                 (A) (A) (A) (A) (A) (A) (A) (A) (A) (A) (A) (A)
                 (A) (A) (A) (A) (A) (A) (A) (A) (A) (A) (A) (A)
                 (A) (A) (A) (A) (A) (A) (A) (A) (A) (A) (A) (A)
                 (A) (A) (A) (A) (A) (A) (A) (A) (A) (A) (A) (A)
                 (A) (A) (A) (A) (A) (A) (A) (A) (A) (A) (A) (A)
                 (A) (A) (A) (A) (A) (A) (A) (A) (A) (A) (A) (A)
                 (A) (A) (A) (A) (A) (A) (A) (A) (A) (A) (A) (A)
                 (A) (A) (A) (A) (A) (A) (A) (A) (A) (A) (A) (A)
                 (A) (A) (A) (A) (A) (A) (A) (A) (A) (A) (A) (A)
                 (A) (A) (A) (A) (A) (A) (A) (A) (A) (A) (A) (A)
                 (A) (A) (A) (A) (A) (A) (A) (A) (A) (A) (A) (A)
                 (A)
 The electronic state is 2-A.
 Alpha  occ. eigenvalues --  -24.87441 -24.87106 -24.86972 -24.84666 -19.36215
 Alpha  occ. eigenvalues --  -19.34552 -10.57824 -10.52157  -1.44907  -1.39003
 Alpha  occ. eigenvalues --   -1.36323  -1.36076  -1.26311  -1.18951  -0.89505
 Alpha  occ. eigenvalues --   -0.79018  -0.73617  -0.72975  -0.71545  -0.69790
 Alpha  occ. eigenvalues --   -0.65727  -0.60865  -0.58901  -0.58833  -0.57406
 Alpha  occ. eigenvalues --   -0.56061  -0.55470  -0.55092  -0.53208  -0.51344
 Alpha  occ. eigenvalues --   -0.49704  -0.47183  -0.45670
 Alpha virt. eigenvalues --    0.05513   0.08955   0.09923   0.10300   0.13014
 Alpha virt. eigenvalues --    0.13252   0.13453   0.15119   0.17423   0.18770
 Alpha virt. eigenvalues --    0.21092   0.22241   0.23465   0.24347   0.27309
 Alpha virt. eigenvalues --    0.29057   0.29721   0.31398   0.31964   0.32045
 Alpha virt. eigenvalues --    0.32662   0.33298   0.33523   0.35407   0.35920
 Alpha virt. eigenvalues --    0.37345   0.38739   0.40397   0.41112   0.41591
 Alpha virt. eigenvalues --    0.42852   0.42994   0.43494   0.43957   0.45504
 Alpha virt. eigenvalues --    0.46060   0.47624   0.52462   0.53275   0.54432
 Alpha virt. eigenvalues --    0.56418   0.61950   0.70263   0.71037   0.72674
 Alpha virt. eigenvalues --    0.74309   0.75642   0.81601   0.88155   0.89325
 Alpha virt. eigenvalues --    0.91763   1.00066   1.00587   1.06462   1.07913
 Alpha virt. eigenvalues --    1.09922   1.10974   1.13232   1.14086   1.15752
 Alpha virt. eigenvalues --    1.17161   1.22647   1.26257   1.29461   1.34764
 Alpha virt. eigenvalues --    1.38225   1.38452   1.39300   1.40576   1.44897
 Alpha virt. eigenvalues --    1.45193   1.45926   1.46556   1.47737   1.48939
 Alpha virt. eigenvalues --    1.50794   1.51704   1.56192   1.60343   1.62639
 Alpha virt. eigenvalues --    1.66224   1.68635   1.71514   1.73524   1.84356
 Alpha virt. eigenvalues --    1.87546   1.92760   1.97155   1.98280   2.01262
 Alpha virt. eigenvalues --    2.03018   2.04189   2.06057   2.11036   2.11903
 Alpha virt. eigenvalues --    2.12728   2.18394   2.19213   2.25267   2.29030
 Alpha virt. eigenvalues --    2.33023   2.35707   2.41484   2.43700   2.47095
 Alpha virt. eigenvalues --    2.51886   2.55541   2.64978   2.65922   2.68684
 Alpha virt. eigenvalues --    2.75710   2.79883   2.85254   2.86643   2.99206
 Alpha virt. eigenvalues --    3.15971   3.16785   3.31489   3.46893   3.48562
 Alpha virt. eigenvalues --    3.53148   3.54317   3.54994   3.56884   3.58743
 Alpha virt. eigenvalues --    3.60374   3.62318   3.62909   3.83624   3.91025
 Alpha virt. eigenvalues --    4.08174   4.17740   4.24387   4.29244   4.29724
 Alpha virt. eigenvalues --    4.43514   5.07594   5.15588   5.19298   5.46384
 Alpha virt. eigenvalues --    5.88766   6.09630   6.39582   6.39938   6.42716
 Alpha virt. eigenvalues --    6.46143   6.46833   6.48352   6.50493   6.52439
 Alpha virt. eigenvalues --    6.54269   6.69477   6.79371   6.80964   6.84281
 Alpha virt. eigenvalues --    6.86180   7.00265   7.04947   7.10200   7.19879
 Alpha virt. eigenvalues --    7.20741   7.22669   7.29735   7.53467   9.07866
 Alpha virt. eigenvalues --    9.11414   9.11496   9.17660   9.19221   9.21570
 Alpha virt. eigenvalues --    9.21756   9.24312   9.25847   9.32268   9.34257
 Alpha virt. eigenvalues --    9.45966   9.50930   9.56349   9.66551   9.72737
 Alpha virt. eigenvalues --    9.73712   9.79416   9.87440   9.88018  23.95631
 Alpha virt. eigenvalues --   24.09462  50.01281  50.05810  66.94174  66.94756
 Alpha virt. eigenvalues --   66.96534  67.01176
  Beta  occ. eigenvalues --  -24.87439 -24.87095 -24.86939 -24.84654 -19.34306
  Beta  occ. eigenvalues --  -19.34072 -10.57748 -10.52269  -1.44829  -1.38625
  Beta  occ. eigenvalues --   -1.36296  -1.35999  -1.23315  -1.15835  -0.88791
  Beta  occ. eigenvalues --   -0.78604  -0.72996  -0.72527  -0.71119  -0.68964
  Beta  occ. eigenvalues --   -0.63606  -0.59442  -0.58830  -0.58567  -0.56766
  Beta  occ. eigenvalues --   -0.55418  -0.55325  -0.53171  -0.52023  -0.49771
  Beta  occ. eigenvalues --   -0.47605  -0.43761
  Beta virt. eigenvalues --   -0.15457   0.05755   0.09008   0.10054   0.10311
  Beta virt. eigenvalues --    0.13019   0.13228   0.13459   0.15472   0.17623
  Beta virt. eigenvalues --    0.18836   0.21228   0.22281   0.23579   0.24398
  Beta virt. eigenvalues --    0.27398   0.29385   0.29944   0.31688   0.32063
  Beta virt. eigenvalues --    0.32121   0.33218   0.33485   0.34471   0.35442
  Beta virt. eigenvalues --    0.36118   0.37439   0.38842   0.40502   0.41255
  Beta virt. eigenvalues --    0.41591   0.42893   0.43022   0.43811   0.43972
  Beta virt. eigenvalues --    0.45496   0.46332   0.47833   0.52453   0.53296
  Beta virt. eigenvalues --    0.54724   0.56512   0.62067   0.70393   0.71591
  Beta virt. eigenvalues --    0.72758   0.74504   0.75750   0.81826   0.88470
  Beta virt. eigenvalues --    0.89524   0.92138   1.00262   1.00812   1.07439
  Beta virt. eigenvalues --    1.08418   1.10337   1.12070   1.13572   1.14677
  Beta virt. eigenvalues --    1.17075   1.18493   1.23309   1.26912   1.29762
  Beta virt. eigenvalues --    1.35143   1.38457   1.38641   1.39410   1.40620
  Beta virt. eigenvalues --    1.45104   1.45284   1.46141   1.46741   1.47962
  Beta virt. eigenvalues --    1.49145   1.50998   1.51894   1.56965   1.61200
  Beta virt. eigenvalues --    1.63553   1.66841   1.69734   1.73012   1.75022
  Beta virt. eigenvalues --    1.84773   1.89713   1.93101   1.97660   1.98722
  Beta virt. eigenvalues --    2.01522   2.03160   2.04425   2.06207   2.11329
  Beta virt. eigenvalues --    2.11994   2.12989   2.18403   2.19311   2.25558
  Beta virt. eigenvalues --    2.29493   2.33273   2.36012   2.41921   2.44274
  Beta virt. eigenvalues --    2.47445   2.52305   2.56634   2.65240   2.66202
  Beta virt. eigenvalues --    2.68896   2.75934   2.80107   2.85408   2.86798
  Beta virt. eigenvalues --    2.99432   3.16099   3.17009   3.31662   3.46895
  Beta virt. eigenvalues --    3.48632   3.53165   3.54408   3.55174   3.56855
  Beta virt. eigenvalues --    3.58901   3.60470   3.62218   3.62989   3.83729
  Beta virt. eigenvalues --    3.91178   4.08259   4.17911   4.24558   4.29362
  Beta virt. eigenvalues --    4.29809   4.43619   5.12581   5.19898   5.22495
  Beta virt. eigenvalues --    5.47906   5.90223   6.10685   6.39654   6.40014
  Beta virt. eigenvalues --    6.42789   6.46236   6.46938   6.48461   6.50582
  Beta virt. eigenvalues --    6.52606   6.54417   6.71801   6.81522   6.81636
  Beta virt. eigenvalues --    6.88973   6.91586   7.02353   7.09110   7.12307
  Beta virt. eigenvalues --    7.21783   7.25185   7.25330   7.32589   7.54618
  Beta virt. eigenvalues --    9.07921   9.11463   9.11526   9.17716   9.19240
  Beta virt. eigenvalues --    9.21639   9.21811   9.24363   9.25910   9.32324
  Beta virt. eigenvalues --    9.34305   9.45995   9.50954   9.56435   9.66587
  Beta virt. eigenvalues --    9.72778   9.73756   9.79424   9.87476   9.88043
  Beta virt. eigenvalues --   23.95718  24.09330  50.03384  50.06323  66.94183
  Beta virt. eigenvalues --   66.94768  66.96543  67.01186
          Condensed to atoms (all electrons):
               1          2          3          4          5          6
     1  C    4.287850   0.256041   0.243676  -0.090882   0.260657  -0.123260
     2  F    0.256041   9.079802   0.003009   0.021114   0.000572   0.000656
     3  F    0.243676   0.003009   9.091379  -0.002269  -0.001972   0.021853
     4  O   -0.090882   0.021114  -0.002269   8.003047   0.014454  -0.019485
     5  F    0.260657   0.000572  -0.001972   0.014454   9.089165   0.017327
     6  F   -0.123260   0.000656   0.021853  -0.019485   0.017327   9.178405
     7  C    0.372306  -0.081476  -0.082609   0.322585  -0.088165   0.258421
     8  O   -0.123795   0.012472   0.013669   0.001013  -0.000400  -0.000814
     9  H    0.007201  -0.001088  -0.000215   0.002487   0.000044  -0.004912
               7          8          9
     1  C    0.372306  -0.123795   0.007201
     2  F   -0.081476   0.012472  -0.001088
     3  F   -0.082609   0.013669  -0.000215
     4  O    0.322585   0.001013   0.002487
     5  F   -0.088165  -0.000400   0.000044
     6  F    0.258421  -0.000814  -0.004912
     7  C    4.380735   0.303966   0.005665
     8  O    0.303966   7.881445   0.242986
     9  H    0.005665   0.242986   0.486508
          Atomic-Atomic Spin Densities.
               1          2          3          4          5          6
     1  C    0.059529  -0.004020  -0.002971  -0.017189  -0.005541   0.000338
     2  F   -0.004020   0.004756   0.000141   0.000137   0.000401  -0.000176
     3  F   -0.002971   0.000141   0.011452   0.000075   0.000120   0.000102
     4  O   -0.017189   0.000137   0.000075   0.870524   0.004595  -0.001957
     5  F   -0.005541   0.000401   0.000120   0.004595   0.001213  -0.000213
     6  F    0.000338  -0.000176   0.000102  -0.001957  -0.000213   0.002019
     7  C   -0.000055   0.001177  -0.000645   0.004733   0.001985   0.008729
     8  O   -0.002286   0.000991  -0.000360  -0.022274   0.000316  -0.002542
     9  H   -0.001492   0.000107   0.000046  -0.002590   0.000027   0.000667
               7          8          9
     1  C   -0.000055  -0.002286  -0.001492
     2  F    0.001177   0.000991   0.000107
     3  F   -0.000645  -0.000360   0.000046
     4  O    0.004733  -0.022274  -0.002590
     5  F    0.001985   0.000316   0.000027
     6  F    0.008729  -0.002542   0.000667
     7  C   -0.074861  -0.000048  -0.001028
     8  O   -0.000048   0.208137   0.002624
     9  H   -0.001028   0.002624  -0.006615
 Mulliken charges and spin densities:
               1          2
     1  C    0.910207   0.026312
     2  F   -0.291102   0.003513
     3  F   -0.286520   0.007960
     4  O   -0.252064   0.836053
     5  F   -0.291683   0.002902
     6  F   -0.328191   0.006967
     7  C    0.608573  -0.060013
     8  O   -0.330543   0.184558
     9  H    0.261324  -0.008253
 Sum of Mulliken charges =  -0.00000   1.00000
 Mulliken charges and spin densities with hydrogens summed into heavy atoms:
               1          2
     1  C    0.910207   0.026312
     2  F   -0.291102   0.003513
     3  F   -0.286520   0.007960
     4  O   -0.252064   0.836053
     5  F   -0.291683   0.002902
     6  F   -0.328191   0.006967
     7  C    0.608573  -0.060013
     8  O   -0.069219   0.176305
 Electronic spatial extent (au):  <R**2>=            718.6732
 Charge=             -0.0000 electrons
 Dipole moment (field-independent basis, Debye):
    X=             -1.8800    Y=              0.7467    Z=              0.0584  Tot=              2.0237
 Quadrupole moment (field-independent basis, Debye-Ang):
   XX=            -36.6049   YY=            -43.8542   ZZ=            -44.7927
   XY=             -3.4764   XZ=             -0.6864   YZ=              0.3810
 Traceless Quadrupole moment (field-independent basis, Debye-Ang):
   XX=              5.1457   YY=             -2.1036   ZZ=             -3.0421
   XY=             -3.4764   XZ=             -0.6864   YZ=              0.3810
 Octapole moment (field-independent basis, Debye-Ang**2):
  XXX=            -13.0540  YYY=             -3.0419  ZZZ=              3.5171  XYY=              0.4331
  XXY=              9.4026  XXZ=              3.1783  XZZ=              3.7894  YZZ=             -1.2820
  YYZ=              0.4885  XYZ=             -0.5545
 Hexadecapole moment (field-independent basis, Debye-Ang**3):
 XXXX=           -301.6588 YYYY=           -189.2633 ZZZZ=           -177.4355 XXXY=            -23.5522
 XXXZ=             -8.6992 YYYX=              0.2637 YYYZ=             -1.4853 ZZZX=             -5.4634
 ZZZY=             -2.1733 XXYY=            -84.6416 XXZZ=            -92.3880 YYZZ=            -60.2956
 XXYZ=              1.0808 YYXZ=             -0.7167 ZZXY=              0.0725
 N-N= 4.480950313166D+02 E-N=-2.383175997030D+03  KE= 6.249878318562D+02
                          Isotropic Fermi Contact Couplings
        Atom                 a.u.       MegaHertz       Gauss      10(-4) cm-1
     1  C(13)              0.03458      38.86995      13.86976      12.96562
     2  F(19)              0.00105       4.40372       1.57136       1.46892
     3  F(19)              0.00402      16.90001       6.03034       5.63724
     4  O(17)              0.08405     -50.94801     -18.17952     -16.99443
     5  F(19)             -0.00085      -3.58881      -1.28058      -1.19710
     6  F(19)             -0.00988     -41.57306     -14.83430     -13.86728
     7  C(13)             -0.03459     -38.88875     -13.87647     -12.97189
     8  O(17)              0.00886      -5.36890      -1.91576      -1.79087
     9  H(1)              -0.00307     -13.74032      -4.90289      -4.58328
 --------------------------------------------------------
       Center         ----  Spin Dipole Couplings  ----
                      3XX-RR        3YY-RR        3ZZ-RR
 --------------------------------------------------------
     1   Atom        0.056572     -0.031486     -0.025086
     2   Atom        0.036452     -0.019200     -0.017252
     3   Atom        0.070095     -0.040497     -0.029598
     4   Atom        0.452930      1.180559     -1.633489
     5   Atom       -0.007055     -0.012496      0.019552
     6   Atom       -0.054036     -0.019333      0.073369
     7   Atom       -0.024032     -0.042208      0.066240
     8   Atom       -0.415291     -0.232229      0.647521
     9   Atom        0.035964     -0.025754     -0.010209
 --------------------------------------------------------
                        XY            XZ            YZ
 --------------------------------------------------------
     1   Atom        0.006145      0.015044      0.003140
     2   Atom        0.007866     -0.012293      0.000760
     3   Atom       -0.002132      0.039744     -0.000977
     4   Atom       -2.458125     -0.402656      0.447919
     5   Atom        0.000743      0.004862      0.003699
     6   Atom        0.002272     -0.000858      0.034395
     7   Atom        0.013797      0.026254      0.009090
     8   Atom       -0.054231     -0.126118      0.495202
     9   Atom       -0.006264     -0.006798      0.015403
 --------------------------------------------------------


 ---------------------------------------------------------------------------------
              Anisotropic Spin Dipole Couplings in Principal Axis System
 ---------------------------------------------------------------------------------

       Atom             a.u.   MegaHertz   Gauss  10(-4) cm-1        Axes

              Baa    -0.0328    -4.397    -1.569    -1.467  0.0000  0.9257 -0.3784
     1 C(13)  Bbb    -0.0270    -3.618    -1.291    -1.207 -0.1910  0.3714  0.9086
              Bcc     0.0597     8.016     2.860     2.674  0.9816  0.0722  0.1768
 
              Baa    -0.0224   -11.273    -4.022    -3.760 -0.2328  0.7178 -0.6561
     2 F(19)  Bbb    -0.0176    -8.861    -3.162    -2.956  0.0654  0.6847  0.7259
              Bcc     0.0401    20.134     7.184     6.716  0.9703  0.1261 -0.2063
 
              Baa    -0.0435   -21.856    -7.799    -7.290 -0.3281  0.0730  0.9418
     3 F(19)  Bbb    -0.0405   -20.352    -7.262    -6.789  0.0418  0.9972 -0.0627
              Bcc     0.0840    42.209    15.061    14.079  0.9437 -0.0187  0.3302
 
              Baa    -1.7095   123.696    44.138    41.261  0.2883  0.0975  0.9526
     4 O(17)  Bbb    -1.6646   120.449    42.979    40.177  0.7042  0.6525 -0.2799
              Bcc     3.3741  -244.145   -87.117   -81.438 -0.6488  0.7515  0.1194
 
              Baa    -0.0129    -6.491    -2.316    -2.165 -0.0366  0.9935 -0.1077
     5 F(19)  Bbb    -0.0079    -3.975    -1.418    -1.326  0.9841  0.0171 -0.1765
              Bcc     0.0208    10.466     3.735     3.491  0.1735  0.1124  0.9784
 
              Baa    -0.0543   -27.264    -9.728    -9.094  0.9948 -0.0969  0.0328
     6 F(19)  Bbb    -0.0305   -15.293    -5.457    -5.101  0.1023  0.9445 -0.3121
              Bcc     0.0847    42.557    15.185    14.195 -0.0007  0.3138  0.9495
 
              Baa    -0.0499    -6.690    -2.387    -2.231 -0.5079  0.8601  0.0475
     7 C(13)  Bbb    -0.0248    -3.327    -1.187    -1.110  0.8182  0.4989 -0.2858
              Bcc     0.0746    10.016     3.574     3.341  0.2695  0.1063  0.9571
 
              Baa    -0.4549    32.917    11.745    10.980 -0.0870  0.9050 -0.4165
     8 O(17)  Bbb    -0.4296    31.085    11.092    10.369  0.9907  0.1226  0.0596
              Bcc     0.8845   -64.002   -22.837   -21.349 -0.1050  0.4074  0.9072
 
              Baa    -0.0353   -18.824    -6.717    -6.279  0.0257  0.8549 -0.5182
     9 H(1)   Bbb    -0.0028    -1.518    -0.542    -0.506  0.2271  0.4998  0.8358
              Bcc     0.0381    20.342     7.258     6.785  0.9735 -0.1392 -0.1813
 

 ---------------------------------------------------------------------------------

 Calling FoFJK, ICntrl=      2127 FMM=F ISym2X=0 I1Cent= 0 IOpClX= 1 NMat=1 NMatS=1 NMatT=0.
 ***** Axes restored to original set *****
 -------------------------------------------------------------------
 Center     Atomic                   Forces (Hartrees/Bohr)
 Number     Number              X              Y              Z
 -------------------------------------------------------------------
      1        6          -0.019939998   -0.008766893    0.010011377
      2        9           0.008407365    0.008606817    0.020924096
      3        9           0.000945711    0.012806377   -0.016777139
      4        8           0.027327116    0.024439811   -0.069591158
      5        9           0.000399958   -0.021477466   -0.003405607
      6        9          -0.000326328   -0.001271836    0.021797154
      7        6          -0.006313540   -0.044199057    0.036527245
      8        8          -0.014512128    0.025395772    0.000679033
      9        1           0.004011845    0.004466473   -0.000165001
 -------------------------------------------------------------------
 Cartesian Forces:  Max     0.069591158 RMS     0.021909122

 GradGradGradGradGradGradGradGradGradGradGradGradGradGradGradGradGradGrad
 Berny optimization.
 FormGI is forming the generalized inverse of G from B-inverse, IUseBI=4.
 Internal  Forces:  Max     0.076882367 RMS     0.017291666
 Search for a local minimum.
 Step number   1 out of a maximum of   43
 All quantities printed in internal units (Hartrees-Bohrs-Radians)
 Mixed Optimization -- RFO/linear search
 Second derivative matrix not updated -- first step.
 ITU=  0
     Eigenvalues ---    0.00237   0.01295   0.07852   0.08523   0.08850
     Eigenvalues ---    0.08850   0.16000   0.17179   0.21318   0.25000
     Eigenvalues ---    0.25000   0.25000   0.25000   0.28519   0.40989
     Eigenvalues ---    0.55021   0.55021   0.55021   0.55021   0.55473
     Eigenvalues ---    0.80209
 RFO step:  Lambda=-1.98424372D-02 EMin= 2.36824230D-03
 Linear search not attempted -- first point.
 Iteration  1 RMS(Cart)=  0.05629913 RMS(Int)=  0.00185077
 Iteration  2 RMS(Cart)=  0.00170751 RMS(Int)=  0.00080956
 Iteration  3 RMS(Cart)=  0.00000377 RMS(Int)=  0.00080956
 Iteration  4 RMS(Cart)=  0.00000001 RMS(Int)=  0.00080956
 Variable       Old X    -DE/DX   Delta X   Delta X   Delta X     New X
                                 (Linear)    (Quad)   (Total)
    R1        2.55113  -0.02375   0.00000  -0.04166  -0.04166   2.50947
    R2        2.55113  -0.02015   0.00000  -0.03534  -0.03534   2.51579
    R3        2.55113  -0.02160   0.00000  -0.03788  -0.03788   2.51325
    R4        2.91018   0.00968   0.00000   0.03174   0.03174   2.94192
    R5        2.37803   0.07688   0.00000   0.09354   0.09354   2.47157
    R6        2.55113   0.01717   0.00000   0.03012   0.03012   2.58125
    R7        2.70231  -0.03077   0.00000  -0.07161  -0.07161   2.63069
    R8        1.81414   0.00311   0.00000   0.00541   0.00541   1.81955
    A1        1.91063  -0.00656   0.00000  -0.01913  -0.01975   1.89088
    A2        1.91063  -0.00462   0.00000  -0.02282  -0.02278   1.88785
    A3        1.91063   0.00533   0.00000   0.01949   0.01917   1.92980
    A4        1.91063  -0.00562   0.00000  -0.02030  -0.02044   1.89020
    A5        1.91063   0.01013   0.00000   0.04037   0.03997   1.95060
    A6        1.91063   0.00134   0.00000   0.00239   0.00233   1.91297
    A7        1.91063   0.01351   0.00000   0.06650   0.06556   1.97619
    A8        1.91063  -0.01023   0.00000  -0.04002  -0.04180   1.86883
    A9        1.91063  -0.00686   0.00000  -0.05150  -0.05235   1.85828
   A10        1.91063   0.00848   0.00000   0.08360   0.08313   1.99377
   A11        1.91063  -0.00971   0.00000  -0.05696  -0.05567   1.85496
   A12        1.91063   0.00480   0.00000  -0.00162  -0.00396   1.90667
   A13        1.91114  -0.00932   0.00000  -0.05183  -0.05183   1.85930
    D1        1.04720  -0.00763   0.00000  -0.06402  -0.06486   0.98234
    D2       -3.14159   0.00477   0.00000   0.05459   0.05393  -3.08766
    D3       -1.04720   0.00019   0.00000  -0.00344  -0.00247  -1.04967
    D4       -3.14159  -0.00620   0.00000  -0.05079  -0.05133   3.09026
    D5       -1.04720   0.00620   0.00000   0.06781   0.06746  -0.97974
    D6        1.04720   0.00162   0.00000   0.00978   0.01105   1.05825
    D7       -1.04720  -0.00605   0.00000  -0.04947  -0.05008  -1.09728
    D8        1.04720   0.00634   0.00000   0.06914   0.06871   1.11590
    D9        3.14159   0.00176   0.00000   0.01111   0.01230  -3.12929
   D10        3.07663   0.00672   0.00000   0.03191   0.03272   3.10935
   D11        0.98223   0.00032   0.00000   0.01688   0.01554   0.99777
   D12       -1.11216  -0.00706   0.00000  -0.04964  -0.04910  -1.16126
         Item               Value     Threshold  Converged?
 Maximum Force            0.076882     0.000450     NO 
 RMS     Force            0.017292     0.000300     NO 
 Maximum Displacement     0.151633     0.001800     NO 
 RMS     Displacement     0.056564     0.001200     NO 
 Predicted change in Energy=-1.063020D-02
 GradGradGradGradGradGradGradGradGradGradGradGradGradGradGradGradGradGrad

                          Input orientation:                          
 ---------------------------------------------------------------------
 Center     Atomic      Atomic             Coordinates (Angstroms)
 Number     Number       Type             X           Y           Z
 ---------------------------------------------------------------------
      1          6           0       -0.475145   -0.002625    0.059710
      2          9           0       -1.173059   -0.383957   -1.003757
      3          9           0       -0.938756   -0.657696    1.121926
      4          8           0        1.516227    0.318878   -1.233085
      5          9           0       -0.682755    1.297530    0.247514
      6          9           0        1.682714    0.087753    0.994439
      7          6           0        1.043857   -0.262518   -0.160964
      8          8           0        1.184282   -1.632292   -0.365788
      9          1           0        2.119550   -1.790039   -0.531605
 ---------------------------------------------------------------------
                    Distance matrix (angstroms):
                    1          2          3          4          5
     1  C    0.000000
     2  F    1.327953   0.000000
     3  F    1.331299   2.156005   0.000000
     4  O    2.395881   2.789055   3.539310   0.000000
     5  F    1.329953   2.152552   2.157091   2.825855   0.000000
     6  F    2.353348   3.517206   2.728379   2.245663   2.759874
     7  C    1.556795   2.374819   2.394311   1.307899   2.362583
     8  O    2.364437   2.742700   2.769553   2.160893   3.527865
     9  H    3.205768   3.611270   3.656447   2.302956   4.241819
                    6          7          8          9
     6  F    0.000000
     7  C    1.365937   0.000000
     8  O    2.248824   1.392104   0.000000
     9  H    2.458808   1.904681   0.962864   0.000000
 Stoichiometry    C2HF4O2(2)
 Framework group  C1[X(C2HF4O2)]
 Deg. of freedom    21
 Full point group                 C1      NOp   1
 Largest Abelian subgroup         C1      NOp   1
 Largest concise Abelian subgroup C1      NOp   1
                         Standard orientation:                         
 ---------------------------------------------------------------------
 Center     Atomic      Atomic             Coordinates (Angstroms)
 Number     Number       Type             X           Y           Z
 ---------------------------------------------------------------------
      1          6           0        0.761006    0.022190    0.008685
      2          9           0        1.203525    1.252805   -0.222016
      3          9           0        1.187268   -0.357658    1.211337
      4          8           0       -1.245026    0.396411   -1.246719
      5          9           0        1.296932   -0.788216   -0.899501
      6          9           0       -1.172644   -1.302388    0.220198
      7          6           0       -0.791383   -0.029502   -0.096326
      8          8           0       -1.281568    0.848976    0.865935
      9          1           0       -2.240719    0.839896    0.781956
 ---------------------------------------------------------------------
 Rotational constants (GHZ):           2.9120688           1.9034888           1.8447370
 Standard basis: 6-311+G(2d,2p) (5D, 7F)
 There are   241 symmetry adapted cartesian basis functions of A   symmetry.
 There are   225 symmetry adapted basis functions of A   symmetry.
   225 basis functions,   347 primitive gaussians,   241 cartesian basis functions
    33 alpha electrons       32 beta electrons
       nuclear repulsion energy       448.4477200556 Hartrees.
 NAtoms=    9 NActive=    9 NUniq=    9 SFac= 1.00D+00 NAtFMM=   60 NAOKFM=F Big=F
 Integral buffers will be    131072 words long.
 Raffenetti 2 integral format.
 Two-electron integral symmetry is turned on.
 Nuclear repulsion after empirical dispersion term =      448.4451394397 Hartrees.
 One-electron integrals computed using PRISM.
 NBasis=   225 RedAO= T EigKep=  1.09D-04  NBF=   225
 NBsUse=   225 1.00D-06 EigRej= -1.00D+00 NBFU=   225
 Initial guess from the checkpoint file:  "tfcof_oh.chk"
 B after Tr=     0.000000   -0.000000   -0.000000
         Rot=    0.976907   -0.212281   -0.024215    0.001537 Ang= -24.67 deg.
 Initial guess <Sx>= 0.0000 <Sy>= 0.0000 <Sz>= 0.5000 <S**2>= 0.7559 S= 0.5029
 ExpMin= 4.38D-02 ExpMax= 1.14D+04 ExpMxC= 1.72D+03 IAcc=3 IRadAn=         5 AccDes= 0.00D+00
 Harris functional with IExCor= 4639 and IRadAn=       5 diagonalized for initial guess.
 HarFok:  IExCor= 4639 AccDes= 0.00D+00 IRadAn=         5 IDoV= 1 UseB2=F ITyADJ=14
 ICtDFT=  3500011 ScaDFX=  1.000000  1.000000  1.000000  1.000000
 FoFCou: FMM=F IPFlag=           0 FMFlag=      100000 FMFlg1=           0
         NFxFlg=           0 DoJE=T BraDBF=F KetDBF=T FulRan=T
         wScrn=  0.000000 ICntrl=       500 IOpCl=  0 I1Cent=   200000004 NGrid=           0
         NMat0=    1 NMatS0=      1 NMatT0=    0 NMatD0=    1 NMtDS0=    0 NMtDT0=    0
 Petite list used in FoFCou.
 Keep R1 and R2 ints in memory in canonical form, NReq=1318693155.
 Requested convergence on RMS density matrix=1.00D-08 within  32 cycles.
 Requested convergence on MAX density matrix=1.00D-06.
 Requested convergence on             energy=1.00D-06.
 No special actions if energy rises.
 SCF Done:  E(UwB97XD) =  -626.589089825     A.U. after   20 cycles
            NFock= 20  Conv=0.77D-08     -V/T= 2.0025
 <Sx>= 0.0000 <Sy>= 0.0000 <Sz>= 0.5000 <S**2>= 0.7554 S= 0.5027
 <L.S>= 0.000000000000E+00
 Annihilation of the first spin contaminant:
 S**2 before annihilation     0.7554,   after     0.7500
 QCSCF skips out because SCF is already converged.
 Calling FoFJK, ICntrl=      2127 FMM=F ISym2X=0 I1Cent= 0 IOpClX= 1 NMat=1 NMatS=1 NMatT=0.
 ***** Axes restored to original set *****
 -------------------------------------------------------------------
 Center     Atomic                   Forces (Hartrees/Bohr)
 Number     Number              X              Y              Z
 -------------------------------------------------------------------
      1        6          -0.007138489    0.001683383    0.002529592
      2        9           0.002793741   -0.000853276   -0.000096004
      3        9           0.004566515    0.000416724   -0.002552308
      4        8           0.011362785    0.007932223   -0.013014478
      5        9           0.001917111    0.002102289    0.000337819
      6        9           0.001240903    0.005384038   -0.004736168
      7        6          -0.018618118   -0.024781202    0.021925303
      8        8           0.002442535    0.011010169   -0.004257592
      9        1           0.001433017   -0.002894349   -0.000136164
 -------------------------------------------------------------------
 Cartesian Forces:  Max     0.024781202 RMS     0.008852869

 GradGradGradGradGradGradGradGradGradGradGradGradGradGradGradGradGradGrad
 Berny optimization.
 Using GEDIIS/GDIIS optimizer.
 FormGI is forming the generalized inverse of G from B-inverse, IUseBI=4.
 Internal  Forces:  Max     0.018298242 RMS     0.004549323
 Search for a local minimum.
 Step number   2 out of a maximum of   43
 All quantities printed in internal units (Hartrees-Bohrs-Radians)
 Mixed Optimization -- RFO/linear search
 Update second derivatives using D2CorX and points    1    2
 DE= -9.95D-03 DEPred=-1.06D-02 R= 9.36D-01
 TightC=F SS=  1.41D+00  RLast= 2.66D-01 DXNew= 5.0454D-01 7.9694D-01
 Trust test= 9.36D-01 RLast= 2.66D-01 DXMaxT set to 5.05D-01
 ITU=  1  0
 Use linear search instead of GDIIS.
     Eigenvalues ---    0.00237   0.01295   0.08301   0.08370   0.08684
     Eigenvalues ---    0.10241   0.16343   0.17279   0.19691   0.24950
     Eigenvalues ---    0.25000   0.25000   0.26794   0.29117   0.38639
     Eigenvalues ---    0.53502   0.55021   0.55021   0.55410   0.56333
     Eigenvalues ---    0.69442
 RFO step:  Lambda=-2.51711014D-03 EMin= 2.36925989D-03
 Quartic linear search produced a step of  0.02123.
 Iteration  1 RMS(Cart)=  0.01717027 RMS(Int)=  0.00046898
 Iteration  2 RMS(Cart)=  0.00050464 RMS(Int)=  0.00018924
 Iteration  3 RMS(Cart)=  0.00000015 RMS(Int)=  0.00018924
 Variable       Old X    -DE/DX   Delta X   Delta X   Delta X     New X
                                 (Linear)    (Quad)   (Total)
    R1        2.50947  -0.00115  -0.00088  -0.00714  -0.00802   2.50144
    R2        2.51579  -0.00383  -0.00075  -0.01135  -0.01210   2.50369
    R3        2.51325   0.00180  -0.00080  -0.00122  -0.00203   2.51122
    R4        2.94192  -0.00150   0.00067  -0.00153  -0.00085   2.94106
    R5        2.47157   0.01830   0.00199   0.03457   0.03656   2.50813
    R6        2.58125  -0.00205   0.00064  -0.00016   0.00048   2.58173
    R7        2.63069  -0.00695  -0.00152  -0.02585  -0.02737   2.60332
    R8        1.81955   0.00189   0.00011   0.00412   0.00424   1.82379
    A1        1.89088   0.00382  -0.00042   0.00987   0.00932   1.90021
    A2        1.88785   0.00319  -0.00048   0.01428   0.01379   1.90165
    A3        1.92980  -0.00298   0.00041  -0.00953  -0.00919   1.92061
    A4        1.89020   0.00358  -0.00043   0.01136   0.01085   1.90105
    A5        1.95060  -0.00515   0.00085  -0.01820  -0.01746   1.93315
    A6        1.91297  -0.00201   0.00005  -0.00618  -0.00616   1.90680
    A7        1.97619   0.00361   0.00139   0.01830   0.01979   1.99598
    A8        1.86883  -0.00098  -0.00089  -0.00537  -0.00677   1.86207
    A9        1.85828   0.00545  -0.00111   0.03075   0.02928   1.88756
   A10        1.99377  -0.00468   0.00176  -0.03806  -0.03612   1.95765
   A11        1.85496  -0.00511  -0.00118  -0.03093  -0.03224   1.82273
   A12        1.90667   0.00251  -0.00008   0.03158   0.03118   1.93785
   A13        1.85930   0.00470  -0.00110   0.02345   0.02235   1.88165
    D1        0.98234   0.00165  -0.00138   0.01559   0.01426   0.99661
    D2       -3.08766  -0.00262   0.00115  -0.02497  -0.02392  -3.11157
    D3       -1.04967   0.00248  -0.00005   0.02401   0.02390  -1.02577
    D4        3.09026   0.00098  -0.00109   0.00930   0.00832   3.09858
    D5       -0.97974  -0.00330   0.00143  -0.03125  -0.02986  -1.00960
    D6        1.05825   0.00181   0.00023   0.01773   0.01795   1.07620
    D7       -1.09728   0.00081  -0.00106   0.00773   0.00677  -1.09051
    D8        1.11590  -0.00346   0.00146  -0.03283  -0.03141   1.08450
    D9       -3.12929   0.00165   0.00026   0.01616   0.01641  -3.11289
   D10        3.10935   0.00074   0.00069   0.01637   0.01651   3.12585
   D11        0.99777  -0.00363   0.00033  -0.00479  -0.00439   0.99338
   D12       -1.16126   0.00370  -0.00104   0.04181   0.04127  -1.11999
         Item               Value     Threshold  Converged?
 Maximum Force            0.018298     0.000450     NO 
 RMS     Force            0.004549     0.000300     NO 
 Maximum Displacement     0.044991     0.001800     NO 
 RMS     Displacement     0.017245     0.001200     NO 
 Predicted change in Energy=-1.289601D-03
 GradGradGradGradGradGradGradGradGradGradGradGradGradGradGradGradGradGrad

                          Input orientation:                          
 ---------------------------------------------------------------------
 Center     Atomic      Atomic             Coordinates (Angstroms)
 Number     Number       Type             X           Y           Z
 ---------------------------------------------------------------------
      1          6           0       -0.488085   -0.001344    0.064402
      2          9           0       -1.177593   -0.384545   -0.998582
      3          9           0       -0.936092   -0.656874    1.125022
      4          8           0        1.540035    0.305135   -1.232011
      5          9           0       -0.673459    1.301000    0.252718
      6          9           0        1.666125    0.104916    0.990662
      7          6           0        1.027761   -0.277451   -0.155097
      8          8           0        1.189447   -1.626165   -0.384582
      9          1           0        2.128775   -1.789638   -0.534142
 ---------------------------------------------------------------------
                    Distance matrix (angstroms):
                    1          2          3          4          5
     1  C    0.000000
     2  F    1.323707   0.000000
     3  F    1.324894   2.154572   0.000000
     4  O    2.426497   2.813476   3.551375   0.000000
     5  F    1.328881   2.158927   2.159435   2.845298   0.000000
     6  F    2.347311   3.504767   2.714758   2.235231   2.729255
     7  C    1.556343   2.363582   2.374738   1.327243   2.356261
     8  O    2.378181   2.742534   2.781428   2.137982   3.527728
     9  H    3.225556   3.622438   3.664613   2.285106   4.245434
                    6          7          8          9
     6  F    0.000000
     7  C    1.366191   0.000000
     8  O    2.261672   1.377620   0.000000
     9  H    2.475562   1.908565   0.965106   0.000000
 Stoichiometry    C2HF4O2(2)
 Framework group  C1[X(C2HF4O2)]
 Deg. of freedom    21
 Full point group                 C1      NOp   1
 Largest Abelian subgroup         C1      NOp   1
 Largest concise Abelian subgroup C1      NOp   1
                         Standard orientation:                         
 ---------------------------------------------------------------------
 Center     Atomic      Atomic             Coordinates (Angstroms)
 Number     Number       Type             X           Y           Z
 ---------------------------------------------------------------------
      1          6           0        0.773745    0.030407    0.003611
      2          9           0        1.191466    1.250624   -0.294348
      3          9           0        1.200271   -0.284022    1.217923
      4          8           0       -1.287531    0.318539   -1.243790
      5          9           0        1.289651   -0.827822   -0.870008
      6          9           0       -1.136418   -1.304319    0.285836
      7          6           0       -0.779531   -0.034337   -0.069486
      8          8           0       -1.289679    0.888810    0.816733
      9          1           0       -2.252333    0.854632    0.757078
 ---------------------------------------------------------------------
 Rotational constants (GHZ):           2.9173944           1.9082578           1.8396110
 Standard basis: 6-311+G(2d,2p) (5D, 7F)
 There are   241 symmetry adapted cartesian basis functions of A   symmetry.
 There are   225 symmetry adapted basis functions of A   symmetry.
   225 basis functions,   347 primitive gaussians,   241 cartesian basis functions
    33 alpha electrons       32 beta electrons
       nuclear repulsion energy       448.6186507356 Hartrees.
 NAtoms=    9 NActive=    9 NUniq=    9 SFac= 1.00D+00 NAtFMM=   60 NAOKFM=F Big=F
 Integral buffers will be    131072 words long.
 Raffenetti 2 integral format.
 Two-electron integral symmetry is turned on.
 Nuclear repulsion after empirical dispersion term =      448.6160766110 Hartrees.
 One-electron integrals computed using PRISM.
 NBasis=   225 RedAO= T EigKep=  1.08D-04  NBF=   225
 NBsUse=   225 1.00D-06 EigRej= -1.00D+00 NBFU=   225
 Initial guess from the checkpoint file:  "tfcof_oh.chk"
 B after Tr=     0.000000   -0.000000   -0.000000
         Rot=    0.999638    0.025875   -0.005066   -0.005429 Ang=   3.09 deg.
 Initial guess <Sx>= 0.0000 <Sy>= 0.0000 <Sz>= 0.5000 <S**2>= 0.7553 S= 0.5027
 ExpMin= 4.38D-02 ExpMax= 1.14D+04 ExpMxC= 1.72D+03 IAcc=3 IRadAn=         5 AccDes= 0.00D+00
 Harris functional with IExCor= 4639 and IRadAn=       5 diagonalized for initial guess.
 HarFok:  IExCor= 4639 AccDes= 0.00D+00 IRadAn=         5 IDoV= 1 UseB2=F ITyADJ=14
 ICtDFT=  3500011 ScaDFX=  1.000000  1.000000  1.000000  1.000000
 FoFCou: FMM=F IPFlag=           0 FMFlag=      100000 FMFlg1=           0
         NFxFlg=           0 DoJE=T BraDBF=F KetDBF=T FulRan=T
         wScrn=  0.000000 ICntrl=       500 IOpCl=  0 I1Cent=   200000004 NGrid=           0
         NMat0=    1 NMatS0=      1 NMatT0=    0 NMatD0=    1 NMtDS0=    0 NMtDT0=    0
 Petite list used in FoFCou.
 Keep R1 and R2 ints in memory in canonical form, NReq=1318693155.
 Requested convergence on RMS density matrix=1.00D-08 within  32 cycles.
 Requested convergence on MAX density matrix=1.00D-06.
 Requested convergence on             energy=1.00D-06.
 No special actions if energy rises.
 SCF Done:  E(UwB97XD) =  -626.590640943     A.U. after   19 cycles
            NFock= 19  Conv=0.55D-08     -V/T= 2.0025
 <Sx>= 0.0000 <Sy>= 0.0000 <Sz>= 0.5000 <S**2>= 0.7550 S= 0.5025
 <L.S>= 0.000000000000E+00
 Annihilation of the first spin contaminant:
 S**2 before annihilation     0.7550,   after     0.7500
 QCSCF skips out because SCF is already converged.
 Calling FoFJK, ICntrl=      2127 FMM=F ISym2X=0 I1Cent= 0 IOpClX= 1 NMat=1 NMatS=1 NMatT=0.
 ***** Axes restored to original set *****
 -------------------------------------------------------------------
 Center     Atomic                   Forces (Hartrees/Bohr)
 Number     Number              X              Y              Z
 -------------------------------------------------------------------
      1        6           0.004856796   -0.000312271   -0.001057462
      2        9          -0.001613419   -0.000068775   -0.001791568
      3        9          -0.000358712   -0.000709688    0.001511478
      4        8           0.003669595    0.005905505   -0.005705497
      5        9          -0.000516739    0.001504729   -0.000038781
      6        9           0.000186693    0.001313154   -0.003242283
      7        6          -0.006017287   -0.010461175    0.010044280
      8        8           0.000793888    0.003138419   -0.000262697
      9        1          -0.001000815   -0.000309898    0.000542530
 -------------------------------------------------------------------
 Cartesian Forces:  Max     0.010461175 RMS     0.003789406

 GradGradGradGradGradGradGradGradGradGradGradGradGradGradGradGradGradGrad
 Berny optimization.
 Using GEDIIS/GDIIS optimizer.
 FormGI is forming the generalized inverse of G from B-inverse, IUseBI=4.
 Internal  Forces:  Max     0.008637821 RMS     0.001941064
 Search for a local minimum.
 Step number   3 out of a maximum of   43
 All quantities printed in internal units (Hartrees-Bohrs-Radians)
 Mixed Optimization -- RFO/linear search
 Update second derivatives using D2CorX and points    1    2    3
 DE= -1.55D-03 DEPred=-1.29D-03 R= 1.20D+00
 TightC=F SS=  1.41D+00  RLast= 1.19D-01 DXNew= 8.4853D-01 3.5720D-01
 Trust test= 1.20D+00 RLast= 1.19D-01 DXMaxT set to 5.05D-01
 ITU=  1  1  0
 Use linear search instead of GDIIS.
     Eigenvalues ---    0.00237   0.01281   0.08154   0.08268   0.08708
     Eigenvalues ---    0.08984   0.16209   0.17483   0.21304   0.24920
     Eigenvalues ---    0.24999   0.25136   0.27481   0.29244   0.36386
     Eigenvalues ---    0.54420   0.55021   0.55134   0.55702   0.57523
     Eigenvalues ---    0.62295
 RFO step:  Lambda=-3.53334468D-04 EMin= 2.36899700D-03
 Quartic linear search produced a step of  0.26848.
 Iteration  1 RMS(Cart)=  0.00878136 RMS(Int)=  0.00015554
 Iteration  2 RMS(Cart)=  0.00014726 RMS(Int)=  0.00007674
 Iteration  3 RMS(Cart)=  0.00000002 RMS(Int)=  0.00007674
 Variable       Old X    -DE/DX   Delta X   Delta X   Delta X     New X
                                 (Linear)    (Quad)   (Total)
    R1        2.50144   0.00230  -0.00215   0.00398   0.00182   2.50327
    R2        2.50369   0.00168  -0.00325   0.00352   0.00027   2.50396
    R3        2.51122   0.00154  -0.00054   0.00161   0.00107   2.51229
    R4        2.94106  -0.00243  -0.00023  -0.00869  -0.00892   2.93214
    R5        2.50813   0.00864   0.00981   0.01371   0.02353   2.53165
    R6        2.58173  -0.00226   0.00013  -0.00349  -0.00336   2.57837
    R7        2.60332  -0.00284  -0.00735  -0.00888  -0.01623   2.58709
    R8        1.82379  -0.00101   0.00114  -0.00257  -0.00143   1.82236
    A1        1.90021  -0.00001   0.00250  -0.00045   0.00201   1.90222
    A2        1.90165  -0.00078   0.00370  -0.00850  -0.00479   1.89685
    A3        1.92061   0.00099  -0.00247   0.00792   0.00544   1.92605
    A4        1.90105  -0.00004   0.00291  -0.00390  -0.00100   1.90005
    A5        1.93315  -0.00045  -0.00469   0.00327  -0.00144   1.93170
    A6        1.90680   0.00027  -0.00166   0.00131  -0.00035   1.90645
    A7        1.99598  -0.00100   0.00531  -0.00835  -0.00307   1.99291
    A8        1.86207   0.00096  -0.00182   0.00187  -0.00021   1.86186
    A9        1.88756   0.00014   0.00786   0.00125   0.00896   1.89652
   A10        1.95765  -0.00182  -0.00970  -0.01329  -0.02299   1.93466
   A11        1.82273   0.00120  -0.00865   0.01324   0.00456   1.82729
   A12        1.93785   0.00060   0.00837   0.00617   0.01441   1.95227
   A13        1.88165   0.00077   0.00600  -0.00042   0.00558   1.88724
    D1        0.99661   0.00093   0.00383   0.01420   0.01803   1.01463
    D2       -3.11157  -0.00136  -0.00642  -0.00717  -0.01360  -3.12517
    D3       -1.02577  -0.00006   0.00642   0.00179   0.00819  -1.01758
    D4        3.09858   0.00128   0.00223   0.02093   0.02317   3.12175
    D5       -1.00960  -0.00102  -0.00802  -0.00044  -0.00845  -1.01805
    D6        1.07620   0.00028   0.00482   0.00852   0.01334   1.08954
    D7       -1.09051   0.00112   0.00182   0.01899   0.02082  -1.06969
    D8        1.08450  -0.00117  -0.00843  -0.00238  -0.01081   1.07369
    D9       -3.11289   0.00013   0.00440   0.00657   0.01098  -3.10191
   D10        3.12585  -0.00041   0.00443   0.01633   0.02056  -3.13677
   D11        0.99338   0.00003  -0.00118   0.01818   0.01698   1.01036
   D12       -1.11999   0.00116   0.01108   0.02279   0.03408  -1.08591
         Item               Value     Threshold  Converged?
 Maximum Force            0.008638     0.000450     NO 
 RMS     Force            0.001941     0.000300     NO 
 Maximum Displacement     0.024287     0.001800     NO 
 RMS     Displacement     0.008812     0.001200     NO 
 Predicted change in Energy=-2.587319D-04
 GradGradGradGradGradGradGradGradGradGradGradGradGradGradGradGradGradGrad

                          Input orientation:                          
 ---------------------------------------------------------------------
 Center     Atomic      Atomic             Coordinates (Angstroms)
 Number     Number       Type             X           Y           Z
 ---------------------------------------------------------------------
      1          6           0       -0.487010   -0.005656    0.064241
      2          9           0       -1.184277   -0.383704   -0.996727
      3          9           0       -0.935164   -0.655330    1.128575
      4          8           0        1.544618    0.317987   -1.229323
      5          9           0       -0.666861    1.298489    0.249417
      6          9           0        1.663631    0.107795    0.984072
      7          6           0        1.023131   -0.287405   -0.153995
      8          8           0        1.189019   -1.625003   -0.393903
      9          1           0        2.129828   -1.792139   -0.523967
 ---------------------------------------------------------------------
                    Distance matrix (angstroms):
                    1          2          3          4          5
     1  C    0.000000
     2  F    1.324672   0.000000
     3  F    1.325038   2.157023   0.000000
     4  O    2.430136   2.827250   3.557576   0.000000
     5  F    1.329447   2.156472   2.159239   2.835259   0.000000
     6  F    2.341841   3.503673   2.712375   2.226536   2.718210
     7  C    1.551623   2.364767   2.369657   1.339693   2.352419
     8  O    2.375132   2.745315   2.787536   2.144664   3.522067
     9  H    3.222631   3.631870   3.662977   2.300572   4.239289
                    6          7          8          9
     6  F    0.000000
     7  C    1.364413   0.000000
     8  O    2.264213   1.369030   0.000000
     9  H    2.470075   1.904175   0.964350   0.000000
 Stoichiometry    C2HF4O2(2)
 Framework group  C1[X(C2HF4O2)]
 Deg. of freedom    21
 Full point group                 C1      NOp   1
 Largest Abelian subgroup         C1      NOp   1
 Largest concise Abelian subgroup C1      NOp   1
                         Standard orientation:                         
 ---------------------------------------------------------------------
 Center     Atomic      Atomic             Coordinates (Angstroms)
 Number     Number       Type             X           Y           Z
 ---------------------------------------------------------------------
      1          6           0        0.771709    0.031063    0.003544
      2          9           0        1.199110    1.238605   -0.333988
      3          9           0        1.205423   -0.254682    1.222547
      4          8           0       -1.293824    0.272824   -1.253709
      5          9           0        1.276679   -0.853598   -0.850744
      6          9           0       -1.135252   -1.289835    0.324395
      7          6           0       -0.777655   -0.028910   -0.054833
      8          8           0       -1.284995    0.920772    0.790715
      9          1           0       -2.247418    0.873887    0.751786
 ---------------------------------------------------------------------
 Rotational constants (GHZ):           2.9179819           1.9078438           1.8419414
 Standard basis: 6-311+G(2d,2p) (5D, 7F)
 There are   241 symmetry adapted cartesian basis functions of A   symmetry.
 There are   225 symmetry adapted basis functions of A   symmetry.
   225 basis functions,   347 primitive gaussians,   241 cartesian basis functions
    33 alpha electrons       32 beta electrons
       nuclear repulsion energy       448.6761622651 Hartrees.
 NAtoms=    9 NActive=    9 NUniq=    9 SFac= 1.00D+00 NAtFMM=   60 NAOKFM=F Big=F
 Integral buffers will be    131072 words long.
 Raffenetti 2 integral format.
 Two-electron integral symmetry is turned on.
 Nuclear repulsion after empirical dispersion term =      448.6735892767 Hartrees.
 One-electron integrals computed using PRISM.
 NBasis=   225 RedAO= T EigKep=  1.06D-04  NBF=   225
 NBsUse=   225 1.00D-06 EigRej= -1.00D+00 NBFU=   225
 Initial guess from the checkpoint file:  "tfcof_oh.chk"
 B after Tr=    -0.000000    0.000000    0.000000
         Rot=    0.999884    0.015098   -0.001788    0.001332 Ang=   1.75 deg.
 Initial guess <Sx>= 0.0000 <Sy>= 0.0000 <Sz>= 0.5000 <S**2>= 0.7550 S= 0.5025
 ExpMin= 4.38D-02 ExpMax= 1.14D+04 ExpMxC= 1.72D+03 IAcc=3 IRadAn=         5 AccDes= 0.00D+00
 Harris functional with IExCor= 4639 and IRadAn=       5 diagonalized for initial guess.
 HarFok:  IExCor= 4639 AccDes= 0.00D+00 IRadAn=         5 IDoV= 1 UseB2=F ITyADJ=14
 ICtDFT=  3500011 ScaDFX=  1.000000  1.000000  1.000000  1.000000
 FoFCou: FMM=F IPFlag=           0 FMFlag=      100000 FMFlg1=           0
         NFxFlg=           0 DoJE=T BraDBF=F KetDBF=T FulRan=T
         wScrn=  0.000000 ICntrl=       500 IOpCl=  0 I1Cent=   200000004 NGrid=           0
         NMat0=    1 NMatS0=      1 NMatT0=    0 NMatD0=    1 NMtDS0=    0 NMtDT0=    0
 Petite list used in FoFCou.
 Keep R1 and R2 ints in memory in canonical form, NReq=1318693155.
 Requested convergence on RMS density matrix=1.00D-08 within  32 cycles.
 Requested convergence on MAX density matrix=1.00D-06.
 Requested convergence on             energy=1.00D-06.
 No special actions if energy rises.
 SCF Done:  E(UwB97XD) =  -626.590964773     A.U. after   18 cycles
            NFock= 18  Conv=0.69D-08     -V/T= 2.0025
 <Sx>= 0.0000 <Sy>= 0.0000 <Sz>= 0.5000 <S**2>= 0.7547 S= 0.5023
 <L.S>= 0.000000000000E+00
 Annihilation of the first spin contaminant:
 S**2 before annihilation     0.7547,   after     0.7500
 QCSCF skips out because SCF is already converged.
 Calling FoFJK, ICntrl=      2127 FMM=F ISym2X=0 I1Cent= 0 IOpClX= 1 NMat=1 NMatS=1 NMatT=0.
 ***** Axes restored to original set *****
 -------------------------------------------------------------------
 Center     Atomic                   Forces (Hartrees/Bohr)
 Number     Number              X              Y              Z
 -------------------------------------------------------------------
      1        6           0.002448716    0.000731839   -0.001389079
      2        9          -0.000856576   -0.000773228   -0.001138481
      3        9          -0.000694699   -0.001042725    0.001319035
      4        8           0.000456873    0.002751531   -0.002180217
      5        9          -0.000090248    0.001322444    0.000226473
      6        9           0.000094997   -0.000332714   -0.001279151
      7        6          -0.001149197   -0.002988117    0.003603966
      8        8           0.000268266    0.000462852    0.000592865
      9        1          -0.000478132   -0.000131883    0.000244588
 -------------------------------------------------------------------
 Cartesian Forces:  Max     0.003603966 RMS     0.001423059

 GradGradGradGradGradGradGradGradGradGradGradGradGradGradGradGradGradGrad
 Berny optimization.
 Using GEDIIS/GDIIS optimizer.
 FormGI is forming the generalized inverse of G from B-inverse, IUseBI=4.
 Internal  Forces:  Max     0.003171160 RMS     0.000937536
 Search for a local minimum.
 Step number   4 out of a maximum of   43
 All quantities printed in internal units (Hartrees-Bohrs-Radians)
 Mixed Optimization -- En-DIIS/RFO-DIIS
 Update second derivatives using D2CorX and points    1    2    3    4
 DE= -3.24D-04 DEPred=-2.59D-04 R= 1.25D+00
 TightC=F SS=  1.41D+00  RLast= 7.59D-02 DXNew= 8.4853D-01 2.2766D-01
 Trust test= 1.25D+00 RLast= 7.59D-02 DXMaxT set to 5.05D-01
 ITU=  1  1  1  0
 Use linear search instead of GDIIS.
     Eigenvalues ---    0.00236   0.01247   0.07490   0.08210   0.08699
     Eigenvalues ---    0.08862   0.15963   0.17923   0.22943   0.24663
     Eigenvalues ---    0.25002   0.25352   0.26877   0.29322   0.35079
     Eigenvalues ---    0.53363   0.55029   0.55116   0.55525   0.56052
     Eigenvalues ---    0.58328
 RFO step:  Lambda=-7.32891467D-05 EMin= 2.35619423D-03
 Quartic linear search produced a step of  0.39400.
 Iteration  1 RMS(Cart)=  0.00856175 RMS(Int)=  0.00008438
 Iteration  2 RMS(Cart)=  0.00007320 RMS(Int)=  0.00002212
 Iteration  3 RMS(Cart)=  0.00000001 RMS(Int)=  0.00002212
 Variable       Old X    -DE/DX   Delta X   Delta X   Delta X     New X
                                 (Linear)    (Quad)   (Total)
    R1        2.50327   0.00158   0.00072   0.00224   0.00296   2.50623
    R2        2.50396   0.00181   0.00011   0.00297   0.00308   2.50704
    R3        2.51229   0.00134   0.00042   0.00231   0.00273   2.51502
    R4        2.93214  -0.00088  -0.00351  -0.00144  -0.00495   2.92719
    R5        2.53165   0.00317   0.00927   0.00300   0.01227   2.54392
    R6        2.57837  -0.00112  -0.00132  -0.00140  -0.00273   2.57564
    R7        2.58709  -0.00050  -0.00640  -0.00032  -0.00672   2.58037
    R8        1.82236  -0.00048  -0.00056  -0.00041  -0.00098   1.82138
    A1        1.90222  -0.00020   0.00079  -0.00280  -0.00201   1.90020
    A2        1.89685   0.00020  -0.00189   0.00393   0.00205   1.89890
    A3        1.92605  -0.00005   0.00214  -0.00229  -0.00015   1.92590
    A4        1.90005   0.00009  -0.00040   0.00173   0.00133   1.90138
    A5        1.93170   0.00003  -0.00057  -0.00060  -0.00117   1.93053
    A6        1.90645  -0.00007  -0.00014   0.00017   0.00003   1.90648
    A7        1.99291  -0.00170  -0.00121  -0.00828  -0.00953   1.98338
    A8        1.86186   0.00111  -0.00008   0.00424   0.00408   1.86594
    A9        1.89652  -0.00030   0.00353  -0.00088   0.00263   1.89915
   A10        1.93466  -0.00026  -0.00906   0.00038  -0.00872   1.92595
   A11        1.82729   0.00152   0.00180   0.00747   0.00929   1.83658
   A12        1.95227  -0.00045   0.00568  -0.00331   0.00233   1.95459
   A13        1.88724   0.00034   0.00220   0.00206   0.00426   1.89150
    D1        1.01463   0.00060   0.00710   0.01531   0.02239   1.03702
    D2       -3.12517  -0.00002  -0.00536   0.01353   0.00818  -3.11699
    D3       -1.01758  -0.00008   0.00323   0.01152   0.01477  -1.00282
    D4        3.12175   0.00034   0.00913   0.00989   0.01900   3.14075
    D5       -1.01805  -0.00028  -0.00333   0.00811   0.00479  -1.01326
    D6        1.08954  -0.00034   0.00526   0.00611   0.01138   1.10091
    D7       -1.06969   0.00043   0.00820   0.01176   0.01994  -1.04975
    D8        1.07369  -0.00020  -0.00426   0.00998   0.00573   1.07942
    D9       -3.10191  -0.00026   0.00433   0.00798   0.01232  -3.08959
   D10       -3.13677  -0.00061   0.00810   0.00403   0.01212  -3.12464
   D11        1.01036   0.00068   0.00669   0.01002   0.01669   1.02705
   D12       -1.08591   0.00030   0.01343   0.00673   0.02020  -1.06571
         Item               Value     Threshold  Converged?
 Maximum Force            0.003171     0.000450     NO 
 RMS     Force            0.000938     0.000300     NO 
 Maximum Displacement     0.032234     0.001800     NO 
 RMS     Displacement     0.008587     0.001200     NO 
 Predicted change in Energy=-6.426254D-05
 GradGradGradGradGradGradGradGradGradGradGradGradGradGradGradGradGradGrad

                          Input orientation:                          
 ---------------------------------------------------------------------
 Center     Atomic      Atomic             Coordinates (Angstroms)
 Number     Number       Type             X           Y           Z
 ---------------------------------------------------------------------
      1          6           0       -0.485383   -0.006277    0.063538
      2          9           0       -1.184093   -0.392529   -0.995482
      3          9           0       -0.934044   -0.651570    1.132346
      4          8           0        1.541079    0.335045   -1.225207
      5          9           0       -0.663539    1.300571    0.241532
      6          9           0        1.666065    0.100794    0.982834
      7          6           0        1.021808   -0.291035   -0.152546
      8          8           0        1.187088   -1.623649   -0.400219
      9          1           0        2.127934   -1.796316   -0.518407
 ---------------------------------------------------------------------
                    Distance matrix (angstroms):
                    1          2          3          4          5
     1  C    0.000000
     2  F    1.326239   0.000000
     3  F    1.326669   2.158073   0.000000
     4  O    2.425678   2.829964   3.557766   0.000000
     5  F    1.330892   2.160502   2.162770   2.818493   0.000000
     6  F    2.342071   3.504355   2.710899   2.223947   2.723241
     7  C    1.549001   2.363650   2.367761   1.346187   2.351361
     8  O    2.372366   2.737241   2.791576   2.154622   3.519619
     9  H    3.220610   3.628738   3.662123   2.320919   4.237987
                    6          7          8          9
     6  F    0.000000
     7  C    1.362969   0.000000
     8  O    2.261848   1.365474   0.000000
     9  H    2.462940   1.903481   0.963833   0.000000
 Stoichiometry    C2HF4O2(2)
 Framework group  C1[X(C2HF4O2)]
 Deg. of freedom    21
 Full point group                 C1      NOp   1
 Largest Abelian subgroup         C1      NOp   1
 Largest concise Abelian subgroup C1      NOp   1
                         Standard orientation:                         
 ---------------------------------------------------------------------
 Center     Atomic      Atomic             Coordinates (Angstroms)
 Number     Number       Type             X           Y           Z
 ---------------------------------------------------------------------
      1          6           0        0.770287    0.029018    0.003023
      2          9           0        1.201098    1.229827   -0.359426
      3          9           0        1.205894   -0.231256    1.228810
      4          8           0       -1.285389    0.230292   -1.268825
      5          9           0        1.269954   -0.876690   -0.834412
      6          9           0       -1.143009   -1.272543    0.364317
      7          6           0       -0.776841   -0.026481   -0.049127
      8          8           0       -1.280088    0.949830    0.762094
      9          1           0       -2.242289    0.899751    0.736874
 ---------------------------------------------------------------------
 Rotational constants (GHZ):           2.9120390           1.9079276           1.8460574
 Standard basis: 6-311+G(2d,2p) (5D, 7F)
 There are   241 symmetry adapted cartesian basis functions of A   symmetry.
 There are   225 symmetry adapted basis functions of A   symmetry.
   225 basis functions,   347 primitive gaussians,   241 cartesian basis functions
    33 alpha electrons       32 beta electrons
       nuclear repulsion energy       448.6043649176 Hartrees.
 NAtoms=    9 NActive=    9 NUniq=    9 SFac= 1.00D+00 NAtFMM=   60 NAOKFM=F Big=F
 Integral buffers will be    131072 words long.
 Raffenetti 2 integral format.
 Two-electron integral symmetry is turned on.
 Nuclear repulsion after empirical dispersion term =      448.6017906350 Hartrees.
 One-electron integrals computed using PRISM.
 NBasis=   225 RedAO= T EigKep=  1.05D-04  NBF=   225
 NBsUse=   225 1.00D-06 EigRej= -1.00D+00 NBFU=   225
 Initial guess from the checkpoint file:  "tfcof_oh.chk"
 B after Tr=    -0.000000   -0.000000    0.000000
         Rot=    0.999907    0.013564    0.000192    0.001634 Ang=   1.57 deg.
 Initial guess <Sx>= 0.0000 <Sy>= 0.0000 <Sz>= 0.5000 <S**2>= 0.7547 S= 0.5023
 ExpMin= 4.38D-02 ExpMax= 1.14D+04 ExpMxC= 1.72D+03 IAcc=3 IRadAn=         5 AccDes= 0.00D+00
 Harris functional with IExCor= 4639 and IRadAn=       5 diagonalized for initial guess.
 HarFok:  IExCor= 4639 AccDes= 0.00D+00 IRadAn=         5 IDoV= 1 UseB2=F ITyADJ=14
 ICtDFT=  3500011 ScaDFX=  1.000000  1.000000  1.000000  1.000000
 FoFCou: FMM=F IPFlag=           0 FMFlag=      100000 FMFlg1=           0
         NFxFlg=           0 DoJE=T BraDBF=F KetDBF=T FulRan=T
         wScrn=  0.000000 ICntrl=       500 IOpCl=  0 I1Cent=   200000004 NGrid=           0
         NMat0=    1 NMatS0=      1 NMatT0=    0 NMatD0=    1 NMtDS0=    0 NMtDT0=    0
 Petite list used in FoFCou.
 Keep R1 and R2 ints in memory in canonical form, NReq=1318693155.
 Requested convergence on RMS density matrix=1.00D-08 within  32 cycles.
 Requested convergence on MAX density matrix=1.00D-06.
 Requested convergence on             energy=1.00D-06.
 No special actions if energy rises.
 SCF Done:  E(UwB97XD) =  -626.591036319     A.U. after   17 cycles
            NFock= 17  Conv=0.84D-08     -V/T= 2.0026
 <Sx>= 0.0000 <Sy>= 0.0000 <Sz>= 0.5000 <S**2>= 0.7546 S= 0.5023
 <L.S>= 0.000000000000E+00
 Annihilation of the first spin contaminant:
 S**2 before annihilation     0.7546,   after     0.7500
 QCSCF skips out because SCF is already converged.
 Calling FoFJK, ICntrl=      2127 FMM=F ISym2X=0 I1Cent= 0 IOpClX= 1 NMat=1 NMatS=1 NMatT=0.
 ***** Axes restored to original set *****
 -------------------------------------------------------------------
 Center     Atomic                   Forces (Hartrees/Bohr)
 Number     Number              X              Y              Z
 -------------------------------------------------------------------
      1        6           0.000644217    0.000176008   -0.000714676
      2        9          -0.000174098    0.000191643   -0.000020632
      3        9          -0.000522716   -0.000006886    0.000491027
      4        8          -0.000302078    0.000448850   -0.000396965
      5        9          -0.000185813   -0.000404821   -0.000008362
      6        9           0.000018563   -0.000393527   -0.000270718
      7        6           0.000616433    0.000120414    0.000589698
      8        8           0.000028867   -0.000231751    0.000251337
      9        1          -0.000123375    0.000100069    0.000079291
 -------------------------------------------------------------------
 Cartesian Forces:  Max     0.000714676 RMS     0.000349992

 GradGradGradGradGradGradGradGradGradGradGradGradGradGradGradGradGradGrad
 Berny optimization.
 Using GEDIIS/GDIIS optimizer.
 FormGI is forming the generalized inverse of G from B-inverse, IUseBI=4.
 Internal  Forces:  Max     0.000734434 RMS     0.000308859
 Search for a local minimum.
 Step number   5 out of a maximum of   43
 All quantities printed in internal units (Hartrees-Bohrs-Radians)
 Mixed Optimization -- En-DIIS/RFO-DIIS
 Swapping is turned off.
 Update second derivatives using D2CorX and points    1    2    3    4    5
 DE= -7.15D-05 DEPred=-6.43D-05 R= 1.11D+00
 TightC=F SS=  1.41D+00  RLast= 5.73D-02 DXNew= 8.4853D-01 1.7184D-01
 Trust test= 1.11D+00 RLast= 5.73D-02 DXMaxT set to 5.05D-01
 ITU=  1  1  1  1  0
     Eigenvalues ---    0.00239   0.01211   0.07438   0.08007   0.08742
     Eigenvalues ---    0.09088   0.15925   0.17788   0.19655   0.24974
     Eigenvalues ---    0.25195   0.25372   0.28143   0.29113   0.34459
     Eigenvalues ---    0.51910   0.54326   0.55074   0.55570   0.56525
     Eigenvalues ---    0.58334
 En-DIIS/RFO-DIIS/Sim-DIIS IScMMF=       -3 using points:     5    4
 RFO step:  Lambda=-1.33055732D-05.
 DidBck=F Rises=F RFO-DIIS coefs:    1.01786   -0.01786
 Iteration  1 RMS(Cart)=  0.00297930 RMS(Int)=  0.00000501
 Iteration  2 RMS(Cart)=  0.00000496 RMS(Int)=  0.00000091
 Iteration  3 RMS(Cart)=  0.00000000 RMS(Int)=  0.00000091
 Variable       Old X    -DE/DX   Delta X   Delta X   Delta X     New X
                                 (Linear)    (Quad)   (Total)
    R1        2.50623   0.00005   0.00005   0.00030   0.00036   2.50659
    R2        2.50704   0.00058   0.00006   0.00123   0.00128   2.50833
    R3        2.51502  -0.00037   0.00005  -0.00045  -0.00040   2.51462
    R4        2.92719   0.00019  -0.00009   0.00028   0.00019   2.92738
    R5        2.54392   0.00041   0.00022   0.00146   0.00168   2.54560
    R6        2.57564  -0.00033  -0.00005  -0.00093  -0.00098   2.57466
    R7        2.58037   0.00006  -0.00012  -0.00039  -0.00051   2.57986
    R8        1.82138  -0.00015  -0.00002  -0.00029  -0.00030   1.82108
    A1        1.90020  -0.00028  -0.00004  -0.00005  -0.00009   1.90011
    A2        1.89890  -0.00032   0.00004  -0.00163  -0.00159   1.89731
    A3        1.92590   0.00019  -0.00000   0.00068   0.00068   1.92657
    A4        1.90138  -0.00046   0.00002  -0.00187  -0.00184   1.89954
    A5        1.93053   0.00063  -0.00002   0.00248   0.00246   1.93299
    A6        1.90648   0.00021   0.00000   0.00028   0.00028   1.90676
    A7        1.98338  -0.00073  -0.00017  -0.00424  -0.00441   1.97898
    A8        1.86594   0.00048   0.00007   0.00266   0.00273   1.86867
    A9        1.89915  -0.00006   0.00005   0.00044   0.00048   1.89964
   A10        1.92595   0.00016  -0.00016  -0.00024  -0.00039   1.92555
   A11        1.83658   0.00048   0.00017   0.00246   0.00263   1.83921
   A12        1.95459  -0.00036   0.00004  -0.00125  -0.00121   1.95338
   A13        1.89150  -0.00015   0.00008  -0.00012  -0.00005   1.89145
    D1        1.03702  -0.00010   0.00040  -0.00298  -0.00258   1.03444
    D2       -3.11699  -0.00003   0.00015  -0.00408  -0.00394  -3.12093
    D3       -1.00282  -0.00021   0.00026  -0.00379  -0.00353  -1.00635
    D4        3.14075   0.00009   0.00034  -0.00098  -0.00064   3.14011
    D5       -1.01326   0.00015   0.00009  -0.00208  -0.00200  -1.01526
    D6        1.10091  -0.00003   0.00020  -0.00179  -0.00159   1.09933
    D7       -1.04975   0.00004   0.00036  -0.00158  -0.00122  -1.05097
    D8        1.07942   0.00011   0.00010  -0.00267  -0.00257   1.07685
    D9       -3.08959  -0.00007   0.00022  -0.00238  -0.00216  -3.09175
   D10       -3.12464  -0.00029   0.00022   0.00155   0.00177  -3.12287
   D11        1.02705   0.00033   0.00030   0.00493   0.00522   1.03228
   D12       -1.06571   0.00004   0.00036   0.00436   0.00472  -1.06099
         Item               Value     Threshold  Converged?
 Maximum Force            0.000734     0.000450     NO 
 RMS     Force            0.000309     0.000300     NO 
 Maximum Displacement     0.007770     0.001800     NO 
 RMS     Displacement     0.002980     0.001200     NO 
 Predicted change in Energy=-6.655205D-06
 GradGradGradGradGradGradGradGradGradGradGradGradGradGradGradGradGradGrad

                          Input orientation:                          
 ---------------------------------------------------------------------
 Center     Atomic      Atomic             Coordinates (Angstroms)
 Number     Number       Type             X           Y           Z
 ---------------------------------------------------------------------
      1          6           0       -0.484960   -0.006895    0.063399
      2          9           0       -1.183982   -0.389837   -0.996853
      3          9           0       -0.937342   -0.651919    1.131644
      4          8           0        1.536967    0.337023   -1.226754
      5          9           0       -0.663127    1.299521    0.242967
      6          9           0        1.669612    0.100211    0.980564
      7          6           0        1.022337   -0.291868   -0.152388
      8          8           0        1.188234   -1.624337   -0.398936
      9          1           0        2.129175   -1.796865   -0.515252
 ---------------------------------------------------------------------
                    Distance matrix (angstroms):
                    1          2          3          4          5
     1  C    0.000000
     2  F    1.326428   0.000000
     3  F    1.327349   2.158708   0.000000
     4  O    2.423007   2.825730   3.558406   0.000000
     5  F    1.330680   2.159253   2.161726   2.815475   0.000000
     6  F    2.344109   3.506184   2.717486   2.223945   2.724714
     7  C    1.549103   2.364438   2.370383   1.347075   2.351513
     8  O    2.372646   2.740238   2.793983   2.157274   3.519732
     9  H    3.220641   3.631622   3.664245   2.326032   4.237859
                    6          7          8          9
     6  F    0.000000
     7  C    1.362451   0.000000
     8  O    2.260268   1.365203   0.000000
     9  H    2.459179   1.903096   0.963673   0.000000
 Stoichiometry    C2HF4O2(2)
 Framework group  C1[X(C2HF4O2)]
 Deg. of freedom    21
 Full point group                 C1      NOp   1
 Largest Abelian subgroup         C1      NOp   1
 Largest concise Abelian subgroup C1      NOp   1
                         Standard orientation:                         
 ---------------------------------------------------------------------
 Center     Atomic      Atomic             Coordinates (Angstroms)
 Number     Number       Type             X           Y           Z
 ---------------------------------------------------------------------
      1          6           0        0.769623    0.028474    0.004114
      2          9           0        1.202519    1.228972   -0.357572
      3          9           0        1.208027   -0.234867    1.228985
      4          8           0       -1.280553    0.236155   -1.270487
      5          9           0        1.269016   -0.875875   -0.834616
      6          9           0       -1.148254   -1.271849    0.358731
      7          6           0       -0.777639   -0.025637   -0.048540
      8          8           0       -1.280803    0.947441    0.766153
      9          1           0       -2.242827    0.896784    0.741482
 ---------------------------------------------------------------------
 Rotational constants (GHZ):           2.9123400           1.9060289           1.8455092
 Standard basis: 6-311+G(2d,2p) (5D, 7F)
 There are   241 symmetry adapted cartesian basis functions of A   symmetry.
 There are   225 symmetry adapted basis functions of A   symmetry.
   225 basis functions,   347 primitive gaussians,   241 cartesian basis functions
    33 alpha electrons       32 beta electrons
       nuclear repulsion energy       448.5317452093 Hartrees.
 NAtoms=    9 NActive=    9 NUniq=    9 SFac= 1.00D+00 NAtFMM=   60 NAOKFM=F Big=F
 Integral buffers will be    131072 words long.
 Raffenetti 2 integral format.
 Two-electron integral symmetry is turned on.
 Nuclear repulsion after empirical dispersion term =      448.5291696549 Hartrees.
 One-electron integrals computed using PRISM.
 NBasis=   225 RedAO= T EigKep=  1.05D-04  NBF=   225
 NBsUse=   225 1.00D-06 EigRej= -1.00D+00 NBFU=   225
 Initial guess from the checkpoint file:  "tfcof_oh.chk"
 B after Tr=     0.000000    0.000000   -0.000000
         Rot=    0.999999   -0.001395    0.000340    0.000606 Ang=  -0.18 deg.
 Initial guess <Sx>= 0.0000 <Sy>= 0.0000 <Sz>= 0.5000 <S**2>= 0.7546 S= 0.5023
 Keep R1 and R2 ints in memory in canonical form, NReq=1318693155.
 Requested convergence on RMS density matrix=1.00D-08 within  32 cycles.
 Requested convergence on MAX density matrix=1.00D-06.
 Requested convergence on             energy=1.00D-06.
 No special actions if energy rises.
 SCF Done:  E(UwB97XD) =  -626.591043183     A.U. after   16 cycles
            NFock= 16  Conv=0.50D-08     -V/T= 2.0026
 <Sx>= 0.0000 <Sy>= 0.0000 <Sz>= 0.5000 <S**2>= 0.7545 S= 0.5023
 <L.S>= 0.000000000000E+00
 Annihilation of the first spin contaminant:
 S**2 before annihilation     0.7545,   after     0.7500
 QCSCF skips out because SCF is already converged.
 Calling FoFJK, ICntrl=      2127 FMM=F ISym2X=0 I1Cent= 0 IOpClX= 1 NMat=1 NMatS=1 NMatT=0.
 ***** Axes restored to original set *****
 -------------------------------------------------------------------
 Center     Atomic                   Forces (Hartrees/Bohr)
 Number     Number              X              Y              Z
 -------------------------------------------------------------------
      1        6          -0.000209715    0.000212049   -0.000162291
      2        9           0.000143325   -0.000097804    0.000102738
      3        9          -0.000040793   -0.000086638    0.000041224
      4        8          -0.000139180    0.000006456   -0.000136632
      5        9           0.000098757   -0.000050640    0.000015311
      6        9          -0.000150516   -0.000187537   -0.000060878
      7        6           0.000404019    0.000232599    0.000151893
      8        8          -0.000116239   -0.000095374    0.000032081
      9        1           0.000010342    0.000066888    0.000016553
 -------------------------------------------------------------------
 Cartesian Forces:  Max     0.000404019 RMS     0.000142449

 GradGradGradGradGradGradGradGradGradGradGradGradGradGradGradGradGradGrad
 Berny optimization.
 Using GEDIIS/GDIIS optimizer.
 FormGI is forming the generalized inverse of G from B-inverse, IUseBI=4.
 Internal  Forces:  Max     0.000176116 RMS     0.000090405
 Search for a local minimum.
 Step number   6 out of a maximum of   43
 All quantities printed in internal units (Hartrees-Bohrs-Radians)
 Mixed Optimization -- En-DIIS/RFO-DIIS
 Swapping is turned off.
 Update second derivatives using D2CorX and points    1    2    3    4    5
                                                      6
 DE= -6.86D-06 DEPred=-6.66D-06 R= 1.03D+00
 TightC=F SS=  1.41D+00  RLast= 1.27D-02 DXNew= 8.4853D-01 3.8110D-02
 Trust test= 1.03D+00 RLast= 1.27D-02 DXMaxT set to 5.05D-01
 ITU=  1  1  1  1  1  0
     Eigenvalues ---    0.00242   0.01199   0.07874   0.08089   0.08759
     Eigenvalues ---    0.09429   0.15476   0.16144   0.18619   0.24919
     Eigenvalues ---    0.25113   0.25580   0.27942   0.30970   0.34293
     Eigenvalues ---    0.50438   0.54557   0.55301   0.55909   0.56502
     Eigenvalues ---    0.58692
 En-DIIS/RFO-DIIS/Sim-DIIS IScMMF=       -3 using points:     6    5    4
 RFO step:  Lambda=-1.56659976D-06.
 DidBck=T Rises=F RFO-DIIS coefs:    0.75938    0.32824   -0.08763
 Iteration  1 RMS(Cart)=  0.00125461 RMS(Int)=  0.00000134
 Iteration  2 RMS(Cart)=  0.00000084 RMS(Int)=  0.00000104
 Variable       Old X    -DE/DX   Delta X   Delta X   Delta X     New X
                                 (Linear)    (Quad)   (Total)
    R1        2.50659  -0.00013   0.00017  -0.00030  -0.00013   2.50646
    R2        2.50833   0.00009  -0.00004   0.00032   0.00028   2.50860
    R3        2.51462  -0.00006   0.00034  -0.00043  -0.00009   2.51453
    R4        2.92738   0.00000  -0.00048   0.00049   0.00001   2.92739
    R5        2.54560   0.00006   0.00067  -0.00078  -0.00011   2.54549
    R6        2.57466  -0.00018  -0.00000  -0.00038  -0.00039   2.57427
    R7        2.57986   0.00001  -0.00047   0.00064   0.00018   2.58004
    R8        1.82108  -0.00000  -0.00001  -0.00002  -0.00003   1.82104
    A1        1.90011   0.00001  -0.00015  -0.00005  -0.00020   1.89991
    A2        1.89731   0.00017   0.00056   0.00006   0.00062   1.89793
    A3        1.92657  -0.00017  -0.00018  -0.00043  -0.00061   1.92597
    A4        1.89954   0.00006   0.00056  -0.00036   0.00020   1.89974
    A5        1.93299   0.00003  -0.00069   0.00087   0.00017   1.93317
    A6        1.90676  -0.00010  -0.00006  -0.00010  -0.00017   1.90660
    A7        1.97898  -0.00015   0.00023  -0.00120  -0.00097   1.97800
    A8        1.86867   0.00001  -0.00030   0.00065   0.00035   1.86902
    A9        1.89964  -0.00007   0.00011  -0.00059  -0.00048   1.89916
   A10        1.92555   0.00016  -0.00067   0.00177   0.00110   1.92665
   A11        1.83921   0.00008   0.00018   0.00021   0.00039   1.83960
   A12        1.95338  -0.00004   0.00050  -0.00093  -0.00044   1.95294
   A13        1.89145  -0.00013   0.00038  -0.00102  -0.00063   1.89082
    D1        1.03444  -0.00000   0.00258  -0.00071   0.00188   1.03631
    D2       -3.12093   0.00011   0.00166   0.00122   0.00289  -3.11805
    D3       -1.00635   0.00003   0.00214   0.00015   0.00229  -1.00405
    D4        3.14011  -0.00008   0.00182  -0.00048   0.00134   3.14145
    D5       -1.01526   0.00003   0.00090   0.00145   0.00235  -1.01291
    D6        1.09933  -0.00004   0.00138   0.00038   0.00176   1.10108
    D7       -1.05097  -0.00005   0.00204  -0.00045   0.00159  -1.04938
    D8        1.07685   0.00007   0.00112   0.00148   0.00260   1.07945
    D9       -3.09175  -0.00001   0.00160   0.00041   0.00201  -3.08975
   D10       -3.12287  -0.00004   0.00064  -0.00055   0.00009  -3.12279
   D11        1.03228   0.00013   0.00021   0.00107   0.00127   1.03355
   D12       -1.06099  -0.00009   0.00063  -0.00069  -0.00006  -1.06105
         Item               Value     Threshold  Converged?
 Maximum Force            0.000176     0.000450     YES
 RMS     Force            0.000090     0.000300     YES
 Maximum Displacement     0.003266     0.001800     NO 
 RMS     Displacement     0.001255     0.001200     NO 
 Predicted change in Energy=-7.686883D-07
 GradGradGradGradGradGradGradGradGradGradGradGradGradGradGradGradGradGrad

                          Input orientation:                          
 ---------------------------------------------------------------------
 Center     Atomic      Atomic             Coordinates (Angstroms)
 Number     Number       Type             X           Y           Z
 ---------------------------------------------------------------------
      1          6           0       -0.484791   -0.006743    0.063435
      2          9           0       -1.183108   -0.391565   -0.996519
      3          9           0       -0.937335   -0.650882    1.132328
      4          8           0        1.536282    0.338165   -1.226268
      5          9           0       -0.662983    1.299822    0.241509
      6          9           0        1.669716    0.098528    0.981334
      7          6           0        1.022560   -0.291664   -0.152092
      8          8           0        1.187795   -1.624125   -0.399646
      9          1           0        2.128779   -1.796503   -0.515691
 ---------------------------------------------------------------------
                    Distance matrix (angstroms):
                    1          2          3          4          5
     1  C    0.000000
     2  F    1.326362   0.000000
     3  F    1.327496   2.158620   0.000000
     4  O    2.422196   2.824956   3.558086   0.000000
     5  F    1.330630   2.159638   2.161961   2.813525   0.000000
     6  F    2.344254   3.505810   2.716824   2.224576   2.726158
     7  C    1.549109   2.363897   2.370646   1.347015   2.351341
     8  O    2.372322   2.738000   2.794697   2.157621   3.519365
     9  H    3.220151   3.629551   3.664624   2.326538   4.237277
                    6          7          8          9
     6  F    0.000000
     7  C    1.362247   0.000000
     8  O    2.259842   1.365297   0.000000
     9  H    2.458244   1.902752   0.963655   0.000000
 Stoichiometry    C2HF4O2(2)
 Framework group  C1[X(C2HF4O2)]
 Deg. of freedom    21
 Full point group                 C1      NOp   1
 Largest Abelian subgroup         C1      NOp   1
 Largest concise Abelian subgroup C1      NOp   1
                         Standard orientation:                         
 ---------------------------------------------------------------------
 Center     Atomic      Atomic             Coordinates (Angstroms)
 Number     Number       Type             X           Y           Z
 ---------------------------------------------------------------------
      1          6           0        0.769560    0.028273    0.004095
      2          9           0        1.201470    1.230231   -0.353657
      3          9           0        1.208231   -0.238446    1.228298
      4          8           0       -1.279308    0.237752   -1.270773
      5          9           0        1.268898   -0.873449   -0.837413
      6          9           0       -1.148662   -1.272061    0.357764
      7          6           0       -0.777698   -0.025932   -0.048764
      8          8           0       -1.280461    0.946484    0.767124
      9          1           0       -2.242450    0.895597    0.742278
 ---------------------------------------------------------------------
 Rotational constants (GHZ):           2.9118482           1.9065000           1.8461247
 Standard basis: 6-311+G(2d,2p) (5D, 7F)
 There are   241 symmetry adapted cartesian basis functions of A   symmetry.
 There are   225 symmetry adapted basis functions of A   symmetry.
   225 basis functions,   347 primitive gaussians,   241 cartesian basis functions
    33 alpha electrons       32 beta electrons
       nuclear repulsion energy       448.5528224815 Hartrees.
 NAtoms=    9 NActive=    9 NUniq=    9 SFac= 1.00D+00 NAtFMM=   60 NAOKFM=F Big=F
 Integral buffers will be    131072 words long.
 Raffenetti 2 integral format.
 Two-electron integral symmetry is turned on.
 Nuclear repulsion after empirical dispersion term =      448.5502472258 Hartrees.
 One-electron integrals computed using PRISM.
 NBasis=   225 RedAO= T EigKep=  1.05D-04  NBF=   225
 NBsUse=   225 1.00D-06 EigRej= -1.00D+00 NBFU=   225
 Initial guess from the checkpoint file:  "tfcof_oh.chk"
 B after Tr=    -0.000000   -0.000000   -0.000000
         Rot=    0.999999   -0.001013    0.000039   -0.000009 Ang=  -0.12 deg.
 Initial guess <Sx>= 0.0000 <Sy>= 0.0000 <Sz>= 0.5000 <S**2>= 0.7545 S= 0.5023
 Keep R1 and R2 ints in memory in canonical form, NReq=1318693155.
 Requested convergence on RMS density matrix=1.00D-08 within  32 cycles.
 Requested convergence on MAX density matrix=1.00D-06.
 Requested convergence on             energy=1.00D-06.
 No special actions if energy rises.
 SCF Done:  E(UwB97XD) =  -626.591043946     A.U. after   15 cycles
            NFock= 15  Conv=0.46D-08     -V/T= 2.0026
 <Sx>= 0.0000 <Sy>= 0.0000 <Sz>= 0.5000 <S**2>= 0.7545 S= 0.5023
 <L.S>= 0.000000000000E+00
 Annihilation of the first spin contaminant:
 S**2 before annihilation     0.7545,   after     0.7500
 QCSCF skips out because SCF is already converged.
 Calling FoFJK, ICntrl=      2127 FMM=F ISym2X=0 I1Cent= 0 IOpClX= 1 NMat=1 NMatS=1 NMatT=0.
 ***** Axes restored to original set *****
 -------------------------------------------------------------------
 Center     Atomic                   Forces (Hartrees/Bohr)
 Number     Number              X              Y              Z
 -------------------------------------------------------------------
      1        6          -0.000107342    0.000053754   -0.000061243
      2        9           0.000044423    0.000005855    0.000080246
      3        9          -0.000007982    0.000010441   -0.000019824
      4        8           0.000007927   -0.000022359   -0.000078558
      5        9           0.000010981   -0.000057736    0.000008549
      6        9          -0.000052675   -0.000062632   -0.000066777
      7        6           0.000070765    0.000100697    0.000165862
      8        8           0.000004475   -0.000021594   -0.000031217
      9        1           0.000029427   -0.000006426    0.000002961
 -------------------------------------------------------------------
 Cartesian Forces:  Max     0.000165862 RMS     0.000058887

 GradGradGradGradGradGradGradGradGradGradGradGradGradGradGradGradGradGrad
 Berny optimization.
 Using GEDIIS/GDIIS optimizer.
 FormGI is forming the generalized inverse of G from B-inverse, IUseBI=4.
 Internal  Forces:  Max     0.000098539 RMS     0.000035110
 Search for a local minimum.
 Step number   7 out of a maximum of   43
 All quantities printed in internal units (Hartrees-Bohrs-Radians)
 Mixed Optimization -- En-DIIS/RFO-DIIS
 Swapping is turned off.
 Update second derivatives using D2CorX and points    1    2    3    4    5
                                                      6    7
 DE= -7.63D-07 DEPred=-7.69D-07 R= 9.93D-01
 Trust test= 9.93D-01 RLast= 6.84D-03 DXMaxT set to 5.05D-01
 ITU=  0  1  1  1  1  1  0
     Eigenvalues ---    0.00249   0.01187   0.07238   0.08017   0.08784
     Eigenvalues ---    0.09322   0.15927   0.16571   0.18868   0.24691
     Eigenvalues ---    0.25054   0.26246   0.29263   0.32906   0.34192
     Eigenvalues ---    0.49155   0.54774   0.55180   0.56048   0.56268
     Eigenvalues ---    0.58376
 En-DIIS/RFO-DIIS/Sim-DIIS IScMMF=       -3 using points:     7    6    5    4
 RFO step:  Lambda=-1.56488263D-07.
 DidBck=F Rises=F RFO-DIIS coefs:    1.18744   -0.12995   -0.06797    0.01047
 Iteration  1 RMS(Cart)=  0.00020003 RMS(Int)=  0.00000018
 Iteration  2 RMS(Cart)=  0.00000003 RMS(Int)=  0.00000017
 Variable       Old X    -DE/DX   Delta X   Delta X   Delta X     New X
                                 (Linear)    (Quad)   (Total)
    R1        2.50646  -0.00009  -0.00003  -0.00013  -0.00017   2.50630
    R2        2.50860  -0.00002   0.00009  -0.00009   0.00001   2.50861
    R3        2.51453  -0.00006  -0.00007  -0.00004  -0.00011   2.51442
    R4        2.92739   0.00006   0.00007   0.00015   0.00022   2.92761
    R5        2.54549   0.00006  -0.00005   0.00008   0.00003   2.54552
    R6        2.57427  -0.00010  -0.00010  -0.00013  -0.00023   2.57404
    R7        2.58004   0.00004   0.00007   0.00006   0.00014   2.58018
    R8        1.82104   0.00003  -0.00001   0.00006   0.00005   1.82109
    A1        1.89991  -0.00002  -0.00002  -0.00012  -0.00014   1.89977
    A2        1.89793   0.00001   0.00000   0.00016   0.00016   1.89809
    A3        1.92597  -0.00000  -0.00007   0.00004  -0.00003   1.92593
    A4        1.89974  -0.00001  -0.00008   0.00001  -0.00007   1.89967
    A5        1.93317   0.00002   0.00019  -0.00011   0.00007   1.93324
    A6        1.90660  -0.00000  -0.00002   0.00003   0.00001   1.90661
    A7        1.97800   0.00000  -0.00034   0.00023  -0.00010   1.97790
    A8        1.86902  -0.00000   0.00018  -0.00004   0.00014   1.86915
    A9        1.89916   0.00004  -0.00009   0.00014   0.00006   1.89921
   A10        1.92665   0.00003   0.00027   0.00012   0.00039   1.92704
   A11        1.83960  -0.00005   0.00013  -0.00044  -0.00031   1.83929
   A12        1.95294  -0.00003  -0.00018  -0.00001  -0.00019   1.95275
   A13        1.89082   0.00000  -0.00017   0.00012  -0.00004   1.89078
    D1        1.03631  -0.00002  -0.00003  -0.00007  -0.00010   1.03621
    D2       -3.11805   0.00002   0.00023   0.00020   0.00042  -3.11762
    D3       -1.00405   0.00002   0.00007   0.00024   0.00031  -1.00374
    D4        3.14145  -0.00003   0.00002  -0.00027  -0.00025   3.14120
    D5       -1.01291   0.00001   0.00028  -0.00000   0.00027  -1.01264
    D6        1.10108   0.00001   0.00012   0.00004   0.00016   1.10124
    D7       -1.04938  -0.00003   0.00002  -0.00031  -0.00029  -1.04967
    D8        1.07945   0.00001   0.00028  -0.00004   0.00024   1.07968
    D9       -3.08975   0.00000   0.00012   0.00000   0.00012  -3.08962
   D10       -3.12279  -0.00000  -0.00001   0.00026   0.00025  -3.12254
   D11        1.03355   0.00000   0.00036   0.00015   0.00052   1.03407
   D12       -1.06105   0.00001   0.00005   0.00029   0.00034  -1.06071
         Item               Value     Threshold  Converged?
 Maximum Force            0.000099     0.000450     YES
 RMS     Force            0.000035     0.000300     YES
 Maximum Displacement     0.000620     0.001800     YES
 RMS     Displacement     0.000200     0.001200     YES
 Predicted change in Energy=-7.818160D-08
 Optimization completed.
    -- Stationary point found.
                           ----------------------------
                           !   Optimized Parameters   !
                           ! (Angstroms and Degrees)  !
 --------------------------                            --------------------------
 ! Name  Definition              Value          Derivative Info.                !
 --------------------------------------------------------------------------------
 ! R1    R(1,2)                  1.3264         -DE/DX =   -0.0001              !
 ! R2    R(1,3)                  1.3275         -DE/DX =    0.0                 !
 ! R3    R(1,5)                  1.3306         -DE/DX =   -0.0001              !
 ! R4    R(1,7)                  1.5491         -DE/DX =    0.0001              !
 ! R5    R(4,7)                  1.347          -DE/DX =    0.0001              !
 ! R6    R(6,7)                  1.3622         -DE/DX =   -0.0001              !
 ! R7    R(7,8)                  1.3653         -DE/DX =    0.0                 !
 ! R8    R(8,9)                  0.9637         -DE/DX =    0.0                 !
 ! A1    A(2,1,3)              108.8569         -DE/DX =    0.0                 !
 ! A2    A(2,1,5)              108.7433         -DE/DX =    0.0                 !
 ! A3    A(2,1,7)              110.3498         -DE/DX =    0.0                 !
 ! A4    A(3,1,5)              108.8471         -DE/DX =    0.0                 !
 ! A5    A(3,1,7)              110.7623         -DE/DX =    0.0                 !
 ! A6    A(5,1,7)              109.2399         -DE/DX =    0.0                 !
 ! A7    A(1,7,4)              113.3313         -DE/DX =    0.0                 !
 ! A8    A(1,7,6)              107.0867         -DE/DX =    0.0                 !
 ! A9    A(1,7,8)              108.8137         -DE/DX =    0.0                 !
 ! A10   A(4,7,6)              110.3889         -DE/DX =    0.0                 !
 ! A11   A(4,7,8)              105.4014         -DE/DX =    0.0                 !
 ! A12   A(6,7,8)              111.8953         -DE/DX =    0.0                 !
 ! A13   A(7,8,9)              108.3361         -DE/DX =    0.0                 !
 ! D1    D(2,1,7,4)             59.3763         -DE/DX =    0.0                 !
 ! D2    D(2,1,7,6)           -178.651          -DE/DX =    0.0                 !
 ! D3    D(2,1,7,8)            -57.528          -DE/DX =    0.0                 !
 ! D4    D(3,1,7,4)            179.9917         -DE/DX =    0.0                 !
 ! D5    D(3,1,7,6)            -58.0355         -DE/DX =    0.0                 !
 ! D6    D(3,1,7,8)             63.0874         -DE/DX =    0.0                 !
 ! D7    D(5,1,7,4)            -60.1251         -DE/DX =    0.0                 !
 ! D8    D(5,1,7,6)             61.8477         -DE/DX =    0.0                 !
 ! D9    D(5,1,7,8)           -177.0294         -DE/DX =    0.0                 !
 ! D10   D(1,7,8,9)           -178.9226         -DE/DX =    0.0                 !
 ! D11   D(4,7,8,9)             59.2179         -DE/DX =    0.0                 !
 ! D12   D(6,7,8,9)            -60.7935         -DE/DX =    0.0                 !
 --------------------------------------------------------------------------------
 GradGradGradGradGradGradGradGradGradGradGradGradGradGradGradGradGradGrad

                          Input orientation:                          
 ---------------------------------------------------------------------
 Center     Atomic      Atomic             Coordinates (Angstroms)
 Number     Number       Type             X           Y           Z
 ---------------------------------------------------------------------
      1          6           0       -0.484791   -0.006743    0.063435
      2          9           0       -1.183108   -0.391565   -0.996519
      3          9           0       -0.937335   -0.650882    1.132328
      4          8           0        1.536282    0.338165   -1.226268
      5          9           0       -0.662983    1.299822    0.241509
      6          9           0        1.669716    0.098528    0.981334
      7          6           0        1.022560   -0.291664   -0.152092
      8          8           0        1.187795   -1.624125   -0.399646
      9          1           0        2.128779   -1.796503   -0.515691
 ---------------------------------------------------------------------
                    Distance matrix (angstroms):
                    1          2          3          4          5
     1  C    0.000000
     2  F    1.326362   0.000000
     3  F    1.327496   2.158620   0.000000
     4  O    2.422196   2.824956   3.558086   0.000000
     5  F    1.330630   2.159638   2.161961   2.813525   0.000000
     6  F    2.344254   3.505810   2.716824   2.224576   2.726158
     7  C    1.549109   2.363897   2.370646   1.347015   2.351341
     8  O    2.372322   2.738000   2.794697   2.157621   3.519365
     9  H    3.220151   3.629551   3.664624   2.326538   4.237277
                    6          7          8          9
     6  F    0.000000
     7  C    1.362247   0.000000
     8  O    2.259842   1.365297   0.000000
     9  H    2.458244   1.902752   0.963655   0.000000
 Stoichiometry    C2HF4O2(2)
 Framework group  C1[X(C2HF4O2)]
 Deg. of freedom    21
 Full point group                 C1      NOp   1
 Largest Abelian subgroup         C1      NOp   1
 Largest concise Abelian subgroup C1      NOp   1
                         Standard orientation:                         
 ---------------------------------------------------------------------
 Center     Atomic      Atomic             Coordinates (Angstroms)
 Number     Number       Type             X           Y           Z
 ---------------------------------------------------------------------
      1          6           0        0.769560    0.028273    0.004095
      2          9           0        1.201470    1.230231   -0.353657
      3          9           0        1.208231   -0.238446    1.228298
      4          8           0       -1.279308    0.237752   -1.270773
      5          9           0        1.268898   -0.873449   -0.837413
      6          9           0       -1.148662   -1.272061    0.357764
      7          6           0       -0.777698   -0.025932   -0.048764
      8          8           0       -1.280461    0.946484    0.767124
      9          1           0       -2.242450    0.895597    0.742278
 ---------------------------------------------------------------------
 Rotational constants (GHZ):           2.9118482           1.9065000           1.8461247

 **********************************************************************

            Population analysis using the SCF density.

 **********************************************************************

 Orbital symmetries:
 Alpha Orbitals:
       Occupied  (A) (A) (A) (A) (A) (A) (A) (A) (A) (A) (A) (A)
                 (A) (A) (A) (A) (A) (A) (A) (A) (A) (A) (A) (A)
                 (A) (A) (A) (A) (A) (A) (A) (A) (A)
       Virtual   (A) (A) (A) (A) (A) (A) (A) (A) (A) (A) (A) (A)
                 (A) (A) (A) (A) (A) (A) (A) (A) (A) (A) (A) (A)
                 (A) (A) (A) (A) (A) (A) (A) (A) (A) (A) (A) (A)
                 (A) (A) (A) (A) (A) (A) (A) (A) (A) (A) (A) (A)
                 (A) (A) (A) (A) (A) (A) (A) (A) (A) (A) (A) (A)
                 (A) (A) (A) (A) (A) (A) (A) (A) (A) (A) (A) (A)
                 (A) (A) (A) (A) (A) (A) (A) (A) (A) (A) (A) (A)
                 (A) (A) (A) (A) (A) (A) (A) (A) (A) (A) (A) (A)
                 (A) (A) (A) (A) (A) (A) (A) (A) (A) (A) (A) (A)
                 (A) (A) (A) (A) (A) (A) (A) (A) (A) (A) (A) (A)
                 (A) (A) (A) (A) (A) (A) (A) (A) (A) (A) (A) (A)
                 (A) (A) (A) (A) (A) (A) (A) (A) (A) (A) (A) (A)
                 (A) (A) (A) (A) (A) (A) (A) (A) (A) (A) (A) (A)
                 (A) (A) (A) (A) (A) (A) (A) (A) (A) (A) (A) (A)
                 (A) (A) (A) (A) (A) (A) (A) (A) (A) (A) (A) (A)
                 (A) (A) (A) (A) (A) (A) (A) (A) (A) (A) (A) (A)
 Beta  Orbitals:
       Occupied  (A) (A) (A) (A) (A) (A) (A) (A) (A) (A) (A) (A)
                 (A) (A) (A) (A) (A) (A) (A) (A) (A) (A) (A) (A)
                 (A) (A) (A) (A) (A) (A) (A) (A)
       Virtual   (A) (A) (A) (A) (A) (A) (A) (A) (A) (A) (A) (A)
                 (A) (A) (A) (A) (A) (A) (A) (A) (A) (A) (A) (A)
                 (A) (A) (A) (A) (A) (A) (A) (A) (A) (A) (A) (A)
                 (A) (A) (A) (A) (A) (A) (A) (A) (A) (A) (A) (A)
                 (A) (A) (A) (A) (A) (A) (A) (A) (A) (A) (A) (A)
                 (A) (A) (A) (A) (A) (A) (A) (A) (A) (A) (A) (A)
                 (A) (A) (A) (A) (A) (A) (A) (A) (A) (A) (A) (A)
                 (A) (A) (A) (A) (A) (A) (A) (A) (A) (A) (A) (A)
                 (A) (A) (A) (A) (A) (A) (A) (A) (A) (A) (A) (A)
                 (A) (A) (A) (A) (A) (A) (A) (A) (A) (A) (A) (A)
                 (A) (A) (A) (A) (A) (A) (A) (A) (A) (A) (A) (A)
                 (A) (A) (A) (A) (A) (A) (A) (A) (A) (A) (A) (A)
                 (A) (A) (A) (A) (A) (A) (A) (A) (A) (A) (A) (A)
                 (A) (A) (A) (A) (A) (A) (A) (A) (A) (A) (A) (A)
                 (A) (A) (A) (A) (A) (A) (A) (A) (A) (A) (A) (A)
                 (A) (A) (A) (A) (A) (A) (A) (A) (A) (A) (A) (A)
                 (A)
 The electronic state is 2-A.
 Alpha  occ. eigenvalues --  -24.86802 -24.86772 -24.86747 -24.85326 -19.36505
 Alpha  occ. eigenvalues --  -19.34792 -10.56886 -10.52453  -1.45894  -1.38632
 Alpha  occ. eigenvalues --   -1.36490  -1.36439  -1.25972  -1.17818  -0.89325
 Alpha  occ. eigenvalues --   -0.79473  -0.73692  -0.72703  -0.71905  -0.70142
 Alpha  occ. eigenvalues --   -0.65511  -0.60959  -0.58979  -0.58743  -0.57589
 Alpha  occ. eigenvalues --   -0.55503  -0.55207  -0.54927  -0.52826  -0.51697
 Alpha  occ. eigenvalues --   -0.49811  -0.47408  -0.45768
 Alpha virt. eigenvalues --    0.05469   0.09074   0.09910   0.10301   0.12933
 Alpha virt. eigenvalues --    0.13265   0.13472   0.16483   0.17506   0.18839
 Alpha virt. eigenvalues --    0.21376   0.22636   0.23307   0.26317   0.28468
 Alpha virt. eigenvalues --    0.28771   0.29428   0.31358   0.31897   0.32135
 Alpha virt. eigenvalues --    0.33096   0.33660   0.33985   0.34970   0.36454
 Alpha virt. eigenvalues --    0.37594   0.38069   0.39613   0.40820   0.41411
 Alpha virt. eigenvalues --    0.42129   0.42745   0.43196   0.43877   0.45331
 Alpha virt. eigenvalues --    0.46044   0.47531   0.52086   0.53181   0.53539
 Alpha virt. eigenvalues --    0.55853   0.62823   0.70716   0.71632   0.72729
 Alpha virt. eigenvalues --    0.74174   0.75282   0.81216   0.88117   0.90721
 Alpha virt. eigenvalues --    0.91500   1.00148   1.00420   1.06144   1.07860
 Alpha virt. eigenvalues --    1.09964   1.11558   1.13384   1.15128   1.16890
 Alpha virt. eigenvalues --    1.17616   1.24031   1.26031   1.29031   1.35099
 Alpha virt. eigenvalues --    1.36854   1.37889   1.38332   1.40004   1.44106
 Alpha virt. eigenvalues --    1.45077   1.45806   1.46631   1.47724   1.49511
 Alpha virt. eigenvalues --    1.50865   1.51500   1.55043   1.59725   1.61262
 Alpha virt. eigenvalues --    1.65297   1.66896   1.71770   1.72511   1.82351
 Alpha virt. eigenvalues --    1.89935   1.92549   1.94687   1.98257   2.01691
 Alpha virt. eigenvalues --    2.02918   2.04155   2.08206   2.11358   2.13109
 Alpha virt. eigenvalues --    2.13678   2.20395   2.22118   2.23302   2.28946
 Alpha virt. eigenvalues --    2.32571   2.36802   2.38144   2.42156   2.47581
 Alpha virt. eigenvalues --    2.50146   2.54501   2.65419   2.70184   2.72502
 Alpha virt. eigenvalues --    2.76273   2.80621   2.86531   2.89557   2.98285
 Alpha virt. eigenvalues --    3.16724   3.20610   3.32661   3.45493   3.50359
 Alpha virt. eigenvalues --    3.51878   3.53376   3.54557   3.58767   3.60539
 Alpha virt. eigenvalues --    3.61568   3.63630   3.65969   3.82562   3.92272
 Alpha virt. eigenvalues --    4.08972   4.16787   4.22747   4.30862   4.31427
 Alpha virt. eigenvalues --    4.42585   5.05000   5.13669   5.18045   5.54259
 Alpha virt. eigenvalues --    5.74466   6.11011   6.39999   6.40540   6.42296
 Alpha virt. eigenvalues --    6.46201   6.47785   6.49258   6.51539   6.52454
 Alpha virt. eigenvalues --    6.54297   6.68378   6.79177   6.81126   6.87449
 Alpha virt. eigenvalues --    6.88823   6.99821   7.06615   7.09890   7.15640
 Alpha virt. eigenvalues --    7.19409   7.25252   7.28622   7.52329   9.08323
 Alpha virt. eigenvalues --    9.11848   9.12015   9.17451   9.20645   9.22362
 Alpha virt. eigenvalues --    9.23602   9.25251   9.26163   9.33156   9.36313
 Alpha virt. eigenvalues --    9.46818   9.53105   9.53809   9.68362   9.74431
 Alpha virt. eigenvalues --    9.75716   9.78403   9.89251   9.89689  23.97929
 Alpha virt. eigenvalues --   24.07935  49.99765  50.05418  66.94798  66.95097
 Alpha virt. eigenvalues --   66.96435  67.01621
  Beta  occ. eigenvalues --  -24.86799 -24.86765 -24.86742 -24.85299 -19.34457
  Beta  occ. eigenvalues --  -19.34405 -10.56871 -10.52538  -1.45870  -1.38374
  Beta  occ. eigenvalues --   -1.36477  -1.36411  -1.24181  -1.12934  -0.88874
  Beta  occ. eigenvalues --   -0.79175  -0.73323  -0.72546  -0.71503  -0.69579
  Beta  occ. eigenvalues --   -0.63403  -0.59867  -0.58934  -0.58595  -0.56551
  Beta  occ. eigenvalues --   -0.55187  -0.55014  -0.52841  -0.52480  -0.49576
  Beta  occ. eigenvalues --   -0.47685  -0.43816
  Beta virt. eigenvalues --   -0.13705   0.05615   0.09133   0.10098   0.10318
  Beta virt. eigenvalues --    0.12960   0.13230   0.13468   0.16646   0.17765
  Beta virt. eigenvalues --    0.18864   0.21509   0.22700   0.23412   0.26437
  Beta virt. eigenvalues --    0.28590   0.28852   0.29532   0.31705   0.32115
  Beta virt. eigenvalues --    0.32320   0.33490   0.33737   0.34466   0.35198
  Beta virt. eigenvalues --    0.36752   0.37651   0.38479   0.39932   0.41028
  Beta virt. eigenvalues --    0.41425   0.42226   0.42782   0.43197   0.43877
  Beta virt. eigenvalues --    0.45454   0.46050   0.47677   0.52084   0.53247
  Beta virt. eigenvalues --    0.53560   0.55910   0.62949   0.70944   0.71903
  Beta virt. eigenvalues --    0.72803   0.74367   0.75312   0.81507   0.88327
  Beta virt. eigenvalues --    0.91055   0.91869   1.00268   1.00641   1.06793
  Beta virt. eigenvalues --    1.08337   1.10793   1.12576   1.14061   1.15578
  Beta virt. eigenvalues --    1.17868   1.19593   1.24796   1.26464   1.29238
  Beta virt. eigenvalues --    1.35447   1.37277   1.38087   1.38474   1.40051
  Beta virt. eigenvalues --    1.44292   1.45203   1.45948   1.46764   1.47951
  Beta virt. eigenvalues --    1.49845   1.51029   1.51698   1.56011   1.61245
  Beta virt. eigenvalues --    1.62031   1.65857   1.68296   1.72780   1.73761
  Beta virt. eigenvalues --    1.83052   1.91406   1.93499   1.95312   1.98682
  Beta virt. eigenvalues --    2.01971   2.03009   2.04276   2.08388   2.11563
  Beta virt. eigenvalues --    2.13200   2.13847   2.20567   2.22125   2.23560
  Beta virt. eigenvalues --    2.29455   2.32811   2.37284   2.38843   2.42369
  Beta virt. eigenvalues --    2.48291   2.50696   2.54997   2.65574   2.70384
  Beta virt. eigenvalues --    2.72597   2.76453   2.80863   2.86671   2.89626
  Beta virt. eigenvalues --    2.98489   3.16815   3.20827   3.32786   3.45443
  Beta virt. eigenvalues --    3.50351   3.51952   3.53310   3.54570   3.58696
  Beta virt. eigenvalues --    3.60608   3.61594   3.63575   3.66057   3.82660
  Beta virt. eigenvalues --    3.92432   4.09031   4.16913   4.22898   4.30894
  Beta virt. eigenvalues --    4.31445   4.42598   5.11579   5.16109   5.22304
  Beta virt. eigenvalues --    5.55519   5.76312   6.11618   6.40097   6.40630
  Beta virt. eigenvalues --    6.42348   6.46298   6.47941   6.49436   6.51602
  Beta virt. eigenvalues --    6.52607   6.54339   6.70366   6.84927   6.86743
  Beta virt. eigenvalues --    6.88257   6.91113   7.01849   7.10689   7.12661
  Beta virt. eigenvalues --    7.17622   7.23546   7.27754   7.31496   7.53128
  Beta virt. eigenvalues --    9.08338   9.11867   9.12029   9.17529   9.20753
  Beta virt. eigenvalues --    9.22368   9.23622   9.25290   9.26186   9.33187
  Beta virt. eigenvalues --    9.36332   9.46856   9.53131   9.53925   9.68372
  Beta virt. eigenvalues --    9.74442   9.75736   9.78452   9.89260   9.89701
  Beta virt. eigenvalues --   23.97863  24.07896  50.02187  50.05764  66.94805
  Beta virt. eigenvalues --   66.95101  66.96443  67.01630
          Condensed to atoms (all electrons):
               1          2          3          4          5          6
     1  C    4.294380   0.240341   0.242688  -0.080425   0.248464  -0.127815
     2  F    0.240341   9.094373   0.003663   0.019152  -0.000689   0.000258
     3  F    0.242688   0.003663   9.099075  -0.000389  -0.001053   0.022401
     4  O   -0.080425   0.019152  -0.000389   8.015206   0.012650  -0.009608
     5  F    0.248464  -0.000689  -0.001053   0.012650   9.106009   0.019940
     6  F   -0.127815   0.000258   0.022401  -0.009608   0.019940   9.161307
     7  C    0.376643  -0.073752  -0.086851   0.305162  -0.085775   0.260180
     8  O   -0.132259   0.014843   0.015179  -0.010547  -0.001723   0.008813
     9  H    0.007186  -0.000912  -0.000756   0.000144   0.000076  -0.004924
               7          8          9
     1  C    0.376643  -0.132259   0.007186
     2  F   -0.073752   0.014843  -0.000912
     3  F   -0.086851   0.015179  -0.000756
     4  O    0.305162  -0.010547   0.000144
     5  F   -0.085775  -0.001723   0.000076
     6  F    0.260180   0.008813  -0.004924
     7  C    4.383004   0.313012   0.011243
     8  O    0.313012   7.874047   0.242321
     9  H    0.011243   0.242321   0.478839
          Atomic-Atomic Spin Densities.
               1          2          3          4          5          6
     1  C    0.020502  -0.000746   0.000394  -0.007770  -0.003160   0.001054
     2  F   -0.000746   0.001938  -0.000050  -0.000455  -0.000012  -0.000143
     3  F    0.000394  -0.000050   0.001901  -0.000055  -0.000028  -0.000057
     4  O   -0.007770  -0.000455  -0.000055   0.921565   0.002177  -0.002624
     5  F   -0.003160  -0.000012  -0.000028   0.002177   0.001187  -0.000060
     6  F    0.001054  -0.000143  -0.000057  -0.002624  -0.000060   0.009155
     7  C   -0.007211   0.000416  -0.000170   0.009864   0.001717   0.005018
     8  O    0.001958   0.000493  -0.000508  -0.025421  -0.000011  -0.002625
     9  H   -0.001658   0.000044   0.000061  -0.004117   0.000037   0.000578
               7          8          9
     1  C   -0.007211   0.001958  -0.001658
     2  F    0.000416   0.000493   0.000044
     3  F   -0.000170  -0.000508   0.000061
     4  O    0.009864  -0.025421  -0.004117
     5  F    0.001717  -0.000011   0.000037
     6  F    0.005018  -0.002625   0.000578
     7  C   -0.049337  -0.006663   0.000923
     8  O   -0.006663   0.174080   0.000147
     9  H    0.000923   0.000147  -0.003662
 Mulliken charges and spin densities:
               1          2
     1  C    0.930796   0.003362
     2  F   -0.297278   0.001485
     3  F   -0.293956   0.001487
     4  O   -0.251344   0.893165
     5  F   -0.297899   0.001847
     6  F   -0.330552   0.010296
     7  C    0.597134  -0.045444
     8  O   -0.323684   0.141450
     9  H    0.266783  -0.007648
 Sum of Mulliken charges =  -0.00000   1.00000
 Mulliken charges and spin densities with hydrogens summed into heavy atoms:
               1          2
     1  C    0.930796   0.003362
     2  F   -0.297278   0.001485
     3  F   -0.293956   0.001487
     4  O   -0.251344   0.893165
     5  F   -0.297899   0.001847
     6  F   -0.330552   0.010296
     7  C    0.597134  -0.045444
     8  O   -0.056901   0.133802
 Electronic spatial extent (au):  <R**2>=            719.2069
 Charge=             -0.0000 electrons
 Dipole moment (field-independent basis, Debye):
    X=             -1.9159    Y=              0.6013    Z=              0.6150  Tot=              2.1002
 Quadrupole moment (field-independent basis, Debye-Ang):
   XX=            -37.2679   YY=            -44.1328   ZZ=            -44.1089
   XY=             -2.6172   XZ=             -2.4922   YZ=              0.9113
 Traceless Quadrupole moment (field-independent basis, Debye-Ang):
   XX=              4.5686   YY=             -2.2963   ZZ=             -2.2724
   XY=             -2.6172   XZ=             -2.4922   YZ=              0.9113
 Octapole moment (field-independent basis, Debye-Ang**2):
  XXX=            -10.0379  YYY=             -3.5105  ZZZ=              2.2528  XYY=              1.4920
  XXY=              6.6950  XXZ=              7.9962  XZZ=              2.4955  YZZ=             -1.8932
  YYZ=              0.3996  XYZ=             -2.1762
 Hexadecapole moment (field-independent basis, Debye-Ang**3):
 XXXX=           -315.4474 YYYY=           -183.2442 ZZZZ=           -178.3419 XXXY=            -16.2329
 XXXZ=            -21.2400 YYYX=              1.3909 YYYZ=             -1.2067 ZZZX=             -5.5313
 ZZZY=              0.4225 XXYY=            -87.6998 XXZZ=            -90.4442 YYZZ=            -59.5446
 XXYZ=              5.1469 YYXZ=             -0.9116 ZZXY=              1.3072
 N-N= 4.485502472258D+02 E-N=-2.384112448068D+03  KE= 6.249904374926D+02
                          Isotropic Fermi Contact Couplings
        Atom                 a.u.       MegaHertz       Gauss      10(-4) cm-1
     1  C(13)              0.00615       6.91079       2.46594       2.30519
     2  F(19)              0.00045       1.88561       0.67283       0.62897
     3  F(19)              0.00061       2.57338       0.91825       0.85839
     4  O(17)              0.09010     -54.61629     -19.48845     -18.21803
     5  F(19)             -0.00001      -0.05155      -0.01839      -0.01720
     6  F(19)             -0.00764     -32.12650     -11.46354     -10.71625
     7  C(13)             -0.02847     -32.00916     -11.42167     -10.67711
     8  O(17)              0.02207     -13.37588      -4.77285      -4.46171
     9  H(1)              -0.00230     -10.26792      -3.66385      -3.42501
 --------------------------------------------------------
       Center         ----  Spin Dipole Couplings  ----
                      3XX-RR        3YY-RR        3ZZ-RR
 --------------------------------------------------------
     1   Atom        0.019315     -0.013158     -0.006157
     2   Atom        0.020227     -0.009199     -0.011027
     3   Atom        0.018043     -0.008976     -0.009066
     4   Atom       -0.950761      1.706338     -0.755577
     5   Atom        0.004279     -0.008140      0.003861
     6   Atom       -0.059698     -0.046578      0.106277
     7   Atom       -0.018382     -0.024774      0.043155
     8   Atom       -0.343656     -0.356420      0.700076
     9   Atom        0.025034     -0.028743      0.003708
 --------------------------------------------------------
                        XY            XZ            YZ
 --------------------------------------------------------
     1   Atom       -0.002151      0.011936      0.000082
     2   Atom        0.006883      0.000601      0.001057
     3   Atom       -0.007440      0.004123     -0.001128
     4   Atom       -1.694900     -0.930445      1.912364
     5   Atom       -0.005288      0.010166     -0.001606
     6   Atom       -0.002078     -0.000365     -0.022478
     7   Atom       -0.007361      0.024314     -0.016138
     8   Atom       -0.001039      0.025732     -0.009474
     9   Atom        0.000825     -0.014914      0.005698
 --------------------------------------------------------


 ---------------------------------------------------------------------------------
              Anisotropic Spin Dipole Couplings in Principal Axis System
 ---------------------------------------------------------------------------------

       Atom             a.u.   MegaHertz   Gauss  10(-4) cm-1        Axes

              Baa    -0.0135    -1.817    -0.648    -0.606  0.1599  0.9498 -0.2690
     1 C(13)  Bbb    -0.0106    -1.422    -0.507    -0.474 -0.3334  0.3085  0.8909
              Bcc     0.0241     3.239     1.156     1.080  0.9291 -0.0528  0.3659
 
              Baa    -0.0118    -5.928    -2.115    -1.977  0.1213 -0.6314  0.7659
     2 F(19)  Bbb    -0.0100    -5.009    -1.787    -1.671 -0.1824  0.7443  0.6425
              Bcc     0.0218    10.937     3.903     3.648  0.9757  0.2176  0.0249
 
              Baa    -0.0109    -5.471    -1.952    -1.825  0.2415  0.9689  0.0534
     3 F(19)  Bbb    -0.0097    -4.861    -1.735    -1.622 -0.1515 -0.0167  0.9883
              Bcc     0.0206    10.332     3.687     3.446  0.9585 -0.2468  0.1427
 
              Baa    -1.7998   130.235    46.471    43.442  0.1810 -0.4021  0.8975
     4 O(17)  Bbb    -1.7757   128.492    45.849    42.860  0.9016  0.4324  0.0119
              Bcc     3.5756  -258.727   -92.320   -86.302 -0.3928  0.8071  0.4408
 
              Baa    -0.0106    -5.307    -1.894    -1.770  0.4630  0.8558 -0.2309
     5 F(19)  Bbb    -0.0047    -2.366    -0.844    -0.789 -0.5226  0.4740  0.7087
              Bcc     0.0153     7.673     2.738     2.559  0.7159 -0.2074  0.6667
 
              Baa    -0.0601   -30.199   -10.776   -10.073  0.9797  0.1982  0.0289
     6 F(19)  Bbb    -0.0494   -24.802    -8.850    -8.273 -0.2003  0.9697  0.1396
              Bcc     0.1095    55.001    19.626    18.346 -0.0004 -0.1425  0.9898
 
              Baa    -0.0296    -3.973    -1.417    -1.325  0.5363  0.8440  0.0080
     7 C(13)  Bbb    -0.0259    -3.474    -1.240    -1.159  0.7791 -0.4914 -0.3892
              Bcc     0.0555     7.446     2.657     2.484  0.3246 -0.2150  0.9211
 
              Baa    -0.3566    25.800     9.206     8.606  0.0657  0.9978  0.0073
     8 O(17)  Bbb    -0.3442    24.909     8.888     8.309  0.9975 -0.0655 -0.0252
              Bcc     0.7008   -50.709   -18.094   -16.915  0.0246 -0.0090  0.9997
 
              Baa    -0.0299   -15.974    -5.700    -5.328 -0.0678  0.9783 -0.1957
     9 H(1)   Bbb    -0.0028    -1.506    -0.538    -0.502  0.4573  0.2048  0.8654
              Bcc     0.0328    17.481     6.238     5.831  0.8868 -0.0308 -0.4612
 

 ---------------------------------------------------------------------------------

 1\1\GINC-CCLEARTI\FOpt\UwB97XD\6-311+G(2d,2p)\C2H1F4O2(2)\RAPPE\24-Oct
 -2025\0\\# opt freq uwb97xd/6-311+g(2d,2p) geom=connectivity integral=
 grid=superfinegrid scf=(xqc,tight)\\Title Card Required\\0,2\C,-0.4847
 913866,-0.0067433604,0.0634345604\F,-1.1831081668,-0.3915653472,-0.996
 5188824\F,-0.9373353885,-0.6508816585,1.1323284873\O,1.5362822289,0.33
 81654954,-1.2262678319\F,-0.6629829901,1.2998224051,0.2415094513\F,1.6
 697164786,0.098528192,0.9813339771\C,1.0225598396,-0.2916642854,-0.152
 0919829\O,1.1877953091,-1.6241245575,-0.3996463951\H,2.1287787758,-1.7
 965027236,-0.5156911439\\Version=EM64M-G16RevA.03\State=2-A\HF=-626.59
 10439\S2=0.754533\S2-1=0.\S2A=0.750015\RMSD=4.564e-09\RMSF=5.889e-05\D
 ipole=0.6443545,-0.5027668,-0.1214327\Quadrupole=1.7866957,0.4103823,-
 2.197078,-3.3186342,-0.8815931,0.6688587\PG=C01 [X(C2H1F4O2)]\\@


 NOTHING PUZZLES ME MORE THAN TIME AND SPACE; AND YET NOTHING TROUBLES ME LESS
                                                          -- CHARLES LAMB (1810)
 Job cpu time:       0 days  3 hours 41 minutes 22.4 seconds.
 Elapsed time:       0 days  0 hours 10 minutes 55.6 seconds.
 File lengths (MBytes):  RWF=     45 Int=      0 D2E=      0 Chk=      6 Scr=      1
 Normal termination of Gaussian 16 at Fri Oct 24 14:59:04 2025.
 Link1:  Proceeding to internal job step number  2.
 ----------------------------------------------------------------------
 #N Geom=AllCheck Guess=TCheck SCRF=Check GenChk UwB97XD/6-311+G(2d,2p)
  Freq
 ----------------------------------------------------------------------
 1/10=4,29=7,30=1,38=1,40=1/1,3;
 2/12=2,40=1/2;
 3/5=4,6=6,7=212,11=2,14=-4,25=1,30=1,70=2,71=2,74=-58,75=-7,116=2,140=1/1,2,3;
 4/5=101/1;
 5/5=2,8=3,13=1,32=2,38=6,98=1/2,8;
 8/6=4,10=90,11=11/1;
 11/6=1,8=1,9=11,15=111,16=1/1,2,10;
 10/6=1/2;
 6/7=2,8=2,9=2,10=2,28=1/1;
 7/8=1,10=1,25=1/1,2,3,16;
 1/10=4,30=1/3;
 99//99;
 Structure from the checkpoint file:  "tfcof_oh.chk"
 -------------------
 Title Card Required
 -------------------
 Charge =  0 Multiplicity = 2
 Redundant internal coordinates found in file.  (old form).
 C,0,-0.4847913866,-0.0067433604,0.0634345604
 F,0,-1.1831081668,-0.3915653472,-0.9965188824
 F,0,-0.9373353885,-0.6508816585,1.1323284873
 O,0,1.5362822289,0.3381654954,-1.2262678319
 F,0,-0.6629829901,1.2998224051,0.2415094513
 F,0,1.6697164786,0.098528192,0.9813339771
 C,0,1.0225598396,-0.2916642854,-0.1520919829
 O,0,1.1877953091,-1.6241245575,-0.3996463951
 H,0,2.1287787758,-1.7965027236,-0.5156911439
 Recover connectivity data from disk.

 GradGradGradGradGradGradGradGradGradGradGradGradGradGradGradGradGradGrad
 Berny optimization.
 Initialization pass.
                           ----------------------------
                           !    Initial Parameters    !
                           ! (Angstroms and Degrees)  !
 --------------------------                            --------------------------
 ! Name  Definition              Value          Derivative Info.                !
 --------------------------------------------------------------------------------
 ! R1    R(1,2)                  1.3264         calculate D2E/DX2 analytically  !
 ! R2    R(1,3)                  1.3275         calculate D2E/DX2 analytically  !
 ! R3    R(1,5)                  1.3306         calculate D2E/DX2 analytically  !
 ! R4    R(1,7)                  1.5491         calculate D2E/DX2 analytically  !
 ! R5    R(4,7)                  1.347          calculate D2E/DX2 analytically  !
 ! R6    R(6,7)                  1.3622         calculate D2E/DX2 analytically  !
 ! R7    R(7,8)                  1.3653         calculate D2E/DX2 analytically  !
 ! R8    R(8,9)                  0.9637         calculate D2E/DX2 analytically  !
 ! A1    A(2,1,3)              108.8569         calculate D2E/DX2 analytically  !
 ! A2    A(2,1,5)              108.7433         calculate D2E/DX2 analytically  !
 ! A3    A(2,1,7)              110.3498         calculate D2E/DX2 analytically  !
 ! A4    A(3,1,5)              108.8471         calculate D2E/DX2 analytically  !
 ! A5    A(3,1,7)              110.7623         calculate D2E/DX2 analytically  !
 ! A6    A(5,1,7)              109.2399         calculate D2E/DX2 analytically  !
 ! A7    A(1,7,4)              113.3313         calculate D2E/DX2 analytically  !
 ! A8    A(1,7,6)              107.0867         calculate D2E/DX2 analytically  !
 ! A9    A(1,7,8)              108.8137         calculate D2E/DX2 analytically  !
 ! A10   A(4,7,6)              110.3889         calculate D2E/DX2 analytically  !
 ! A11   A(4,7,8)              105.4014         calculate D2E/DX2 analytically  !
 ! A12   A(6,7,8)              111.8953         calculate D2E/DX2 analytically  !
 ! A13   A(7,8,9)              108.3361         calculate D2E/DX2 analytically  !
 ! D1    D(2,1,7,4)             59.3763         calculate D2E/DX2 analytically  !
 ! D2    D(2,1,7,6)           -178.651          calculate D2E/DX2 analytically  !
 ! D3    D(2,1,7,8)            -57.528          calculate D2E/DX2 analytically  !
 ! D4    D(3,1,7,4)            179.9917         calculate D2E/DX2 analytically  !
 ! D5    D(3,1,7,6)            -58.0355         calculate D2E/DX2 analytically  !
 ! D6    D(3,1,7,8)             63.0874         calculate D2E/DX2 analytically  !
 ! D7    D(5,1,7,4)            -60.1251         calculate D2E/DX2 analytically  !
 ! D8    D(5,1,7,6)             61.8477         calculate D2E/DX2 analytically  !
 ! D9    D(5,1,7,8)           -177.0294         calculate D2E/DX2 analytically  !
 ! D10   D(1,7,8,9)           -178.9226         calculate D2E/DX2 analytically  !
 ! D11   D(4,7,8,9)             59.2179         calculate D2E/DX2 analytically  !
 ! D12   D(6,7,8,9)            -60.7935         calculate D2E/DX2 analytically  !
 --------------------------------------------------------------------------------
 Trust Radius=3.00D-01 FncErr=1.00D-07 GrdErr=1.00D-07 EigMax=2.50D+02 EigMin=1.00D-04
 Number of steps in this run=      2 maximum allowed number of steps=      2.
 GradGradGradGradGradGradGradGradGradGradGradGradGradGradGradGradGradGrad

                          Input orientation:                          
 ---------------------------------------------------------------------
 Center     Atomic      Atomic             Coordinates (Angstroms)
 Number     Number       Type             X           Y           Z
 ---------------------------------------------------------------------
      1          6           0       -0.484791   -0.006743    0.063435
      2          9           0       -1.183108   -0.391565   -0.996519
      3          9           0       -0.937335   -0.650882    1.132328
      4          8           0        1.536282    0.338165   -1.226268
      5          9           0       -0.662983    1.299822    0.241509
      6          9           0        1.669716    0.098528    0.981334
      7          6           0        1.022560   -0.291664   -0.152092
      8          8           0        1.187795   -1.624125   -0.399646
      9          1           0        2.128779   -1.796503   -0.515691
 ---------------------------------------------------------------------
                    Distance matrix (angstroms):
                    1          2          3          4          5
     1  C    0.000000
     2  F    1.326362   0.000000
     3  F    1.327496   2.158620   0.000000
     4  O    2.422196   2.824956   3.558086   0.000000
     5  F    1.330630   2.159638   2.161961   2.813525   0.000000
     6  F    2.344254   3.505810   2.716824   2.224576   2.726158
     7  C    1.549109   2.363897   2.370646   1.347015   2.351341
     8  O    2.372322   2.738000   2.794697   2.157621   3.519365
     9  H    3.220151   3.629551   3.664624   2.326538   4.237277
                    6          7          8          9
     6  F    0.000000
     7  C    1.362247   0.000000
     8  O    2.259842   1.365297   0.000000
     9  H    2.458244   1.902752   0.963655   0.000000
 Stoichiometry    C2HF4O2(2)
 Framework group  C1[X(C2HF4O2)]
 Deg. of freedom    21
 Full point group                 C1      NOp   1
 Largest Abelian subgroup         C1      NOp   1
 Largest concise Abelian subgroup C1      NOp   1
                         Standard orientation:                         
 ---------------------------------------------------------------------
 Center     Atomic      Atomic             Coordinates (Angstroms)
 Number     Number       Type             X           Y           Z
 ---------------------------------------------------------------------
      1          6           0        0.769560    0.028273    0.004095
      2          9           0        1.201470    1.230231   -0.353657
      3          9           0        1.208231   -0.238446    1.228298
      4          8           0       -1.279308    0.237752   -1.270773
      5          9           0        1.268898   -0.873449   -0.837413
      6          9           0       -1.148662   -1.272061    0.357764
      7          6           0       -0.777698   -0.025932   -0.048764
      8          8           0       -1.280461    0.946484    0.767124
      9          1           0       -2.242450    0.895597    0.742278
 ---------------------------------------------------------------------
 Rotational constants (GHZ):           2.9118482           1.9065000           1.8461247
 Standard basis: 6-311+G(2d,2p) (5D, 7F)
 There are   241 symmetry adapted cartesian basis functions of A   symmetry.
 There are   225 symmetry adapted basis functions of A   symmetry.
   225 basis functions,   347 primitive gaussians,   241 cartesian basis functions
    33 alpha electrons       32 beta electrons
       nuclear repulsion energy       448.5528224815 Hartrees.
 NAtoms=    9 NActive=    9 NUniq=    9 SFac= 1.00D+00 NAtFMM=   60 NAOKFM=F Big=F
 Integral buffers will be    131072 words long.
 Raffenetti 2 integral format.
 Two-electron integral symmetry is turned on.
 Nuclear repulsion after empirical dispersion term =      448.5502472258 Hartrees.
 One-electron integrals computed using PRISM.
 NBasis=   225 RedAO= T EigKep=  1.05D-04  NBF=   225
 NBsUse=   225 1.00D-06 EigRej= -1.00D+00 NBFU=   225
 Initial guess from the checkpoint file:  "tfcof_oh.chk"
 B after Tr=     0.000000    0.000000    0.000000
         Rot=    1.000000   -0.000000   -0.000000   -0.000000 Ang=   0.00 deg.
 Initial guess <Sx>= 0.0000 <Sy>= 0.0000 <Sz>= 0.5000 <S**2>= 0.7545 S= 0.5023
 Keep R1 and R2 ints in memory in canonical form, NReq=1318693155.
 Requested convergence on RMS density matrix=1.00D-08 within  32 cycles.
 Requested convergence on MAX density matrix=1.00D-06.
 Requested convergence on             energy=1.00D-06.
 No special actions if energy rises.
 SCF Done:  E(UwB97XD) =  -626.591043946     A.U. after    1 cycles
            NFock=  1  Conv=0.67D-09     -V/T= 2.0026
 <Sx>= 0.0000 <Sy>= 0.0000 <Sz>= 0.5000 <S**2>= 0.7545 S= 0.5023
 <L.S>= 0.000000000000E+00
 Annihilation of the first spin contaminant:
 S**2 before annihilation     0.7545,   after     0.7500
 QCSCF skips out because SCF is already converged.
 DoSCS=F DFT=T ScalE2(SS,OS)=  1.000000  1.000000
 Range of M.O.s used for correlation:     1   225
 NBasis=   225 NAE=    33 NBE=    32 NFC=     0 NFV=     0
 NROrb=    225 NOA=    33 NOB=    32 NVA=   192 NVB=   193

 **** Warning!!: The largest alpha MO coefficient is  0.38349369D+02


 **** Warning!!: The largest beta MO coefficient is  0.37835807D+02

 Symmetrizing basis deriv contribution to polar:
 IMax=3 JMax=2 DiffMx= 0.00D+00
 G2DrvN: will do    10 centers at a time, making    1 passes.
 Calling FoFCou, ICntrl=  3107 FMM=F I1Cent=   0 AccDes= 0.00D+00.
 End of G2Drv F.D. properties file   721 does not exist.
 End of G2Drv F.D. properties file   722 does not exist.
 End of G2Drv F.D. properties file   788 does not exist.
          IDoAtm=111111111
          Differentiating once with respect to electric field.
                with respect to dipole field.
          Differentiating once with respect to nuclear coordinates.
 Keep R1 and R2 ints in memory in canonical form, NReq=1318549620.
          There are    30 degrees of freedom in the 1st order CPHF.  IDoFFX=6 NUNeed=     3.
     27 vectors produced by pass  0 Test12= 4.17D-14 3.33D-09 XBig12= 2.89D+01 2.03D+00.
 AX will form    27 AO Fock derivatives at one time.
     27 vectors produced by pass  1 Test12= 4.17D-14 3.33D-09 XBig12= 5.72D+00 2.78D-01.
     27 vectors produced by pass  2 Test12= 4.17D-14 3.33D-09 XBig12= 4.92D-01 2.64D-01.
     27 vectors produced by pass  3 Test12= 4.17D-14 3.33D-09 XBig12= 1.08D-02 2.48D-02.
     27 vectors produced by pass  4 Test12= 4.17D-14 3.33D-09 XBig12= 1.56D-04 1.85D-03.
     27 vectors produced by pass  5 Test12= 4.17D-14 3.33D-09 XBig12= 1.89D-06 1.76D-04.
     27 vectors produced by pass  6 Test12= 4.17D-14 3.33D-09 XBig12= 2.00D-08 1.61D-05.
     25 vectors produced by pass  7 Test12= 4.17D-14 3.33D-09 XBig12= 2.45D-10 1.98D-06.
      6 vectors produced by pass  8 Test12= 4.17D-14 3.33D-09 XBig12= 2.54D-12 1.37D-07.
      3 vectors produced by pass  9 Test12= 4.17D-14 3.33D-09 XBig12= 2.33D-14 1.04D-08.
 InvSVY:  IOpt=1 It=  1 EMax= 2.66D-15
 Solved reduced A of dimension   223 with    30 vectors.
 Isotropic polarizability for W=    0.000000       37.43 Bohr**3.
 End of Minotr F.D. properties file   721 does not exist.
 End of Minotr F.D. properties file   722 does not exist.
 End of Minotr F.D. properties file   788 does not exist.

 **********************************************************************

            Population analysis using the SCF density.

 **********************************************************************

 Orbital symmetries:
 Alpha Orbitals:
       Occupied  (A) (A) (A) (A) (A) (A) (A) (A) (A) (A) (A) (A)
                 (A) (A) (A) (A) (A) (A) (A) (A) (A) (A) (A) (A)
                 (A) (A) (A) (A) (A) (A) (A) (A) (A)
       Virtual   (A) (A) (A) (A) (A) (A) (A) (A) (A) (A) (A) (A)
                 (A) (A) (A) (A) (A) (A) (A) (A) (A) (A) (A) (A)
                 (A) (A) (A) (A) (A) (A) (A) (A) (A) (A) (A) (A)
                 (A) (A) (A) (A) (A) (A) (A) (A) (A) (A) (A) (A)
                 (A) (A) (A) (A) (A) (A) (A) (A) (A) (A) (A) (A)
                 (A) (A) (A) (A) (A) (A) (A) (A) (A) (A) (A) (A)
                 (A) (A) (A) (A) (A) (A) (A) (A) (A) (A) (A) (A)
                 (A) (A) (A) (A) (A) (A) (A) (A) (A) (A) (A) (A)
                 (A) (A) (A) (A) (A) (A) (A) (A) (A) (A) (A) (A)
                 (A) (A) (A) (A) (A) (A) (A) (A) (A) (A) (A) (A)
                 (A) (A) (A) (A) (A) (A) (A) (A) (A) (A) (A) (A)
                 (A) (A) (A) (A) (A) (A) (A) (A) (A) (A) (A) (A)
                 (A) (A) (A) (A) (A) (A) (A) (A) (A) (A) (A) (A)
                 (A) (A) (A) (A) (A) (A) (A) (A) (A) (A) (A) (A)
                 (A) (A) (A) (A) (A) (A) (A) (A) (A) (A) (A) (A)
                 (A) (A) (A) (A) (A) (A) (A) (A) (A) (A) (A) (A)
 Beta  Orbitals:
       Occupied  (A) (A) (A) (A) (A) (A) (A) (A) (A) (A) (A) (A)
                 (A) (A) (A) (A) (A) (A) (A) (A) (A) (A) (A) (A)
                 (A) (A) (A) (A) (A) (A) (A) (A)
       Virtual   (A) (A) (A) (A) (A) (A) (A) (A) (A) (A) (A) (A)
                 (A) (A) (A) (A) (A) (A) (A) (A) (A) (A) (A) (A)
                 (A) (A) (A) (A) (A) (A) (A) (A) (A) (A) (A) (A)
                 (A) (A) (A) (A) (A) (A) (A) (A) (A) (A) (A) (A)
                 (A) (A) (A) (A) (A) (A) (A) (A) (A) (A) (A) (A)
                 (A) (A) (A) (A) (A) (A) (A) (A) (A) (A) (A) (A)
                 (A) (A) (A) (A) (A) (A) (A) (A) (A) (A) (A) (A)
                 (A) (A) (A) (A) (A) (A) (A) (A) (A) (A) (A) (A)
                 (A) (A) (A) (A) (A) (A) (A) (A) (A) (A) (A) (A)
                 (A) (A) (A) (A) (A) (A) (A) (A) (A) (A) (A) (A)
                 (A) (A) (A) (A) (A) (A) (A) (A) (A) (A) (A) (A)
                 (A) (A) (A) (A) (A) (A) (A) (A) (A) (A) (A) (A)
                 (A) (A) (A) (A) (A) (A) (A) (A) (A) (A) (A) (A)
                 (A) (A) (A) (A) (A) (A) (A) (A) (A) (A) (A) (A)
                 (A) (A) (A) (A) (A) (A) (A) (A) (A) (A) (A) (A)
                 (A) (A) (A) (A) (A) (A) (A) (A) (A) (A) (A) (A)
                 (A)
 The electronic state is 2-A.
 Alpha  occ. eigenvalues --  -24.86802 -24.86772 -24.86747 -24.85326 -19.36505
 Alpha  occ. eigenvalues --  -19.34792 -10.56886 -10.52453  -1.45894  -1.38632
 Alpha  occ. eigenvalues --   -1.36490  -1.36439  -1.25972  -1.17818  -0.89325
 Alpha  occ. eigenvalues --   -0.79473  -0.73692  -0.72703  -0.71905  -0.70142
 Alpha  occ. eigenvalues --   -0.65511  -0.60959  -0.58979  -0.58743  -0.57589
 Alpha  occ. eigenvalues --   -0.55503  -0.55207  -0.54927  -0.52826  -0.51697
 Alpha  occ. eigenvalues --   -0.49811  -0.47408  -0.45768
 Alpha virt. eigenvalues --    0.05469   0.09074   0.09910   0.10301   0.12933
 Alpha virt. eigenvalues --    0.13265   0.13472   0.16483   0.17506   0.18839
 Alpha virt. eigenvalues --    0.21376   0.22636   0.23307   0.26317   0.28468
 Alpha virt. eigenvalues --    0.28771   0.29428   0.31358   0.31897   0.32135
 Alpha virt. eigenvalues --    0.33096   0.33660   0.33985   0.34970   0.36454
 Alpha virt. eigenvalues --    0.37594   0.38069   0.39613   0.40820   0.41411
 Alpha virt. eigenvalues --    0.42129   0.42745   0.43196   0.43877   0.45331
 Alpha virt. eigenvalues --    0.46044   0.47531   0.52086   0.53181   0.53539
 Alpha virt. eigenvalues --    0.55853   0.62823   0.70716   0.71632   0.72729
 Alpha virt. eigenvalues --    0.74174   0.75282   0.81216   0.88117   0.90721
 Alpha virt. eigenvalues --    0.91500   1.00148   1.00420   1.06144   1.07860
 Alpha virt. eigenvalues --    1.09964   1.11558   1.13384   1.15128   1.16890
 Alpha virt. eigenvalues --    1.17616   1.24031   1.26031   1.29031   1.35099
 Alpha virt. eigenvalues --    1.36854   1.37889   1.38332   1.40004   1.44106
 Alpha virt. eigenvalues --    1.45077   1.45806   1.46631   1.47724   1.49511
 Alpha virt. eigenvalues --    1.50865   1.51500   1.55043   1.59725   1.61262
 Alpha virt. eigenvalues --    1.65297   1.66896   1.71770   1.72511   1.82351
 Alpha virt. eigenvalues --    1.89935   1.92549   1.94687   1.98257   2.01691
 Alpha virt. eigenvalues --    2.02918   2.04155   2.08206   2.11358   2.13109
 Alpha virt. eigenvalues --    2.13678   2.20395   2.22118   2.23302   2.28946
 Alpha virt. eigenvalues --    2.32571   2.36802   2.38144   2.42156   2.47581
 Alpha virt. eigenvalues --    2.50146   2.54501   2.65419   2.70184   2.72502
 Alpha virt. eigenvalues --    2.76273   2.80621   2.86531   2.89557   2.98285
 Alpha virt. eigenvalues --    3.16724   3.20610   3.32661   3.45493   3.50359
 Alpha virt. eigenvalues --    3.51878   3.53376   3.54557   3.58767   3.60539
 Alpha virt. eigenvalues --    3.61568   3.63630   3.65969   3.82562   3.92272
 Alpha virt. eigenvalues --    4.08972   4.16787   4.22747   4.30862   4.31427
 Alpha virt. eigenvalues --    4.42585   5.05000   5.13669   5.18045   5.54259
 Alpha virt. eigenvalues --    5.74466   6.11011   6.39999   6.40540   6.42296
 Alpha virt. eigenvalues --    6.46201   6.47785   6.49258   6.51539   6.52454
 Alpha virt. eigenvalues --    6.54297   6.68378   6.79177   6.81126   6.87449
 Alpha virt. eigenvalues --    6.88823   6.99821   7.06615   7.09890   7.15640
 Alpha virt. eigenvalues --    7.19409   7.25252   7.28622   7.52329   9.08323
 Alpha virt. eigenvalues --    9.11848   9.12015   9.17451   9.20645   9.22362
 Alpha virt. eigenvalues --    9.23602   9.25251   9.26163   9.33156   9.36313
 Alpha virt. eigenvalues --    9.46818   9.53105   9.53809   9.68362   9.74431
 Alpha virt. eigenvalues --    9.75716   9.78403   9.89251   9.89689  23.97929
 Alpha virt. eigenvalues --   24.07935  49.99765  50.05418  66.94798  66.95097
 Alpha virt. eigenvalues --   66.96435  67.01621
  Beta  occ. eigenvalues --  -24.86799 -24.86765 -24.86742 -24.85299 -19.34457
  Beta  occ. eigenvalues --  -19.34405 -10.56871 -10.52538  -1.45870  -1.38374
  Beta  occ. eigenvalues --   -1.36477  -1.36411  -1.24181  -1.12934  -0.88874
  Beta  occ. eigenvalues --   -0.79175  -0.73323  -0.72546  -0.71503  -0.69579
  Beta  occ. eigenvalues --   -0.63403  -0.59867  -0.58934  -0.58595  -0.56551
  Beta  occ. eigenvalues --   -0.55187  -0.55014  -0.52841  -0.52480  -0.49576
  Beta  occ. eigenvalues --   -0.47685  -0.43816
  Beta virt. eigenvalues --   -0.13705   0.05615   0.09133   0.10098   0.10318
  Beta virt. eigenvalues --    0.12960   0.13230   0.13468   0.16646   0.17765
  Beta virt. eigenvalues --    0.18864   0.21509   0.22700   0.23412   0.26437
  Beta virt. eigenvalues --    0.28590   0.28852   0.29532   0.31705   0.32115
  Beta virt. eigenvalues --    0.32320   0.33490   0.33737   0.34466   0.35198
  Beta virt. eigenvalues --    0.36752   0.37651   0.38479   0.39932   0.41028
  Beta virt. eigenvalues --    0.41425   0.42226   0.42782   0.43197   0.43877
  Beta virt. eigenvalues --    0.45454   0.46050   0.47677   0.52084   0.53247
  Beta virt. eigenvalues --    0.53560   0.55910   0.62949   0.70944   0.71903
  Beta virt. eigenvalues --    0.72803   0.74367   0.75312   0.81507   0.88327
  Beta virt. eigenvalues --    0.91055   0.91869   1.00268   1.00641   1.06793
  Beta virt. eigenvalues --    1.08337   1.10793   1.12576   1.14061   1.15578
  Beta virt. eigenvalues --    1.17868   1.19593   1.24796   1.26464   1.29238
  Beta virt. eigenvalues --    1.35447   1.37277   1.38087   1.38474   1.40051
  Beta virt. eigenvalues --    1.44292   1.45203   1.45948   1.46764   1.47951
  Beta virt. eigenvalues --    1.49845   1.51029   1.51698   1.56011   1.61245
  Beta virt. eigenvalues --    1.62031   1.65857   1.68296   1.72780   1.73761
  Beta virt. eigenvalues --    1.83052   1.91406   1.93499   1.95312   1.98682
  Beta virt. eigenvalues --    2.01971   2.03009   2.04276   2.08388   2.11563
  Beta virt. eigenvalues --    2.13200   2.13847   2.20567   2.22125   2.23560
  Beta virt. eigenvalues --    2.29455   2.32811   2.37284   2.38843   2.42369
  Beta virt. eigenvalues --    2.48291   2.50696   2.54997   2.65574   2.70384
  Beta virt. eigenvalues --    2.72597   2.76453   2.80863   2.86671   2.89626
  Beta virt. eigenvalues --    2.98489   3.16815   3.20827   3.32786   3.45443
  Beta virt. eigenvalues --    3.50351   3.51952   3.53310   3.54570   3.58696
  Beta virt. eigenvalues --    3.60608   3.61594   3.63575   3.66057   3.82660
  Beta virt. eigenvalues --    3.92432   4.09031   4.16913   4.22898   4.30894
  Beta virt. eigenvalues --    4.31445   4.42598   5.11579   5.16109   5.22304
  Beta virt. eigenvalues --    5.55519   5.76312   6.11618   6.40097   6.40630
  Beta virt. eigenvalues --    6.42348   6.46298   6.47941   6.49436   6.51602
  Beta virt. eigenvalues --    6.52607   6.54339   6.70366   6.84927   6.86743
  Beta virt. eigenvalues --    6.88257   6.91113   7.01849   7.10689   7.12661
  Beta virt. eigenvalues --    7.17622   7.23546   7.27754   7.31496   7.53128
  Beta virt. eigenvalues --    9.08338   9.11867   9.12029   9.17529   9.20753
  Beta virt. eigenvalues --    9.22368   9.23622   9.25290   9.26186   9.33187
  Beta virt. eigenvalues --    9.36332   9.46856   9.53131   9.53925   9.68372
  Beta virt. eigenvalues --    9.74442   9.75736   9.78452   9.89260   9.89701
  Beta virt. eigenvalues --   23.97863  24.07896  50.02187  50.05764  66.94805
  Beta virt. eigenvalues --   66.95101  66.96443  67.01630
          Condensed to atoms (all electrons):
               1          2          3          4          5          6
     1  C    4.294380   0.240341   0.242688  -0.080425   0.248464  -0.127815
     2  F    0.240341   9.094373   0.003663   0.019152  -0.000689   0.000258
     3  F    0.242688   0.003663   9.099075  -0.000389  -0.001053   0.022401
     4  O   -0.080425   0.019152  -0.000389   8.015206   0.012650  -0.009608
     5  F    0.248464  -0.000689  -0.001053   0.012650   9.106009   0.019940
     6  F   -0.127815   0.000258   0.022401  -0.009608   0.019940   9.161307
     7  C    0.376643  -0.073752  -0.086851   0.305162  -0.085775   0.260180
     8  O   -0.132259   0.014843   0.015179  -0.010547  -0.001723   0.008813
     9  H    0.007186  -0.000912  -0.000756   0.000144   0.000076  -0.004924
               7          8          9
     1  C    0.376643  -0.132259   0.007186
     2  F   -0.073752   0.014843  -0.000912
     3  F   -0.086851   0.015179  -0.000756
     4  O    0.305162  -0.010547   0.000144
     5  F   -0.085775  -0.001723   0.000076
     6  F    0.260180   0.008813  -0.004924
     7  C    4.383004   0.313012   0.011243
     8  O    0.313012   7.874047   0.242321
     9  H    0.011243   0.242321   0.478839
          Atomic-Atomic Spin Densities.
               1          2          3          4          5          6
     1  C    0.020502  -0.000746   0.000394  -0.007770  -0.003160   0.001054
     2  F   -0.000746   0.001938  -0.000050  -0.000455  -0.000012  -0.000143
     3  F    0.000394  -0.000050   0.001901  -0.000055  -0.000028  -0.000057
     4  O   -0.007770  -0.000455  -0.000055   0.921565   0.002177  -0.002624
     5  F   -0.003160  -0.000012  -0.000028   0.002177   0.001187  -0.000060
     6  F    0.001054  -0.000143  -0.000057  -0.002624  -0.000060   0.009155
     7  C   -0.007211   0.000416  -0.000170   0.009864   0.001717   0.005018
     8  O    0.001958   0.000493  -0.000508  -0.025421  -0.000011  -0.002625
     9  H   -0.001658   0.000044   0.000061  -0.004117   0.000037   0.000578
               7          8          9
     1  C   -0.007211   0.001958  -0.001658
     2  F    0.000416   0.000493   0.000044
     3  F   -0.000170  -0.000508   0.000061
     4  O    0.009864  -0.025421  -0.004117
     5  F    0.001717  -0.000011   0.000037
     6  F    0.005018  -0.002625   0.000578
     7  C   -0.049337  -0.006664   0.000923
     8  O   -0.006664   0.174080   0.000147
     9  H    0.000923   0.000147  -0.003662
 Mulliken charges and spin densities:
               1          2
     1  C    0.930796   0.003362
     2  F   -0.297278   0.001485
     3  F   -0.293956   0.001487
     4  O   -0.251344   0.893165
     5  F   -0.297899   0.001847
     6  F   -0.330552   0.010296
     7  C    0.597134  -0.045444
     8  O   -0.323684   0.141450
     9  H    0.266783  -0.007648
 Sum of Mulliken charges =  -0.00000   1.00000
 Mulliken charges and spin densities with hydrogens summed into heavy atoms:
               1          2
     1  C    0.930796   0.003362
     2  F   -0.297278   0.001485
     3  F   -0.293956   0.001487
     4  O   -0.251344   0.893165
     5  F   -0.297899   0.001847
     6  F   -0.330552   0.010296
     7  C    0.597134  -0.045444
     8  O   -0.056901   0.133802
 APT charges:
               1
     1  C    1.564400
     2  F   -0.518849
     3  F   -0.528494
     4  O   -0.202144
     5  F   -0.515148
     6  F   -0.533443
     7  C    1.004393
     8  O   -0.590660
     9  H    0.319946
 Sum of APT charges =  -0.00000
 APT charges with hydrogens summed into heavy atoms:
               1
     1  C    1.564400
     2  F   -0.518849
     3  F   -0.528494
     4  O   -0.202144
     5  F   -0.515148
     6  F   -0.533443
     7  C    1.004393
     8  O   -0.270714
 Electronic spatial extent (au):  <R**2>=            719.2069
 Charge=             -0.0000 electrons
 Dipole moment (field-independent basis, Debye):
    X=             -1.9159    Y=              0.6013    Z=              0.6150  Tot=              2.1002
 Quadrupole moment (field-independent basis, Debye-Ang):
   XX=            -37.2679   YY=            -44.1328   ZZ=            -44.1089
   XY=             -2.6172   XZ=             -2.4923   YZ=              0.9113
 Traceless Quadrupole moment (field-independent basis, Debye-Ang):
   XX=              4.5686   YY=             -2.2963   ZZ=             -2.2724
   XY=             -2.6172   XZ=             -2.4923   YZ=              0.9113
 Octapole moment (field-independent basis, Debye-Ang**2):
  XXX=            -10.0379  YYY=             -3.5105  ZZZ=              2.2528  XYY=              1.4920
  XXY=              6.6950  XXZ=              7.9962  XZZ=              2.4955  YZZ=             -1.8932
  YYZ=              0.3996  XYZ=             -2.1762
 Hexadecapole moment (field-independent basis, Debye-Ang**3):
 XXXX=           -315.4474 YYYY=           -183.2442 ZZZZ=           -178.3419 XXXY=            -16.2329
 XXXZ=            -21.2400 YYYX=              1.3909 YYYZ=             -1.2067 ZZZX=             -5.5313
 ZZZY=              0.4225 XXYY=            -87.6998 XXZZ=            -90.4442 YYZZ=            -59.5446
 XXYZ=              5.1469 YYXZ=             -0.9116 ZZXY=              1.3072
 N-N= 4.485502472258D+02 E-N=-2.384112450147D+03  KE= 6.249904386277D+02
  Exact polarizability:  37.384  -0.678  35.353  -0.091   1.256  39.538
 Approx polarizability:  36.146  -0.540  39.271   0.401   1.287  43.836
                          Isotropic Fermi Contact Couplings
        Atom                 a.u.       MegaHertz       Gauss      10(-4) cm-1
     1  C(13)              0.00615       6.91081       2.46595       2.30520
     2  F(19)              0.00045       1.88562       0.67283       0.62897
     3  F(19)              0.00061       2.57340       0.91825       0.85839
     4  O(17)              0.09010     -54.61627     -19.48844     -18.21803
     5  F(19)             -0.00001      -0.05159      -0.01841      -0.01721
     6  F(19)             -0.00764     -32.12637     -11.46349     -10.71621
     7  C(13)             -0.02847     -32.00917     -11.42167     -10.67711
     8  O(17)              0.02207     -13.37592      -4.77286      -4.46173
     9  H(1)              -0.00230     -10.26795      -3.66386      -3.42502
 --------------------------------------------------------
       Center         ----  Spin Dipole Couplings  ----
                      3XX-RR        3YY-RR        3ZZ-RR
 --------------------------------------------------------
     1   Atom        0.019315     -0.013158     -0.006157
     2   Atom        0.020227     -0.009199     -0.011027
     3   Atom        0.018043     -0.008976     -0.009066
     4   Atom       -0.950761      1.706338     -0.755577
     5   Atom        0.004279     -0.008140      0.003861
     6   Atom       -0.059698     -0.046578      0.106277
     7   Atom       -0.018382     -0.024774      0.043155
     8   Atom       -0.343656     -0.356420      0.700076
     9   Atom        0.025034     -0.028743      0.003708
 --------------------------------------------------------
                        XY            XZ            YZ
 --------------------------------------------------------
     1   Atom       -0.002151      0.011936      0.000082
     2   Atom        0.006883      0.000601      0.001057
     3   Atom       -0.007440      0.004123     -0.001128
     4   Atom       -1.694900     -0.930445      1.912364
     5   Atom       -0.005288      0.010166     -0.001606
     6   Atom       -0.002078     -0.000365     -0.022478
     7   Atom       -0.007361      0.024314     -0.016138
     8   Atom       -0.001039      0.025732     -0.009475
     9   Atom        0.000825     -0.014914      0.005697
 --------------------------------------------------------


 ---------------------------------------------------------------------------------
              Anisotropic Spin Dipole Couplings in Principal Axis System
 ---------------------------------------------------------------------------------

       Atom             a.u.   MegaHertz   Gauss  10(-4) cm-1        Axes

              Baa    -0.0135    -1.817    -0.648    -0.606  0.1599  0.9498 -0.2690
     1 C(13)  Bbb    -0.0106    -1.422    -0.507    -0.474 -0.3334  0.3085  0.8909
              Bcc     0.0241     3.239     1.156     1.080  0.9291 -0.0528  0.3659
 
              Baa    -0.0118    -5.928    -2.115    -1.977  0.1213 -0.6314  0.7659
     2 F(19)  Bbb    -0.0100    -5.009    -1.787    -1.671 -0.1824  0.7443  0.6425
              Bcc     0.0218    10.937     3.903     3.648  0.9757  0.2176  0.0249
 
              Baa    -0.0109    -5.471    -1.952    -1.825  0.2415  0.9689  0.0534
     3 F(19)  Bbb    -0.0097    -4.861    -1.735    -1.622 -0.1515 -0.0167  0.9883
              Bcc     0.0206    10.332     3.687     3.446  0.9585 -0.2468  0.1427
 
              Baa    -1.7998   130.235    46.471    43.442  0.1810 -0.4021  0.8975
     4 O(17)  Bbb    -1.7757   128.492    45.849    42.860  0.9016  0.4324  0.0119
              Bcc     3.5756  -258.727   -92.320   -86.302 -0.3928  0.8071  0.4408
 
              Baa    -0.0106    -5.307    -1.894    -1.770  0.4630  0.8558 -0.2309
     5 F(19)  Bbb    -0.0047    -2.366    -0.844    -0.789 -0.5226  0.4740  0.7087
              Bcc     0.0153     7.673     2.738     2.559  0.7159 -0.2074  0.6667
 
              Baa    -0.0601   -30.199   -10.776   -10.073  0.9797  0.1982  0.0289
     6 F(19)  Bbb    -0.0494   -24.802    -8.850    -8.273 -0.2003  0.9697  0.1396
              Bcc     0.1095    55.001    19.626    18.346 -0.0004 -0.1425  0.9898
 
              Baa    -0.0296    -3.973    -1.417    -1.325  0.5363  0.8440  0.0080
     7 C(13)  Bbb    -0.0259    -3.474    -1.240    -1.159  0.7791 -0.4914 -0.3892
              Bcc     0.0555     7.446     2.657     2.484  0.3246 -0.2150  0.9211
 
              Baa    -0.3566    25.800     9.206     8.606  0.0657  0.9978  0.0073
     8 O(17)  Bbb    -0.3442    24.909     8.888     8.309  0.9975 -0.0655 -0.0252
              Bcc     0.7008   -50.709   -18.094   -16.915  0.0246 -0.0090  0.9997
 
              Baa    -0.0299   -15.974    -5.700    -5.328 -0.0678  0.9783 -0.1957
     9 H(1)   Bbb    -0.0028    -1.506    -0.538    -0.502  0.4573  0.2048  0.8654
              Bcc     0.0328    17.481     6.238     5.831  0.8868 -0.0308 -0.4612
 

 ---------------------------------------------------------------------------------

 Calling FoFJK, ICntrl=    100127 FMM=F ISym2X=0 I1Cent= 0 IOpClX= 1 NMat=1 NMatS=1 NMatT=0.
 Full mass-weighted force constant matrix:
 Low frequencies ---   -3.4414   -0.0011    0.0004    0.0012    2.0982    4.1617
 Low frequencies ---   70.5959  216.3189  222.5720
 Diagonal vibrational polarizability:
        8.8203935      26.0715893      22.8647265
 Harmonic frequencies (cm**-1), IR intensities (KM/Mole), Raman scattering
 activities (A**4/AMU), depolarization ratios for plane and unpolarized
 incident light, reduced masses (AMU), force constants (mDyne/A),
 and normal coordinates:
                      1                      2                      3
                      A                      A                      A
 Frequencies --     70.5953               216.3189               222.5720
 Red. masses --     16.6463                12.5336                12.2575
 Frc consts  --      0.0489                 0.3456                 0.3578
 IR Inten    --      0.0102                 0.2380                 0.2162
  Atom  AN      X      Y      Z        X      Y      Z        X      Y      Z
     1   6    -0.00   0.00   0.00    -0.01   0.03   0.14    -0.01   0.12  -0.02
     2   9    -0.01   0.11   0.35    -0.05   0.00  -0.02     0.44  -0.04   0.02
     3   9     0.03  -0.37  -0.09     0.42   0.04  -0.02    -0.19  -0.01   0.02
     4   8     0.04  -0.39  -0.10     0.46   0.04  -0.07    -0.17  -0.01   0.02
     5   9    -0.02   0.25  -0.29    -0.37  -0.05  -0.02    -0.28  -0.04  -0.02
     6   9    -0.01   0.12   0.39    -0.07  -0.00  -0.03     0.44  -0.00   0.02
     7   6     0.00  -0.00   0.00     0.00   0.03   0.13    -0.00   0.13  -0.03
     8   8    -0.03   0.25  -0.32    -0.35  -0.07  -0.00    -0.29  -0.03  -0.03
     9   1    -0.03   0.14  -0.23    -0.34  -0.12  -0.39    -0.27  -0.50   0.15
                      4                      5                      6
                      A                      A                      A
 Frequencies --    315.8998               345.3090               362.5625
 Red. masses --      1.4461                 8.1855                 9.2583
 Frc consts  --      0.0850                 0.5751                 0.7170
 IR Inten    --     79.7705                 2.5783                 3.2794
  Atom  AN      X      Y      Z        X      Y      Z        X      Y      Z
     1   6    -0.02   0.01   0.02    -0.10   0.02  -0.03    -0.02  -0.09  -0.04
     2   9    -0.02   0.01   0.03    -0.14   0.03  -0.04    -0.26  -0.05  -0.13
     3   9     0.01   0.01   0.02    -0.30   0.03   0.03    -0.12  -0.19  -0.04
     4   8    -0.03  -0.04   0.01     0.35  -0.08  -0.12     0.13   0.36   0.10
     5   9    -0.07  -0.00   0.01    -0.22   0.01  -0.08     0.16  -0.07   0.02
     6   9     0.07  -0.04  -0.06     0.12   0.01   0.05     0.27   0.02   0.20
     7   6    -0.00  -0.00   0.02     0.09   0.01   0.02     0.05   0.01   0.00
     8   8     0.07   0.02   0.01     0.27  -0.03   0.14    -0.19   0.04  -0.09
     9   1     0.05   0.72  -0.67     0.27  -0.20   0.66    -0.19   0.20  -0.65
                      7                      8                      9
                      A                      A                      A
 Frequencies --    379.7362               474.6004               516.3997
 Red. masses --      4.8219                15.4406                13.0245
 Frc consts  --      0.4097                 2.0491                 2.0464
 IR Inten    --     28.3631                 6.7091                19.7633
  Atom  AN      X      Y      Z        X      Y      Z        X      Y      Z
     1   6     0.02   0.03  -0.05     0.01  -0.10  -0.02    -0.00  -0.02   0.19
     2   9     0.19  -0.04  -0.11     0.08  -0.09   0.22     0.01  -0.20  -0.32
     3   9    -0.14   0.04  -0.01    -0.04   0.37   0.11    -0.03  -0.12   0.26
     4   8     0.12  -0.03   0.01     0.02   0.36   0.19     0.07  -0.10   0.27
     5   9     0.10   0.12  -0.11    -0.15   0.01  -0.28     0.00   0.33  -0.10
     6   9    -0.15   0.00   0.12    -0.09  -0.28   0.19    -0.01  -0.19  -0.23
     7   6    -0.03  -0.03   0.07     0.08  -0.33  -0.09     0.02  -0.01   0.22
     8   8    -0.10  -0.15   0.16     0.15  -0.04  -0.39    -0.04   0.34  -0.14
     9   1    -0.11   0.50  -0.71     0.15  -0.22  -0.14    -0.03  -0.21   0.46
                     10                     11                     12
                      A                      A                      A
 Frequencies --    597.5365               617.9749               678.8811
 Red. masses --     17.1834                15.8112                 7.2152
 Frc consts  --      3.6148                 3.5576                 1.9592
 IR Inten    --      1.7051                 1.5812                46.4887
  Atom  AN      X      Y      Z        X      Y      Z        X      Y      Z
     1   6     0.01   0.32  -0.03     0.01  -0.03  -0.24     0.20   0.01  -0.00
     2   9     0.18   0.44  -0.21     0.03   0.14   0.22    -0.07   0.16  -0.05
     3   9    -0.06  -0.30  -0.21    -0.17   0.16  -0.33    -0.07  -0.04   0.16
     4   8     0.07   0.11   0.16     0.22  -0.17   0.34    -0.05  -0.10   0.25
     5   9    -0.17   0.04   0.40     0.16  -0.32  -0.07    -0.06  -0.13  -0.11
     6   9    -0.18  -0.28   0.09    -0.04  -0.16  -0.18    -0.07   0.25  -0.10
     7   6     0.05  -0.21  -0.00    -0.00   0.05   0.27     0.30   0.00   0.01
     8   8     0.15  -0.06  -0.22    -0.18   0.37   0.07    -0.01  -0.17  -0.09
     9   1     0.14  -0.06  -0.04    -0.17   0.02   0.18     0.01  -0.50  -0.58
                     13                     14                     15
                      A                      A                      A
 Frequencies --    799.5101              1035.2655              1139.6496
 Red. masses --     12.9775                 4.6453                11.5463
 Frc consts  --      4.8875                 2.9334                 8.8356
 IR Inten    --      5.5571               167.6448                82.4641
  Atom  AN      X      Y      Z        X      Y      Z        X      Y      Z
     1   6     0.25   0.01   0.01     0.16  -0.04  -0.00    -0.14   0.00   0.07
     2   9     0.02   0.35  -0.11    -0.05  -0.07   0.02     0.02   0.03  -0.01
     3   9     0.03  -0.09   0.37    -0.04   0.02  -0.06    -0.02   0.01  -0.03
     4   8    -0.06   0.07  -0.26    -0.08   0.01  -0.11    -0.08   0.07  -0.20
     5   9     0.05  -0.28  -0.26    -0.05   0.06   0.05     0.08  -0.07  -0.06
     6   9    -0.03  -0.25   0.09    -0.08  -0.19   0.06     0.01  -0.02  -0.02
     7   6    -0.16   0.05  -0.03     0.30   0.26  -0.03    -0.07   0.29   0.75
     8   8    -0.08   0.16   0.13    -0.01   0.08   0.09     0.13  -0.22  -0.27
     9   1    -0.09   0.39   0.34     0.02  -0.61  -0.59     0.14  -0.28  -0.15
                     16                     17                     18
                      A                      A                      A
 Frequencies --   1184.3732              1226.1751              1238.9123
 Red. masses --      9.5766                 8.7183                12.9931
 Frc consts  --      7.9148                 7.7230                11.7501
 IR Inten    --    238.0517               320.2177               317.3534
  Atom  AN      X      Y      Z        X      Y      Z        X      Y      Z
     1   6    -0.14  -0.07   0.03     0.15   0.44   0.56     0.02   0.71  -0.57
     2   9     0.00   0.03  -0.01    -0.06  -0.13  -0.01    -0.10  -0.26   0.10
     3   9     0.04  -0.00   0.04    -0.07   0.01  -0.18     0.07  -0.08   0.21
     4   8     0.11  -0.08   0.26    -0.03   0.00  -0.00     0.02  -0.00   0.02
     5   9     0.04  -0.02  -0.03     0.06  -0.13  -0.13     0.02  -0.07   0.01
     6   9    -0.03  -0.12   0.05    -0.02  -0.02   0.01    -0.04  -0.05   0.01
     7   6    -0.16   0.62  -0.31     0.06  -0.01  -0.07     0.00   0.05   0.05
     8   8     0.05  -0.21  -0.13    -0.02  -0.03  -0.02     0.01  -0.03  -0.03
     9   1     0.02   0.41   0.35    -0.03   0.46   0.39     0.01   0.08   0.05
                     19                     20                     21
                      A                      A                      A
 Frequencies --   1261.6313              1461.5145              3849.9008
 Red. masses --      2.7218                 3.0477                 1.0657
 Frc consts  --      2.5525                 3.8355                 9.3064
 IR Inten    --     73.1683                13.2172               121.2699
  Atom  AN      X      Y      Z        X      Y      Z        X      Y      Z
     1   6     0.31  -0.09  -0.08    -0.23  -0.02  -0.03    -0.00  -0.00  -0.00
     2   9    -0.04  -0.03   0.02     0.02   0.03  -0.01     0.00   0.00  -0.00
     3   9    -0.04   0.01  -0.03     0.02  -0.00   0.03     0.00  -0.00   0.00
     4   8    -0.01   0.01  -0.01    -0.04   0.01  -0.04     0.00  -0.00   0.00
     5   9    -0.06   0.06   0.06     0.02  -0.01  -0.01     0.00  -0.00  -0.00
     6   9    -0.00   0.01  -0.00    -0.03  -0.02   0.01     0.00  -0.00  -0.00
     7   6    -0.01   0.02   0.07     0.33  -0.01   0.01    -0.00  -0.00  -0.00
     8   8    -0.05  -0.06  -0.06    -0.08  -0.02  -0.01    -0.06  -0.00  -0.00
     9   1    -0.08   0.70   0.61    -0.11   0.70   0.57     1.00   0.04   0.01

 -------------------
 - Thermochemistry -
 -------------------
 Temperature   298.150 Kelvin.  Pressure   1.00000 Atm.
 Atom     1 has atomic number  6 and mass  12.00000
 Atom     2 has atomic number  9 and mass  18.99840
 Atom     3 has atomic number  9 and mass  18.99840
 Atom     4 has atomic number  8 and mass  15.99491
 Atom     5 has atomic number  9 and mass  18.99840
 Atom     6 has atomic number  9 and mass  18.99840
 Atom     7 has atomic number  6 and mass  12.00000
 Atom     8 has atomic number  8 and mass  15.99491
 Atom     9 has atomic number  1 and mass   1.00783
 Molecular mass:   132.99127 amu.
 Principal axes and moments of inertia in atomic units:
                           1         2         3
     Eigenvalues --   619.79235 946.62535 977.58359
           X            0.99916  -0.03731  -0.01723
           Y            0.03930   0.99004   0.13519
           Z            0.01201  -0.13576   0.99067
 This molecule is an asymmetric top.
 Rotational symmetry number  1.
 Warning -- assumption of classical behavior for rotation
           may cause significant error
 Rotational temperatures (Kelvin)      0.13975     0.09150     0.08860
 Rotational constants (GHZ):           2.91185     1.90650     1.84612
 Zero-point vibrational energy     107635.9 (Joules/Mol)
                                   25.72560 (Kcal/Mol)
 Warning -- explicit consideration of  11 degrees of freedom as
           vibrations may cause significant error
 Vibrational temperatures:    101.57   311.23   320.23   454.51   496.82
          (Kelvin)            521.65   546.36   682.84   742.98   859.72
                              889.13   976.76  1150.32  1489.52  1639.70
                             1704.05  1764.19  1782.52  1815.21  2102.79
                             5539.15
 
 Zero-point correction=                           0.040996 (Hartree/Particle)
 Thermal correction to Energy=                    0.048215
 Thermal correction to Enthalpy=                  0.049159
 Thermal correction to Gibbs Free Energy=         0.008500
 Sum of electronic and zero-point Energies=           -626.550048
 Sum of electronic and thermal Energies=              -626.542829
 Sum of electronic and thermal Enthalpies=            -626.541885
 Sum of electronic and thermal Free Energies=         -626.582544
 
                     E (Thermal)             CV                S
                      KCal/Mol        Cal/Mol-Kelvin    Cal/Mol-Kelvin
 Total                   30.255             25.342             85.574
 Electronic               0.000              0.000              1.377
 Translational            0.889              2.981             40.568
 Rotational               0.889              2.981             27.841
 Vibrational             28.478             19.380             15.788
 Vibration     1          0.598              1.968              4.137
 Vibration     2          0.645              1.816              1.990
 Vibration     3          0.648              1.807              1.938
 Vibration     4          0.703              1.643              1.331
 Vibration     5          0.724              1.585              1.188
 Vibration     6          0.736              1.549              1.111
 Vibration     7          0.750              1.513              1.040
 Vibration     8          0.831              1.306              0.725
 Vibration     9          0.871              1.214              0.618
 Vibration    10          0.955              1.037              0.454
 Vibration    11          0.978              0.994              0.420
                       Q            Log10(Q)             Ln(Q)
 Total Bot       0.123141D-03         -3.909597         -9.002179
 Total V=0       0.885931D+15         14.947400         34.417660
 Vib (Bot)       0.376747D-17        -17.423950        -40.120127
 Vib (Bot)    1  0.292124D+01          0.465568          1.072009
 Vib (Bot)    2  0.915808D+00         -0.038196         -0.087949
 Vib (Bot)    3  0.887754D+00         -0.051707         -0.119061
 Vib (Bot)    4  0.596520D+00         -0.224375         -0.516642
 Vib (Bot)    5  0.535921D+00         -0.270899         -0.623768
 Vib (Bot)    6  0.504677D+00         -0.296987         -0.683837
 Vib (Bot)    7  0.476222D+00         -0.322191         -0.741871
 Vib (Bot)    8  0.354022D+00         -0.450970         -1.038397
 Vib (Bot)    9  0.313605D+00         -0.503616         -1.159620
 Vib (Bot)   10  0.250525D+00         -0.601149         -1.384198
 Vib (Bot)   11  0.237150D+00         -0.624977         -1.439062
 Vib (V=0)       0.271048D+02          1.433047          3.299712
 Vib (V=0)    1  0.346372D+01          0.539543          1.242344
 Vib (V=0)    2  0.154341D+01          0.188481          0.433994
 Vib (V=0)    3  0.151888D+01          0.181522          0.417970
 Vib (V=0)    4  0.127836D+01          0.106652          0.245574
 Vib (V=0)    5  0.123295D+01          0.090944          0.209407
 Vib (V=0)    6  0.121042D+01          0.082937          0.190969
 Vib (V=0)    7  0.119050D+01          0.075729          0.174372
 Vib (V=0)    8  0.111264D+01          0.046356          0.106738
 Vib (V=0)    9  0.109021D+01          0.037510          0.086371
 Vib (V=0)   10  0.105925D+01          0.024999          0.057563
 Vib (V=0)   11  0.105339D+01          0.022589          0.052013
 Electronic      0.200000D+01          0.301030          0.693147
 Translational   0.602821D+08          7.780189         17.914546
 Rotational      0.271103D+06          5.433135         12.510255
 ***** Axes restored to original set *****
 -------------------------------------------------------------------
 Center     Atomic                   Forces (Hartrees/Bohr)
 Number     Number              X              Y              Z
 -------------------------------------------------------------------
      1        6          -0.000107341    0.000053771   -0.000061271
      2        9           0.000044428    0.000005854    0.000080256
      3        9          -0.000007989    0.000010433   -0.000019810
      4        8           0.000007919   -0.000022372   -0.000078549
      5        9           0.000010982   -0.000057744    0.000008552
      6        9          -0.000052675   -0.000062637   -0.000066771
      7        6           0.000070770    0.000100716    0.000165844
      8        8           0.000004480   -0.000021595   -0.000031212
      9        1           0.000029427   -0.000006426    0.000002961
 -------------------------------------------------------------------
 Cartesian Forces:  Max     0.000165844 RMS     0.000058889
 FormGI is forming the generalized inverse of G from B-inverse, IUseBI=4.

 GradGradGradGradGradGradGradGradGradGradGradGradGradGradGradGradGradGrad
 Berny optimization.
 Internal  Forces:  Max     0.000098535 RMS     0.000035111
 Search for a local minimum.
 Step number   1 out of a maximum of    2
 All quantities printed in internal units (Hartrees-Bohrs-Radians)
 Second derivative matrix not updated -- analytic derivatives used.
 ITU=  0
     Eigenvalues ---    0.00296   0.00438   0.06260   0.08149   0.10085
     Eigenvalues ---    0.10600   0.15290   0.16135   0.19237   0.21164
     Eigenvalues ---    0.22898   0.24081   0.26878   0.32137   0.35491
     Eigenvalues ---    0.37864   0.38643   0.39151   0.49655   0.53575
     Eigenvalues ---    0.55556
 Angle between quadratic step and forces=  65.35 degrees.
 Linear search not attempted -- first point.
 Iteration  1 RMS(Cart)=  0.00033831 RMS(Int)=  0.00000024
 Iteration  2 RMS(Cart)=  0.00000022 RMS(Int)=  0.00000002
 Variable       Old X    -DE/DX   Delta X   Delta X   Delta X     New X
                                 (Linear)    (Quad)   (Total)
    R1        2.50646  -0.00009   0.00000  -0.00025  -0.00025   2.50621
    R2        2.50860  -0.00002   0.00000   0.00003   0.00003   2.50863
    R3        2.51453  -0.00006   0.00000  -0.00012  -0.00012   2.51441
    R4        2.92739   0.00006   0.00000   0.00023   0.00023   2.92763
    R5        2.54549   0.00006   0.00000   0.00009   0.00009   2.54558
    R6        2.57427  -0.00010   0.00000  -0.00045  -0.00045   2.57383
    R7        2.58004   0.00004   0.00000   0.00029   0.00029   2.58033
    R8        1.82104   0.00003   0.00000   0.00005   0.00005   1.82110
    A1        1.89991  -0.00002   0.00000  -0.00007  -0.00007   1.89984
    A2        1.89793   0.00001   0.00000   0.00017   0.00017   1.89809
    A3        1.92597  -0.00000   0.00000   0.00004   0.00004   1.92600
    A4        1.89974  -0.00001   0.00000  -0.00006  -0.00006   1.89968
    A5        1.93317   0.00002   0.00000  -0.00001  -0.00001   1.93315
    A6        1.90660  -0.00000   0.00000  -0.00005  -0.00005   1.90654
    A7        1.97800   0.00000   0.00000  -0.00004  -0.00004   1.97796
    A8        1.86902  -0.00000   0.00000   0.00017   0.00017   1.86918
    A9        1.89916   0.00004   0.00000   0.00005   0.00005   1.89921
   A10        1.92665   0.00003   0.00000   0.00050   0.00050   1.92715
   A11        1.83960  -0.00005   0.00000  -0.00057  -0.00057   1.83903
   A12        1.95294  -0.00003   0.00000  -0.00013  -0.00013   1.95282
   A13        1.89082   0.00000   0.00000  -0.00013  -0.00013   1.89069
    D1        1.03631  -0.00002   0.00000  -0.00025  -0.00025   1.03606
    D2       -3.11805   0.00002   0.00000   0.00047   0.00047  -3.11758
    D3       -1.00405   0.00002   0.00000   0.00045   0.00045  -1.00361
    D4        3.14145  -0.00003   0.00000  -0.00032  -0.00032   3.14112
    D5       -1.01291   0.00001   0.00000   0.00040   0.00040  -1.01251
    D6        1.10108   0.00001   0.00000   0.00038   0.00038   1.10146
    D7       -1.04938  -0.00003   0.00000  -0.00045  -0.00045  -1.04983
    D8        1.07945   0.00001   0.00000   0.00028   0.00028   1.07973
    D9       -3.08975   0.00000   0.00000   0.00026   0.00026  -3.08949
   D10       -3.12279  -0.00000   0.00000   0.00113   0.00113  -3.12166
   D11        1.03355   0.00000   0.00000   0.00147   0.00147   1.03502
   D12       -1.06105   0.00001   0.00000   0.00129   0.00129  -1.05976
         Item               Value     Threshold  Converged?
 Maximum Force            0.000099     0.000450     YES
 RMS     Force            0.000035     0.000300     YES
 Maximum Displacement     0.001085     0.001800     YES
 RMS     Displacement     0.000338     0.001200     YES
 Predicted change in Energy=-1.148640D-07
 Optimization completed.
    -- Stationary point found.
                           ----------------------------
                           !   Optimized Parameters   !
                           ! (Angstroms and Degrees)  !
 --------------------------                            --------------------------
 ! Name  Definition              Value          Derivative Info.                !
 --------------------------------------------------------------------------------
 ! R1    R(1,2)                  1.3264         -DE/DX =   -0.0001              !
 ! R2    R(1,3)                  1.3275         -DE/DX =    0.0                 !
 ! R3    R(1,5)                  1.3306         -DE/DX =   -0.0001              !
 ! R4    R(1,7)                  1.5491         -DE/DX =    0.0001              !
 ! R5    R(4,7)                  1.347          -DE/DX =    0.0001              !
 ! R6    R(6,7)                  1.3622         -DE/DX =   -0.0001              !
 ! R7    R(7,8)                  1.3653         -DE/DX =    0.0                 !
 ! R8    R(8,9)                  0.9637         -DE/DX =    0.0                 !
 ! A1    A(2,1,3)              108.8569         -DE/DX =    0.0                 !
 ! A2    A(2,1,5)              108.7433         -DE/DX =    0.0                 !
 ! A3    A(2,1,7)              110.3498         -DE/DX =    0.0                 !
 ! A4    A(3,1,5)              108.8471         -DE/DX =    0.0                 !
 ! A5    A(3,1,7)              110.7623         -DE/DX =    0.0                 !
 ! A6    A(5,1,7)              109.2399         -DE/DX =    0.0                 !
 ! A7    A(1,7,4)              113.3313         -DE/DX =    0.0                 !
 ! A8    A(1,7,6)              107.0867         -DE/DX =    0.0                 !
 ! A9    A(1,7,8)              108.8137         -DE/DX =    0.0                 !
 ! A10   A(4,7,6)              110.3889         -DE/DX =    0.0                 !
 ! A11   A(4,7,8)              105.4014         -DE/DX =    0.0                 !
 ! A12   A(6,7,8)              111.8953         -DE/DX =    0.0                 !
 ! A13   A(7,8,9)              108.3361         -DE/DX =    0.0                 !
 ! D1    D(2,1,7,4)             59.3763         -DE/DX =    0.0                 !
 ! D2    D(2,1,7,6)           -178.651          -DE/DX =    0.0                 !
 ! D3    D(2,1,7,8)            -57.528          -DE/DX =    0.0                 !
 ! D4    D(3,1,7,4)            179.9917         -DE/DX =    0.0                 !
 ! D5    D(3,1,7,6)            -58.0355         -DE/DX =    0.0                 !
 ! D6    D(3,1,7,8)             63.0874         -DE/DX =    0.0                 !
 ! D7    D(5,1,7,4)            -60.1251         -DE/DX =    0.0                 !
 ! D8    D(5,1,7,6)             61.8477         -DE/DX =    0.0                 !
 ! D9    D(5,1,7,8)           -177.0294         -DE/DX =    0.0                 !
 ! D10   D(1,7,8,9)           -178.9226         -DE/DX =    0.0                 !
 ! D11   D(4,7,8,9)             59.2179         -DE/DX =    0.0                 !
 ! D12   D(6,7,8,9)            -60.7935         -DE/DX =    0.0                 !
 --------------------------------------------------------------------------------
 GradGradGradGradGradGradGradGradGradGradGradGradGradGradGradGradGradGrad


 ----------------------------------------------------------------------

 Electric dipole moment (input orientation):
 (Debye = 10**-18 statcoulomb cm , SI units = C m)
                  (au)            (Debye)         (10**-30 SI)
   Tot        0.826265D+00      0.210016D+01      0.700536D+01
   x          0.644355D+00      0.163779D+01      0.546307D+01
   y         -0.502767D+00     -0.127791D+01     -0.426263D+01
   z         -0.121433D+00     -0.308652D+00     -0.102955D+01

 Dipole polarizability, Alpha (input orientation).
 (esu units = cm**3 , SI units = C**2 m**2 J**-1)
 Alpha(0;0):
               (au)            (10**-24 esu)      (10**-40 SI)
   iso        0.374251D+02      0.554582D+01      0.617056D+01
   aniso      0.439059D+01      0.650619D+00      0.723911D+00
   xx         0.369616D+02      0.547714D+01      0.609414D+01
   yx        -0.322819D+00     -0.478368D-01     -0.532256D-01
   yy         0.391855D+02      0.580669D+01      0.646081D+01
   zx        -0.104002D+01     -0.154115D+00     -0.171476D+00
   zy        -0.165587D+01     -0.245375D+00     -0.273016D+00
   zz         0.361281D+02      0.535363D+01      0.595672D+01

 ----------------------------------------------------------------------

 Dipole orientation:
     6         -0.34216032          0.46058558         -0.72429321
     9         -2.82498235          0.28019470         -1.01652296
     9          0.32771505          2.86777991         -0.94738870
     8         -0.17892509         -3.04387501          2.21571789
     9          0.78356409         -0.86736251         -2.53871976
     9          3.00548889         -0.30308888          2.07480025
     6          0.45560995         -0.60108801          1.88454496
     8         -0.80425172          0.69023475          3.72894965
     1         -0.27467934          0.04172206          5.34610274

 Electric dipole moment (dipole orientation):
 (Debye = 10**-18 statcoulomb cm , SI units = C m)
                  (au)            (Debye)         (10**-30 SI)
   Tot        0.826265D+00      0.210016D+01      0.700536D+01
   x          0.000000D+00      0.000000D+00      0.000000D+00
   y          0.000000D+00      0.000000D+00      0.000000D+00
   z          0.826265D+00      0.210016D+01      0.700536D+01

 Dipole polarizability, Alpha (dipole orientation).
 (esu units = cm**3 , SI units = C**2 m**2 J**-1)
 Alpha(0;0):
               (au)            (10**-24 esu)      (10**-40 SI)
   iso        0.374251D+02      0.554582D+01      0.617056D+01
   aniso      0.439059D+01      0.650619D+00      0.723911D+00
   xx         0.348794D+02      0.516859D+01      0.575083D+01
   yx        -0.364736D+00     -0.540483D-01     -0.601368D-01
   yy         0.393802D+02      0.583555D+01      0.649292D+01
   zx        -0.150455D+00     -0.222952D-01     -0.248067D-01
   zy         0.971670D+00      0.143987D+00      0.160207D+00
   zz         0.380156D+02      0.563333D+01      0.626792D+01

 ----------------------------------------------------------------------
 1\1\GINC-CCLEARTI\Freq\UwB97XD\6-311+G(2d,2p)\C2H1F4O2(2)\RAPPE\24-Oct
 -2025\0\\#N Geom=AllCheck Guess=TCheck SCRF=Check GenChk UwB97XD/6-311
 +G(2d,2p) Freq\\Title Card Required\\0,2\C,-0.4847913866,-0.0067433604
 ,0.0634345604\F,-1.1831081668,-0.3915653472,-0.9965188824\F,-0.9373353
 885,-0.6508816585,1.1323284873\O,1.5362822289,0.3381654954,-1.22626783
 19\F,-0.6629829901,1.2998224051,0.2415094513\F,1.6697164786,0.09852819
 2,0.9813339771\C,1.0225598396,-0.2916642854,-0.1520919829\O,1.18779530
 91,-1.6241245575,-0.3996463951\H,2.1287787758,-1.7965027236,-0.5156911
 439\\Version=EM64M-G16RevA.03\State=2-A\HF=-626.5910439\S2=0.754533\S2
 -1=0.\S2A=0.750015\RMSD=6.660e-10\RMSF=5.889e-05\ZeroPoint=0.0409964\T
 hermal=0.0482145\Dipole=0.6443546,-0.5027668,-0.1214329\DipoleDeriv=1.
 4296644,0.0377955,0.0164294,0.0195292,1.6278737,0.0018401,0.0786549,0.
 0179725,1.635661,-0.5670955,-0.096661,-0.3227032,-0.0677899,-0.3180046
 ,-0.1397485,-0.2542503,-0.1550044,-0.6714465,-0.4841181,-0.1202025,0.2
 562545,-0.0853033,-0.404174,0.2317435,0.2112744,0.2447272,-0.6971894,-
 0.2598812,0.0756753,0.1254166,0.0520863,0.0185241,-0.0303957,0.0245961
 ,-0.1518918,-0.3650761,-0.3707612,0.1702698,0.0437998,0.0923085,-0.889
 5975,-0.1069983,0.0214621,-0.0999198,-0.2850856,-0.4771653,-0.1081051,
 -0.3181478,0.0047861,-0.3040787,-0.1991999,-0.2697109,-0.2360998,-0.81
 90864,0.8863921,-0.0403346,0.1286171,-0.1459218,0.7581869,0.3504718,0.
 184828,0.3408546,1.368599,-0.4236555,0.1999047,0.0457273,0.189192,-0.8
 304702,-0.1100491,0.0037729,0.0256917,-0.5178533,0.2666203,-0.1183422,
 0.0246061,-0.0588871,0.3417403,0.0023363,-0.0006271,0.0136698,0.351477
 3\Polar=36.9615796,-0.3228187,39.1854811,-1.0400215,-1.6558697,36.1280
 939\Quadrupole=1.7866958,0.4103823,-2.1970782,-3.3186345,-0.8815929,0.
 6688589\PG=C01 [X(C2H1F4O2)]\NImag=0\\0.61229236,-0.00928274,0.5469091
 7,-0.00822172,0.00313372,0.55575190,-0.17093237,-0.02927462,-0.0908944
 7,0.16665832,-0.03355500,-0.08784335,-0.04021242,0.05400150,0.10973814
 ,-0.10404618,-0.03893744,-0.19086678,0.14413262,0.07877202,0.29856917,
 -0.12892827,-0.03730458,0.07271742,0.01956116,0.00772695,-0.01874016,0
 .10974513,-0.04290643,-0.11389599,0.07240139,0.00518665,0.01488935,0.0
 0770250,0.05823716,0.15897488,0.08182687,0.07015358,-0.20421332,-0.004
 15168,0.01525140,-0.08225731,-0.09027871,-0.13217980,0.29971997,-0.010
 48550,-0.01893547,0.02764297,0.00048945,0.00054008,0.00124110,-0.00813
 458,-0.00117970,0.00502190,0.10060857,-0.00404220,0.00161509,0.0048818
 2,0.00034880,0.00032707,0.00050874,-0.00076876,-0.00054245,0.00056307,
 0.05029255,0.10401003,0.00963282,0.00873677,-0.01915402,0.00065130,-0.
 00059026,0.00415153,0.00487669,0.00089517,-0.00154313,-0.09476711,-0.1
 0944514,0.27163961,-0.10214180,0.05057649,0.00944652,0.01334626,-0.028
 65922,-0.01226251,0.01549282,-0.01868849,0.00139013,0.00009144,-0.0003
 8516,0.00025041,0.07839418,0.06262666,-0.26238265,-0.03016578,-0.01772
 364,-0.04362849,-0.04209878,-0.00936459,-0.06424104,0.03363962,0.00224
 280,0.00134918,0.00002498,-0.04456552,0.40112742,0.01133073,-0.0293652
 0,-0.07908769,-0.00756226,-0.05173484,-0.01669992,-0.00104892,0.045708
 29,0.00249773,-0.00114918,-0.00100501,0.00154841,-0.00464667,0.0449084
 0,0.08640726,-0.01431018,-0.01675754,-0.04206595,-0.01320164,0.0002202
 1,-0.00384440,-0.00108228,0.00024831,0.00227664,0.01720499,0.00263220,
 0.00063065,-0.00085283,0.00290675,0.00196014,0.13197906,-0.00366172,-0
 .00038386,-0.00639086,0.00039924,0.00100212,0.00151915,0.00160094,0.00
 127148,-0.00144638,-0.00013684,0.00382180,0.01240047,0.00052254,0.0040
 0668,0.00244666,0.03973304,0.08541833,-0.00419712,-0.01193386,-0.02207
 010,-0.00453575,0.00094465,0.00050535,-0.00283255,-0.00062269,0.008470
 12,-0.00469531,0.01237243,-0.07764477,0.00017630,0.00286470,0.00336776
 ,0.11064129,0.07159471,0.25966623,-0.18890361,0.02334834,0.02616827,-0
 .01470483,-0.00069367,-0.00612476,-0.00576938,0.00010504,0.00338164,-0
 .11716452,-0.04020341,0.07934691,0.00549488,-0.00459407,-0.00146881,-0
 .13274023,-0.01766987,-0.07870332,0.58369999,0.03713271,-0.05748168,0.
 00144564,-0.01658008,0.00290342,-0.01018174,-0.02372232,-0.00032024,0.
 01691463,-0.01345370,-0.04295519,0.05410695,0.03560114,-0.03352597,-0.
 01019830,-0.01405420,-0.06214487,-0.04492037,-0.04021967,0.45116877,0.
 01122099,0.00844489,-0.03999693,-0.03824416,-0.00414635,-0.01542313,0.
 03749651,0.00783628,-0.02602520,0.06878692,0.07252661,-0.18732196,0.00
 321366,-0.00670611,0.00183292,-0.06245912,-0.03125787,-0.15467997,-0.0
 3806719,0.00511453,0.48842670,0.00432402,0.03694560,0.00461771,-0.0021
 4595,0.00043783,-0.00062170,-0.00166333,-0.00107363,0.00119232,0.01649
 488,-0.01038261,0.00177262,-0.01020696,0.00853366,0.00269914,0.0133247
 9,-0.01907871,-0.01364518,-0.12477565,0.03807369,0.01506517,0.60579654
 ,-0.00386846,-0.02066441,-0.00421740,0.00394411,0.00202106,0.00232202,
 0.00360861,0.00326584,-0.00283938,-0.01756704,-0.06853489,0.03450133,0
 .00380709,-0.00158615,-0.00028036,-0.01206747,-0.03475213,-0.03277414,
 0.02470651,-0.24106511,-0.04349744,-0.09998739,0.41540155,0.00276131,-
 0.00859863,-0.00118168,0.00054253,0.00108253,0.00202790,-0.00182356,-0
 .00166835,0.00331292,-0.00023951,0.01832609,0.00830589,0.00217546,-0.0
 0194751,0.00017587,-0.00644912,-0.05102752,-0.01646007,0.00226044,-0.0
 0658798,-0.06652803,-0.06255180,0.06275327,0.08278251,-0.00091465,0.00
 068452,0.00058924,0.00092960,-0.00001869,0.00026600,0.00077874,0.00007
 110,-0.00065913,0.00089525,0.00250860,-0.00239430,0.00038202,-0.000062
 04,-0.00011417,-0.00032167,-0.00170863,-0.00220835,-0.00513663,-0.0027
 7759,0.00298723,-0.50114833,0.09742404,0.06332425,0.50453568,-0.002442
 81,-0.00587233,-0.00087612,-0.00030195,0.00059068,0.00039353,-0.000013
 41,0.00059817,-0.00005672,-0.00180267,0.00090936,-0.00063027,0.0017911
 2,-0.00111899,-0.00047966,-0.00286131,0.00176044,0.00247456,0.05522079
 ,-0.01657912,-0.00831454,0.04653154,-0.05408576,-0.01233190,-0.0961213
 1,0.07379756,-0.00030770,-0.00163384,0.00081863,0.00006187,0.00063326,
 -0.00000681,-0.00036672,-0.00007279,0.00003822,-0.00184178,0.00127139,
 0.00001844,0.00025669,-0.00051951,-0.00004234,-0.00069014,0.00216163,-
 0.00115455,0.01320682,-0.00569334,-0.00028441,0.05147172,-0.01596792,-
 0.01243530,-0.06179077,0.01982112,0.01304812\\0.00010734,-0.00005377,0
 .00006127,-0.00004443,-0.00000585,-0.00008026,0.00000799,-0.00001043,0
 .00001981,-0.00000792,0.00002237,0.00007855,-0.00001098,0.00005774,-0.
 00000855,0.00005267,0.00006264,0.00006677,-0.00007077,-0.00010072,-0.0
 0016584,-0.00000448,0.00002160,0.00003121,-0.00002943,0.00000643,-0.00
 000296\\\@


 LOGIC IS A SYSTEMATIC METHOD OF COMING TO THE
 WRONG CONCLUSION WITH CONFIDENCE.
 Job cpu time:       0 days  2 hours 40 minutes 28.9 seconds.
 Elapsed time:       0 days  0 hours  6 minutes 46.7 seconds.
 File lengths (MBytes):  RWF=    101 Int=      0 D2E=      0 Chk=      7 Scr=      1
 Normal termination of Gaussian 16 at Fri Oct 24 15:05:52 2025.
