 Entering Gaussian System, Link 0=/applications/g16/g16/g16
 Initial command:
 /applications/g16/g16/l1.exe "/scratch/g98/Gau-11632.inp" -scrdir="/scratch/g98/"
 Entering Link 1 = /applications/g16/g16/l1.exe PID=     11633.
  
 Copyright (c) 1988,1990,1992,1993,1995,1998,2003,2009,2016,
            Gaussian, Inc.  All Rights Reserved.
  
 This is part of the Gaussian(R) 16 program.  It is based on
 the Gaussian(R) 09 system (copyright 2009, Gaussian, Inc.),
 the Gaussian(R) 03 system (copyright 2003, Gaussian, Inc.),
 the Gaussian(R) 98 system (copyright 1998, Gaussian, Inc.),
 the Gaussian(R) 94 system (copyright 1995, Gaussian, Inc.),
 the Gaussian 92(TM) system (copyright 1992, Gaussian, Inc.),
 the Gaussian 90(TM) system (copyright 1990, Gaussian, Inc.),
 the Gaussian 88(TM) system (copyright 1988, Gaussian, Inc.),
 the Gaussian 86(TM) system (copyright 1986, Carnegie Mellon
 University), and the Gaussian 82(TM) system (copyright 1983,
 Carnegie Mellon University). Gaussian is a federally registered
 trademark of Gaussian, Inc.
  
 This software contains proprietary and confidential information,
 including trade secrets, belonging to Gaussian, Inc.
  
 This software is provided under written license and may be
 used, copied, transmitted, or stored only in accord with that
 written license.
  
 The following legend is applicable only to US Government
 contracts under FAR:
  
                    RESTRICTED RIGHTS LEGEND
  
 Use, reproduction and disclosure by the US Government is
 subject to restrictions as set forth in subparagraphs (a)
 and (c) of the Commercial Computer Software - Restricted
 Rights clause in FAR 52.227-19.
  
 Gaussian, Inc.
 340 Quinnipiac St., Bldg. 40, Wallingford CT 06492
  
  
 ---------------------------------------------------------------
 Warning -- This program may not be used in any manner that
 competes with the business of Gaussian, Inc. or will provide
 assistance to any competitor of Gaussian, Inc.  The licensee
 of this program is prohibited from giving any competitor of
 Gaussian, Inc. access to this program.  By using this program,
 the user acknowledges that Gaussian, Inc. is engaged in the
 business of creating and licensing software in the field of
 computational chemistry and represents and warrants to the
 licensee that it is not a competitor of Gaussian, Inc. and that
 it will not use this program in any manner prohibited above.
 ---------------------------------------------------------------
  

 Cite this work as:
 Gaussian 16, Revision A.03,
 M. J. Frisch, G. W. Trucks, H. B. Schlegel, G. E. Scuseria, 
 M. A. Robb, J. R. Cheeseman, G. Scalmani, V. Barone, 
 G. A. Petersson, H. Nakatsuji, X. Li, M. Caricato, A. V. Marenich, 
 J. Bloino, B. G. Janesko, R. Gomperts, B. Mennucci, H. P. Hratchian, 
 J. V. Ortiz, A. F. Izmaylov, J. L. Sonnenberg, D. Williams-Young, 
 F. Ding, F. Lipparini, F. Egidi, J. Goings, B. Peng, A. Petrone, 
 T. Henderson, D. Ranasinghe, V. G. Zakrzewski, J. Gao, N. Rega, 
 G. Zheng, W. Liang, M. Hada, M. Ehara, K. Toyota, R. Fukuda, 
 J. Hasegawa, M. Ishida, T. Nakajima, Y. Honda, O. Kitao, H. Nakai, 
 T. Vreven, K. Throssell, J. A. Montgomery, Jr., J. E. Peralta, 
 F. Ogliaro, M. J. Bearpark, J. J. Heyd, E. N. Brothers, K. N. Kudin, 
 V. N. Staroverov, T. A. Keith, R. Kobayashi, J. Normand, 
 K. Raghavachari, A. P. Rendell, J. C. Burant, S. S. Iyengar, 
 J. Tomasi, M. Cossi, J. M. Millam, M. Klene, C. Adamo, R. Cammi, 
 J. W. Ochterski, R. L. Martin, K. Morokuma, O. Farkas, 
 J. B. Foresman, and D. J. Fox, Gaussian, Inc., Wallingford CT, 2016.
 
 ******************************************
 Gaussian 16:  EM64M-G16RevA.03 25-Dec-2016
                 2-Jan-2026 
 ******************************************
 %nprocshared=24
 Will use up to   24 processors via shared memory.
 %mem=48GB
 %chk=triflate_amide.chk
 ---------------------------------
 #p opt freq wb97xd/6-311+g(2d,2p)
 ---------------------------------
 1/18=20,19=15,26=3,38=1/1,3;
 2/9=110,12=2,17=6,18=5,40=1/2;
 3/5=4,6=6,7=212,11=2,25=1,30=1,71=1,74=-58/1,2,3;
 4//1;
 5/5=2,38=5/2;
 6/7=2,8=2,9=2,10=2,28=1/1;
 7//1,2,3,16;
 1/18=20,19=15,26=3/3(2);
 2/9=110/2;
 99//99;
 2/9=110/2;
 3/5=4,6=6,7=212,11=2,25=1,30=1,71=1,74=-58/1,2,3;
 4/5=5,16=3,69=1/1;
 5/5=2,38=5/2;
 7//1,2,3,16;
 1/18=20,19=15,26=3/3(-5);
 2/9=110/2;
 6/7=2,8=2,9=2,10=2,19=2,28=1/1;
 99/9=1/99;
 Leave Link    1 at Fri Jan  2 11:44:32 2026, MaxMem=  6442450944 cpu:               0.9 elap:               0.0
 (Enter /applications/g16/g16/l101.exe)
 -------------------
 Title Card Required
 -------------------
 Symbolic Z-matrix:
 Charge =  0 Multiplicity = 1
 C                     1.06089   0.56215  -0.17804 
 S                     2.6408   -0.38927   0.12322 
 O                     2.76699  -0.54453   1.53686 
 O                     2.61854  -1.4747   -0.80591 
 F                     1.02662   1.57814   0.68984 
 F                     1.10625   1.04937  -1.42049 
 N                     3.72111   0.72746  -0.37094 
 H                     4.32093   1.05379   0.37002 
 H                     4.1766    0.49725  -1.23975 
 F                    -0.04294  -0.20317  -0.0426 
 
 ITRead=  0  0  0  0  0  0  0  0  0  0
 MicOpt= -1 -1 -1 -1 -1 -1 -1 -1 -1 -1
 NAtoms=     10 NQM=       10 NQMF=       0 NMMI=      0 NMMIF=      0
                NMic=       0 NMicF=      0.
                    Isotopes and Nuclear Properties:
 (Nuclear quadrupole moments (NQMom) in fm**2, nuclear magnetic moments (NMagM)
  in nuclear magnetons)

  Atom         1           2           3           4           5           6           7           8           9          10
 IAtWgt=          12          32          16          16          19          19          14           1           1          19
 AtmWgt=  12.0000000  31.9720718  15.9949146  15.9949146  18.9984033  18.9984033  14.0030740   1.0078250   1.0078250  18.9984033
 NucSpn=           0           0           0           0           1           1           2           1           1           1
 AtZEff=   0.0000000   0.0000000   0.0000000   0.0000000   0.0000000   0.0000000   0.0000000   0.0000000   0.0000000   0.0000000
 NQMom=    0.0000000   0.0000000   0.0000000   0.0000000   0.0000000   0.0000000   2.0440000   0.0000000   0.0000000   0.0000000
 NMagM=    0.0000000   0.0000000   0.0000000   0.0000000   2.6288670   2.6288670   0.4037610   2.7928460   2.7928460   2.6288670
 AtZNuc=   6.0000000  16.0000000   8.0000000   8.0000000   9.0000000   9.0000000   7.0000000   1.0000000   1.0000000   9.0000000
 Leave Link  101 at Fri Jan  2 11:44:32 2026, MaxMem=  6442450944 cpu:              16.9 elap:               0.7
 (Enter /applications/g16/g16/l103.exe)

 GradGradGradGradGradGradGradGradGradGradGradGradGradGradGradGradGradGrad
 Berny optimization.
 Initialization pass.
                           ----------------------------
                           !    Initial Parameters    !
                           ! (Angstroms and Degrees)  !
 --------------------------                            --------------------------
 ! Name  Definition              Value          Derivative Info.                !
 --------------------------------------------------------------------------------
 ! R1    R(1,2)                  1.8687         estimate D2E/DX2                !
 ! R2    R(1,5)                  1.3366         estimate D2E/DX2                !
 ! R3    R(1,6)                  1.3353         estimate D2E/DX2                !
 ! R4    R(1,10)                 1.35           estimate D2E/DX2                !
 ! R5    R(2,3)                  1.4277         estimate D2E/DX2                !
 ! R6    R(2,4)                  1.429          estimate D2E/DX2                !
 ! R7    R(2,7)                  1.6304         estimate D2E/DX2                !
 ! R8    R(7,8)                  1.0076         estimate D2E/DX2                !
 ! R9    R(7,9)                  1.0076         estimate D2E/DX2                !
 ! A1    A(2,1,5)              107.6979         estimate D2E/DX2                !
 ! A2    A(2,1,6)              107.8814         estimate D2E/DX2                !
 ! A3    A(2,1,10)             112.7359         estimate D2E/DX2                !
 ! A4    A(5,1,6)              109.1273         estimate D2E/DX2                !
 ! A5    A(5,1,10)             110.1694         estimate D2E/DX2                !
 ! A6    A(6,1,10)             109.1451         estimate D2E/DX2                !
 ! A7    A(1,2,3)              106.8412         estimate D2E/DX2                !
 ! A8    A(1,2,4)              105.5894         estimate D2E/DX2                !
 ! A9    A(1,2,7)               99.3585         estimate D2E/DX2                !
 ! A10   A(3,2,4)              124.2337         estimate D2E/DX2                !
 ! A11   A(3,2,7)              108.422          estimate D2E/DX2                !
 ! A12   A(4,2,7)              109.4819         estimate D2E/DX2                !
 ! A13   A(2,7,8)              113.1643         estimate D2E/DX2                !
 ! A14   A(2,7,9)              113.8516         estimate D2E/DX2                !
 ! A15   A(8,7,9)              116.0371         estimate D2E/DX2                !
 ! D1    D(5,1,2,3)             44.8856         estimate D2E/DX2                !
 ! D2    D(5,1,2,4)            178.8875         estimate D2E/DX2                !
 ! D3    D(5,1,2,7)            -67.7281         estimate D2E/DX2                !
 ! D4    D(6,1,2,3)            162.5542         estimate D2E/DX2                !
 ! D5    D(6,1,2,4)            -63.4439         estimate D2E/DX2                !
 ! D6    D(6,1,2,7)             49.9406         estimate D2E/DX2                !
 ! D7    D(10,1,2,3)           -76.8591         estimate D2E/DX2                !
 ! D8    D(10,1,2,4)            57.1428         estimate D2E/DX2                !
 ! D9    D(10,1,2,7)           170.5272         estimate D2E/DX2                !
 ! D10   D(1,2,7,8)            115.6712         estimate D2E/DX2                !
 ! D11   D(1,2,7,9)           -108.9964         estimate D2E/DX2                !
 ! D12   D(3,2,7,8)              4.3016         estimate D2E/DX2                !
 ! D13   D(3,2,7,9)            139.6341         estimate D2E/DX2                !
 ! D14   D(4,2,7,8)           -134.0121         estimate D2E/DX2                !
 ! D15   D(4,2,7,9)              1.3203         estimate D2E/DX2                !
 --------------------------------------------------------------------------------
 Trust Radius=3.00D-01 FncErr=1.00D-07 GrdErr=1.00D-06 EigMax=2.50D+02 EigMin=1.00D-04
 Number of steps in this run=     49 maximum allowed number of steps=    100.
 GradGradGradGradGradGradGradGradGradGradGradGradGradGradGradGradGradGrad

 Leave Link  103 at Fri Jan  2 11:44:32 2026, MaxMem=  6442450944 cpu:               0.5 elap:               0.0
 (Enter /applications/g16/g16/l202.exe)
                          Input orientation:                          
 ---------------------------------------------------------------------
 Center     Atomic      Atomic             Coordinates (Angstroms)
 Number     Number       Type             X           Y           Z
 ---------------------------------------------------------------------
      1          6           0        1.060894    0.562150   -0.178037
      2         16           0        2.640796   -0.389267    0.123224
      3          8           0        2.766991   -0.544531    1.536860
      4          8           0        2.618540   -1.474697   -0.805909
      5          9           0        1.026617    1.578135    0.689838
      6          9           0        1.106249    1.049365   -1.420486
      7          7           0        3.721113    0.727460   -0.370942
      8          1           0        4.320930    1.053788    0.370020
      9          1           0        4.176602    0.497249   -1.239747
     10          9           0       -0.042936   -0.203170   -0.042597
 ---------------------------------------------------------------------
                    Distance matrix (angstroms):
                    1          2          3          4          5
     1  C    0.000000
     2  S    1.868701   0.000000
     3  O    2.660147   1.427725   0.000000
     4  O    2.639930   1.428965   2.525037   0.000000
     5  F    1.336640   2.607162   2.872640   3.753833   0.000000
     6  F    1.335333   2.609126   3.747594   3.005930   2.177018
     7  N    2.672322   1.630449   2.483550   2.500872   3.018147
     8  H    3.342141   2.228490   2.516121   3.267136   3.351078
     9  H    3.292275   2.236582   3.283574   2.550361   3.848898
    10  F    1.350000   2.695283   3.241435   3.046782   2.203055
                    6          7          8          9         10
     6  F    0.000000
     7  N    2.835962   0.000000
     8  H    3.679688   1.007619   0.000000
     9  H    3.124831   1.007616   1.709361   0.000000
    10  F    2.188161   3.891266   4.559992   4.441650   0.000000
 Stoichiometry    CH2F3NO2S
 Framework group  C1[X(CH2F3NO2S)]
 Deg. of freedom    24
 Full point group                 C1      NOp   1
 Largest Abelian subgroup         C1      NOp   1
 Largest concise Abelian subgroup C1      NOp   1
                         Standard orientation:                         
 ---------------------------------------------------------------------
 Center     Atomic      Atomic             Coordinates (Angstroms)
 Number     Number       Type             X           Y           Z
 ---------------------------------------------------------------------
      1          6           0       -1.006444    0.032310    0.004783
      2         16           0        0.846821   -0.206674    0.023181
      3          8           0        1.200808   -0.593764    1.351057
      4          8           0        1.146743   -0.973561   -1.144669
      5          9           0       -1.337386    0.727347    1.097490
      6          9           0       -1.316889    0.747446   -1.079338
      7          7           0        1.315632    1.338091   -0.205467
      8          1           0        1.821235    1.719033    0.578461
      9          1           0        1.712483    1.513083   -1.114960
     10          9           0       -1.682838   -1.135597   -0.026590
 ---------------------------------------------------------------------
 Rotational constants (GHZ):           2.5948518           1.5458759           1.5387748
 Leave Link  202 at Fri Jan  2 11:44:32 2026, MaxMem=  6442450944 cpu:               0.1 elap:               0.0
 (Enter /applications/g16/g16/l301.exe)
 Standard basis: 6-311+G(2d,2p) (5D, 7F)
 Ernie: Thresh=  0.10000D-02 Tol=  0.10000D-05 Strict=F.
 There are   258 symmetry adapted cartesian basis functions of A   symmetry.
 There are   242 symmetry adapted basis functions of A   symmetry.
   242 basis functions,   372 primitive gaussians,   258 cartesian basis functions
    37 alpha electrons       37 beta electrons
       nuclear repulsion energy       565.0118480668 Hartrees.
 IExCor= 4639 DFT=T Ex+Corr=wB97XD ExCW=0 ScaHFX=  1.000000
 ScaDFX=  1.000000  1.000000  1.000000  1.000000 ScalE2=  1.000000  1.000000
 IRadAn=      5 IRanWt=     -1 IRanGd=            0 ICorTp=0 IEmpDi=121
 HFx  wShort=  0.000000 wLong=  0.200000 cFull=  0.222036 cShort=  0.000000 cLong=  0.777964
 DFx  wShort=  0.000000 wLong=  0.200000 cFull=  0.000000 cShort=  0.000000 cLong=  1.000000
 NAtoms=   10 NActive=   10 NUniq=   10 SFac= 1.00D+00 NAtFMM=   60 NAOKFM=F Big=F
 Integral buffers will be    131072 words long.
 Raffenetti 2 integral format.
 Two-electron integral symmetry is turned on.
 R6Disp:  Grimme-D2 Dispersion energy=       -0.0034705423 Hartrees.
 Nuclear repulsion after empirical dispersion term =      565.0083775245 Hartrees.
 Leave Link  301 at Fri Jan  2 11:44:33 2026, MaxMem=  6442450944 cpu:               1.6 elap:               0.1
 (Enter /applications/g16/g16/l302.exe)
 NPDir=0 NMtPBC=     1 NCelOv=     1 NCel=       1 NClECP=     1 NCelD=      1
         NCelK=      1 NCelE2=     1 NClLst=     1 CellRange=     0.0.
 One-electron integrals computed using PRISM.
 One-electron integral symmetry used in STVInt
 NBasis=   242 RedAO= T EigKep=  2.16D-04  NBF=   242
 NBsUse=   242 1.00D-06 EigRej= -1.00D+00 NBFU=   242
 Precomputing XC quadrature grid using
 IXCGrd= 4 IRadAn=           5 IRanWt=          -1 IRanGd=           0 AccXCQ= 0.00D+00.
 Generated NRdTot=       0 NPtTot=           0 NUsed=           0 NTot=          32
 NSgBfM=   258   258   258   258   258 MxSgAt=    10 MxSgA2=    10.
 Leave Link  302 at Fri Jan  2 11:44:33 2026, MaxMem=  6442450944 cpu:               8.0 elap:               0.4
 (Enter /applications/g16/g16/l303.exe)
 DipDrv:  MaxL=1.
 Leave Link  303 at Fri Jan  2 11:44:33 2026, MaxMem=  6442450944 cpu:               1.4 elap:               0.1
 (Enter /applications/g16/g16/l401.exe)
 ExpMin= 4.05D-02 ExpMax= 9.34D+04 ExpMxC= 3.17D+03 IAcc=3 IRadAn=         5 AccDes= 0.00D+00
 Harris functional with IExCor= 4639 and IRadAn=       5 diagonalized for initial guess.
 HarFok:  IExCor= 4639 AccDes= 0.00D+00 IRadAn=         5 IDoV= 1 UseB2=F ITyADJ=14
 ICtDFT=  3500011 ScaDFX=  1.000000  1.000000  1.000000  1.000000
 FoFCou: FMM=F IPFlag=           0 FMFlag=      100000 FMFlg1=           0
         NFxFlg=           0 DoJE=T BraDBF=F KetDBF=T FulRan=T
         wScrn=  0.000000 ICntrl=       500 IOpCl=  0 I1Cent=   200000004 NGrid=           0
         NMat0=    1 NMatS0=      1 NMatT0=    0 NMatD0=    1 NMtDS0=    0 NMtDT0=    0
 Petite list used in FoFCou.
 Harris En= -917.377494912365    
 JPrj=0 DoOrth=F DoCkMO=F.
 Leave Link  401 at Fri Jan  2 11:44:34 2026, MaxMem=  6442450944 cpu:              20.8 elap:               0.9
 (Enter /applications/g16/g16/l502.exe)
 Keep R1 ints in memory in canonical form, NReq=890653791.
 FoFCou: FMM=F IPFlag=           0 FMFlag=           0 FMFlg1=           0
         NFxFlg=           0 DoJE=F BraDBF=F KetDBF=F FulRan=T
         wScrn=  0.000000 ICntrl=       600 IOpCl=  0 I1Cent=           0 NGrid=           0
         NMat0=    1 NMatS0=  29403 NMatT0=    0 NMatD0=    1 NMtDS0=    0 NMtDT0=    0
 Symmetry not used in FoFCou.
 Two-electron integral symmetry not used.
 Closed shell SCF:
 Using DIIS extrapolation, IDIIS=  1040.
 NGot=  6442450944 LenX=  5577743467 LenY=  5577676462
 Requested convergence on RMS density matrix=1.00D-08 within 128 cycles.
 Requested convergence on MAX density matrix=1.00D-06.
 Requested convergence on             energy=1.00D-06.
 No special actions if energy rises.

 Cycle   1  Pass 1  IDiag  1:
 E= -941.732165968536    
 DIIS: error= 1.42D-01 at cycle   1 NSaved=   1.
 NSaved= 1 IEnMin= 1 EnMin= -941.732165968536     IErMin= 1 ErrMin= 1.42D-01
 ErrMax= 1.42D-01  0.00D+00 EMaxC= 1.00D-01 BMatC= 2.63D+00 BMatP= 2.63D+00
 IDIUse=3 WtCom= 0.00D+00 WtEn= 1.00D+00
 Coeff-Com:  0.100D+01
 Coeff-En:   0.100D+01
 Coeff:      0.100D+01
 Gap=     0.645 Goal=   None    Shift=    0.000
 GapD=    0.645 DampG=2.000 DampE=0.250 DampFc=0.5000 IDamp=-1.
 Damping current iteration by 5.00D-01
 RMSDP=4.17D-03 MaxDP=2.70D-01              OVMax= 1.83D-01

 Cycle   2  Pass 1  IDiag  1:
 E= -941.981670092760     Delta-E=       -0.249504124223 Rises=F Damp=T
 DIIS: error= 5.57D-02 at cycle   2 NSaved=   2.
 NSaved= 2 IEnMin= 2 EnMin= -941.981670092760     IErMin= 2 ErrMin= 5.57D-02
 ErrMax= 5.57D-02  0.00D+00 EMaxC= 1.00D-01 BMatC= 3.86D-01 BMatP= 2.63D+00
 IDIUse=3 WtCom= 4.43D-01 WtEn= 5.57D-01
 Coeff-Com: -0.422D+00 0.142D+01
 Coeff-En:   0.000D+00 0.100D+01
 Coeff:     -0.187D+00 0.119D+01
 Gap=     0.554 Goal=   None    Shift=    0.000
 RMSDP=1.32D-03 MaxDP=4.79D-02 DE=-2.50D-01 OVMax= 1.02D-01

 Cycle   3  Pass 1  IDiag  1:
 E= -942.193112560925     Delta-E=       -0.211442468165 Rises=F Damp=F
 DIIS: error= 9.20D-03 at cycle   3 NSaved=   3.
 NSaved= 3 IEnMin= 3 EnMin= -942.193112560925     IErMin= 3 ErrMin= 9.20D-03
 ErrMax= 9.20D-03  0.00D+00 EMaxC= 1.00D-01 BMatC= 3.77D-02 BMatP= 3.86D-01
 IDIUse=3 WtCom= 9.08D-01 WtEn= 9.20D-02
 Coeff-Com: -0.147D+00 0.426D+00 0.721D+00
 Coeff-En:   0.000D+00 0.000D+00 0.100D+01
 Coeff:     -0.133D+00 0.387D+00 0.747D+00
 Gap=     0.474 Goal=   None    Shift=    0.000
 RMSDP=8.06D-04 MaxDP=3.31D-02 DE=-2.11D-01 OVMax= 4.11D-02

 Cycle   4  Pass 1  IDiag  1:
 E= -942.209287716908     Delta-E=       -0.016175155983 Rises=F Damp=F
 DIIS: error= 5.55D-03 at cycle   4 NSaved=   4.
 NSaved= 4 IEnMin= 4 EnMin= -942.209287716908     IErMin= 4 ErrMin= 5.55D-03
 ErrMax= 5.55D-03  0.00D+00 EMaxC= 1.00D-01 BMatC= 1.05D-02 BMatP= 3.77D-02
 IDIUse=3 WtCom= 9.44D-01 WtEn= 5.55D-02
 Coeff-Com: -0.333D-01 0.855D-01 0.368D+00 0.580D+00
 Coeff-En:   0.000D+00 0.000D+00 0.222D+00 0.778D+00
 Coeff:     -0.314D-01 0.808D-01 0.360D+00 0.591D+00
 Gap=     0.473 Goal=   None    Shift=    0.000
 RMSDP=3.36D-04 MaxDP=1.30D-02 DE=-1.62D-02 OVMax= 1.75D-02

 Cycle   5  Pass 1  IDiag  1:
 E= -942.215757042064     Delta-E=       -0.006469325157 Rises=F Damp=F
 DIIS: error= 1.12D-03 at cycle   5 NSaved=   5.
 NSaved= 5 IEnMin= 5 EnMin= -942.215757042064     IErMin= 5 ErrMin= 1.12D-03
 ErrMax= 1.12D-03  0.00D+00 EMaxC= 1.00D-01 BMatC= 5.03D-04 BMatP= 1.05D-02
 IDIUse=3 WtCom= 9.89D-01 WtEn= 1.12D-02
 Coeff-Com: -0.610D-02 0.138D-01 0.133D+00 0.289D+00 0.570D+00
 Coeff-En:   0.000D+00 0.000D+00 0.000D+00 0.000D+00 0.100D+01
 Coeff:     -0.603D-02 0.137D-01 0.132D+00 0.286D+00 0.575D+00
 Gap=     0.470 Goal=   None    Shift=    0.000
 RMSDP=6.45D-05 MaxDP=2.24D-03 DE=-6.47D-03 OVMax= 3.37D-03

 Cycle   6  Pass 1  IDiag  1:
 E= -942.216051548243     Delta-E=       -0.000294506179 Rises=F Damp=F
 DIIS: error= 2.86D-04 at cycle   6 NSaved=   6.
 NSaved= 6 IEnMin= 6 EnMin= -942.216051548243     IErMin= 6 ErrMin= 2.86D-04
 ErrMax= 2.86D-04  0.00D+00 EMaxC= 1.00D-01 BMatC= 1.52D-05 BMatP= 5.03D-04
 IDIUse=3 WtCom= 9.97D-01 WtEn= 2.86D-03
 Coeff-Com:  0.121D-02-0.341D-02 0.939D-02 0.444D-01 0.178D+00 0.770D+00
 Coeff-En:   0.000D+00 0.000D+00 0.000D+00 0.000D+00 0.000D+00 0.100D+01
 Coeff:      0.121D-02-0.340D-02 0.937D-02 0.443D-01 0.177D+00 0.771D+00
 Gap=     0.469 Goal=   None    Shift=    0.000
 RMSDP=1.85D-05 MaxDP=7.50D-04 DE=-2.95D-04 OVMax= 8.44D-04

 Cycle   7  Pass 1  IDiag  1:
 E= -942.216065545367     Delta-E=       -0.000013997124 Rises=F Damp=F
 DIIS: error= 6.71D-05 at cycle   7 NSaved=   7.
 NSaved= 7 IEnMin= 7 EnMin= -942.216065545367     IErMin= 7 ErrMin= 6.71D-05
 ErrMax= 6.71D-05  0.00D+00 EMaxC= 1.00D-01 BMatC= 1.25D-06 BMatP= 1.52D-05
 IDIUse=1 WtCom= 1.00D+00 WtEn= 0.00D+00
 Coeff-Com:  0.999D-03-0.234D-02-0.137D-01-0.231D-01-0.447D-01 0.137D+00
 Coeff-Com:  0.946D+00
 Coeff:      0.999D-03-0.234D-02-0.137D-01-0.231D-01-0.447D-01 0.137D+00
 Coeff:      0.946D+00
 Gap=     0.469 Goal=   None    Shift=    0.000
 RMSDP=8.35D-06 MaxDP=1.53D-04 DE=-1.40D-05 OVMax= 4.17D-04

 Cycle   8  Pass 1  IDiag  1:
 E= -942.216066771219     Delta-E=       -0.000001225852 Rises=F Damp=F
 DIIS: error= 2.12D-05 at cycle   8 NSaved=   8.
 NSaved= 8 IEnMin= 8 EnMin= -942.216066771219     IErMin= 8 ErrMin= 2.12D-05
 ErrMax= 2.12D-05  0.00D+00 EMaxC= 1.00D-01 BMatC= 1.89D-07 BMatP= 1.25D-06
 IDIUse=1 WtCom= 1.00D+00 WtEn= 0.00D+00
 Coeff-Com:  0.413D-03-0.944D-03-0.681D-02-0.126D-01-0.271D-01 0.415D-01
 Coeff-Com:  0.456D+00 0.549D+00
 Coeff:      0.413D-03-0.944D-03-0.681D-02-0.126D-01-0.271D-01 0.415D-01
 Coeff:      0.456D+00 0.549D+00
 Gap=     0.469 Goal=   None    Shift=    0.000
 RMSDP=1.38D-06 MaxDP=6.72D-05 DE=-1.23D-06 OVMax= 9.84D-05

 Cycle   9  Pass 1  IDiag  1:
 E= -942.216066905267     Delta-E=       -0.000000134048 Rises=F Damp=F
 DIIS: error= 2.71D-06 at cycle   9 NSaved=   9.
 NSaved= 9 IEnMin= 9 EnMin= -942.216066905267     IErMin= 9 ErrMin= 2.71D-06
 ErrMax= 2.71D-06  0.00D+00 EMaxC= 1.00D-01 BMatC= 5.08D-09 BMatP= 1.89D-07
 IDIUse=1 WtCom= 1.00D+00 WtEn= 0.00D+00
 Coeff-Com: -0.767D-04 0.181D-03 0.789D-03 0.952D-03 0.225D-02-0.114D-01
 Coeff-Com: -0.617D-01 0.541D-01 0.101D+01
 Coeff:     -0.767D-04 0.181D-03 0.789D-03 0.952D-03 0.225D-02-0.114D-01
 Coeff:     -0.617D-01 0.541D-01 0.101D+01
 Gap=     0.469 Goal=   None    Shift=    0.000
 RMSDP=7.99D-07 MaxDP=2.16D-05 DE=-1.34D-07 OVMax= 4.56D-05

 Cycle  10  Pass 1  IDiag  1:
 E= -942.216066913440     Delta-E=       -0.000000008173 Rises=F Damp=F
 DIIS: error= 1.34D-06 at cycle  10 NSaved=  10.
 NSaved=10 IEnMin=10 EnMin= -942.216066913440     IErMin=10 ErrMin= 1.34D-06
 ErrMax= 1.34D-06  0.00D+00 EMaxC= 1.00D-01 BMatC= 8.64D-10 BMatP= 5.08D-09
 IDIUse=1 WtCom= 1.00D+00 WtEn= 0.00D+00
 Coeff-Com: -0.479D-04 0.111D-03 0.593D-03 0.949D-03 0.216D-02-0.617D-02
 Coeff-Com: -0.464D-01-0.742D-02 0.385D+00 0.671D+00
 Coeff:     -0.479D-04 0.111D-03 0.593D-03 0.949D-03 0.216D-02-0.617D-02
 Coeff:     -0.464D-01-0.742D-02 0.385D+00 0.671D+00
 Gap=     0.469 Goal=   None    Shift=    0.000
 RMSDP=1.92D-07 MaxDP=5.25D-06 DE=-8.17D-09 OVMax= 1.12D-05

 Cycle  11  Pass 1  IDiag  1:
 E= -942.216066914094     Delta-E=       -0.000000000655 Rises=F Damp=F
 DIIS: error= 6.94D-07 at cycle  11 NSaved=  11.
 NSaved=11 IEnMin=11 EnMin= -942.216066914094     IErMin=11 ErrMin= 6.94D-07
 ErrMax= 6.94D-07  0.00D+00 EMaxC= 1.00D-01 BMatC= 2.20D-10 BMatP= 8.64D-10
 IDIUse=1 WtCom= 1.00D+00 WtEn= 0.00D+00
 Coeff-Com: -0.970D-05 0.217D-04 0.141D-03 0.314D-03 0.714D-03-0.698D-03
 Coeff-Com: -0.117D-01-0.144D-01-0.360D-02 0.343D+00 0.686D+00
 Coeff:     -0.970D-05 0.217D-04 0.141D-03 0.314D-03 0.714D-03-0.698D-03
 Coeff:     -0.117D-01-0.144D-01-0.360D-02 0.343D+00 0.686D+00
 Gap=     0.469 Goal=   None    Shift=    0.000
 RMSDP=8.85D-08 MaxDP=2.76D-06 DE=-6.55D-10 OVMax= 4.74D-06

 Cycle  12  Pass 1  IDiag  1:
 E= -942.216066914268     Delta-E=       -0.000000000173 Rises=F Damp=F
 DIIS: error= 1.66D-07 at cycle  12 NSaved=  12.
 NSaved=12 IEnMin=12 EnMin= -942.216066914268     IErMin=12 ErrMin= 1.66D-07
 ErrMax= 1.66D-07  0.00D+00 EMaxC= 1.00D-01 BMatC= 1.40D-11 BMatP= 2.20D-10
 IDIUse=1 WtCom= 1.00D+00 WtEn= 0.00D+00
 Coeff-Com:  0.200D-07-0.406D-06 0.486D-05 0.449D-04 0.102D-03 0.205D-03
 Coeff-Com: -0.800D-03-0.507D-02-0.348D-01 0.826D-01 0.282D+00 0.675D+00
 Coeff:      0.200D-07-0.406D-06 0.486D-05 0.449D-04 0.102D-03 0.205D-03
 Coeff:     -0.800D-03-0.507D-02-0.348D-01 0.826D-01 0.282D+00 0.675D+00
 Gap=     0.469 Goal=   None    Shift=    0.000
 RMSDP=2.28D-08 MaxDP=5.74D-07 DE=-1.73D-10 OVMax= 1.56D-06

 Cycle  13  Pass 1  IDiag  1:
 E= -942.216066914265     Delta-E=        0.000000000003 Rises=F Damp=F
 DIIS: error= 4.98D-08 at cycle  13 NSaved=  13.
 NSaved=13 IEnMin=12 EnMin= -942.216066914268     IErMin=13 ErrMin= 4.98D-08
 ErrMax= 4.98D-08  0.00D+00 EMaxC= 1.00D-01 BMatC= 1.75D-12 BMatP= 1.40D-11
 IDIUse=1 WtCom= 1.00D+00 WtEn= 0.00D+00
 Coeff-Com:  0.143D-05-0.333D-05-0.173D-04-0.233D-04-0.470D-04 0.175D-03
 Coeff-Com:  0.113D-02-0.456D-03-0.153D-01-0.623D-02 0.385D-01 0.284D+00
 Coeff-Com:  0.698D+00
 Coeff:      0.143D-05-0.333D-05-0.173D-04-0.233D-04-0.470D-04 0.175D-03
 Coeff:      0.113D-02-0.456D-03-0.153D-01-0.623D-02 0.385D-01 0.284D+00
 Coeff:      0.698D+00
 Gap=     0.469 Goal=   None    Shift=    0.000
 RMSDP=8.55D-09 MaxDP=1.93D-07 DE= 3.18D-12 OVMax= 3.52D-07

 SCF Done:  E(RwB97XD) =  -942.216066914     A.U. after   13 cycles
            NFock= 13  Conv=0.85D-08     -V/T= 2.0022
 KE= 9.401182076860D+02 PE=-3.364843288141D+03 EE= 9.175006360165D+02
 Leave Link  502 at Fri Jan  2 11:44:56 2026, MaxMem=  6442450944 cpu:             369.3 elap:              21.8
 (Enter /applications/g16/g16/l601.exe)
 Copying SCF densities to generalized density rwf, IOpCl= 0 IROHF=0.

 **********************************************************************

            Population analysis using the SCF density.

 **********************************************************************

 Orbital symmetries:
       Occupied  (A) (A) (A) (A) (A) (A) (A) (A) (A) (A) (A) (A)
                 (A) (A) (A) (A) (A) (A) (A) (A) (A) (A) (A) (A)
                 (A) (A) (A) (A) (A) (A) (A) (A) (A) (A) (A) (A)
                 (A)
       Virtual   (A) (A) (A) (A) (A) (A) (A) (A) (A) (A) (A) (A)
                 (A) (A) (A) (A) (A) (A) (A) (A) (A) (A) (A) (A)
                 (A) (A) (A) (A) (A) (A) (A) (A) (A) (A) (A) (A)
                 (A) (A) (A) (A) (A) (A) (A) (A) (A) (A) (A) (A)
                 (A) (A) (A) (A) (A) (A) (A) (A) (A) (A) (A) (A)
                 (A) (A) (A) (A) (A) (A) (A) (A) (A) (A) (A) (A)
                 (A) (A) (A) (A) (A) (A) (A) (A) (A) (A) (A) (A)
                 (A) (A) (A) (A) (A) (A) (A) (A) (A) (A) (A) (A)
                 (A) (A) (A) (A) (A) (A) (A) (A) (A) (A) (A) (A)
                 (A) (A) (A) (A) (A) (A) (A) (A) (A) (A) (A) (A)
                 (A) (A) (A) (A) (A) (A) (A) (A) (A) (A) (A) (A)
                 (A) (A) (A) (A) (A) (A) (A) (A) (A) (A) (A) (A)
                 (A) (A) (A) (A) (A) (A) (A) (A) (A) (A) (A) (A)
                 (A) (A) (A) (A) (A) (A) (A) (A) (A) (A) (A) (A)
                 (A) (A) (A) (A) (A) (A) (A) (A) (A) (A) (A) (A)
                 (A) (A) (A) (A) (A) (A) (A) (A) (A) (A) (A) (A)
                 (A) (A) (A) (A) (A) (A) (A) (A) (A) (A) (A) (A)
                 (A)
 The electronic state is 1-A.
 Alpha  occ. eigenvalues --  -89.26214 -24.87824 -24.87769 -24.87621 -19.28196
 Alpha  occ. eigenvalues --  -19.28141 -14.50129 -10.58339  -8.27470  -6.22333
 Alpha  occ. eigenvalues --   -6.22208  -6.22198  -1.45646  -1.37114  -1.36688
 Alpha  occ. eigenvalues --   -1.27215  -1.16062  -1.05988  -0.87266  -0.78671
 Alpha  occ. eigenvalues --   -0.72503  -0.72370  -0.70766  -0.67321  -0.63496
 Alpha  occ. eigenvalues --   -0.59537  -0.59348  -0.57815  -0.57320  -0.55957
 Alpha  occ. eigenvalues --   -0.55878  -0.53646  -0.48710  -0.45624  -0.43831
 Alpha  occ. eigenvalues --   -0.43252  -0.42231
 Alpha virt. eigenvalues --    0.04657   0.07876   0.08918   0.09578   0.10554
 Alpha virt. eigenvalues --    0.11420   0.11883   0.12512   0.12968   0.13669
 Alpha virt. eigenvalues --    0.14638   0.16107   0.17001   0.18975   0.20480
 Alpha virt. eigenvalues --    0.21797   0.22692   0.24830   0.26014   0.27866
 Alpha virt. eigenvalues --    0.28852   0.29150   0.29760   0.30142   0.32443
 Alpha virt. eigenvalues --    0.34041   0.34628   0.35911   0.36921   0.37417
 Alpha virt. eigenvalues --    0.38204   0.38424   0.38964   0.39947   0.41257
 Alpha virt. eigenvalues --    0.41428   0.42609   0.44409   0.45991   0.47693
 Alpha virt. eigenvalues --    0.48051   0.50138   0.50847   0.51881   0.54770
 Alpha virt. eigenvalues --    0.57988   0.62662   0.65417   0.69106   0.72095
 Alpha virt. eigenvalues --    0.73479   0.74978   0.76708   0.76975   0.81145
 Alpha virt. eigenvalues --    0.88008   0.88293   0.90666   0.90928   0.96135
 Alpha virt. eigenvalues --    0.96708   0.98717   1.02802   1.06617   1.09434
 Alpha virt. eigenvalues --    1.11969   1.14626   1.16121   1.17997   1.20084
 Alpha virt. eigenvalues --    1.21715   1.26815   1.27110   1.29660   1.30332
 Alpha virt. eigenvalues --    1.36361   1.38958   1.40156   1.41883   1.43866
 Alpha virt. eigenvalues --    1.44594   1.46680   1.47875   1.48438   1.51851
 Alpha virt. eigenvalues --    1.52550   1.54791   1.56394   1.57219   1.60578
 Alpha virt. eigenvalues --    1.61000   1.62784   1.66707   1.68312   1.73723
 Alpha virt. eigenvalues --    1.75567   1.83278   1.84170   1.86895   1.97566
 Alpha virt. eigenvalues --    1.99389   2.01518   2.03995   2.04901   2.05396
 Alpha virt. eigenvalues --    2.06816   2.08920   2.13102   2.15272   2.16902
 Alpha virt. eigenvalues --    2.18537   2.19019   2.21616   2.24178   2.27137
 Alpha virt. eigenvalues --    2.36947   2.39953   2.42173   2.54189   2.63198
 Alpha virt. eigenvalues --    2.63651   2.65655   2.69540   2.71881   2.82222
 Alpha virt. eigenvalues --    2.84507   2.89115   2.99258   3.01782   3.06148
 Alpha virt. eigenvalues --    3.15808   3.42434   3.46909   3.50780   3.51936
 Alpha virt. eigenvalues --    3.53810   3.73054   3.83220   3.85755   3.92801
 Alpha virt. eigenvalues --    3.96209   3.99949   4.17601   4.22996   4.27608
 Alpha virt. eigenvalues --    4.27767   4.59254   4.94876   5.01913   5.05155
 Alpha virt. eigenvalues --    5.13697   5.15108   5.15685   5.21868   5.23323
 Alpha virt. eigenvalues --    5.34962   5.50241   5.60335   5.95589   6.38058
 Alpha virt. eigenvalues --    6.39889   6.44066   6.46073   6.46596   6.48530
 Alpha virt. eigenvalues --    6.51451   6.79836   6.80528   6.82088   6.83910
 Alpha virt. eigenvalues --    6.88081   6.89973   6.98211   7.03780   7.12636
 Alpha virt. eigenvalues --    7.22412   7.37346   7.44050   8.42136   9.08235
 Alpha virt. eigenvalues --    9.09537   9.10072   9.19452   9.20412   9.20989
 Alpha virt. eigenvalues --    9.23190   9.29668   9.31344   9.47466   9.65167
 Alpha virt. eigenvalues --    9.65750   9.68066   9.86369   9.87340  17.64674
 Alpha virt. eigenvalues --   17.69688  17.76070  23.95489  35.66906  49.99894
 Alpha virt. eigenvalues --   50.06183  66.93133  66.93655  66.97458 189.67398
          Condensed to atoms (all electrons):
               1          2          3          4          5          6
     1  C    4.401538   0.228933  -0.111617  -0.119287   0.248617   0.263469
     2  S    0.228933  13.537364   0.554329   0.566309  -0.017002  -0.019752
     3  O   -0.111617   0.554329   8.110978   0.001853   0.009422   0.004028
     4  O   -0.119287   0.566309   0.001853   8.105921   0.002324   0.000331
     5  F    0.248617  -0.017002   0.009422   0.002324   9.025949   0.011931
     6  F    0.263469  -0.019752   0.004028   0.000331   0.011931   9.018357
     7  N   -0.062018   0.221785  -0.107502  -0.109656   0.016647   0.021672
     8  H    0.007137  -0.003913   0.014763  -0.004381  -0.003936   0.000401
     9  H   -0.000771   0.010964  -0.003051   0.014918   0.000235  -0.005244
    10  F    0.287921  -0.048988   0.000385   0.009364  -0.004035  -0.007029
               7          8          9         10
     1  C   -0.062018   0.007137  -0.000771   0.287921
     2  S    0.221785  -0.003913   0.010964  -0.048988
     3  O   -0.107502   0.014763  -0.003051   0.000385
     4  O   -0.109656  -0.004381   0.014918   0.009364
     5  F    0.016647  -0.003936   0.000235  -0.004035
     6  F    0.021672   0.000401  -0.005244  -0.007029
     7  N    6.730564   0.364756   0.358969   0.003663
     8  H    0.364756   0.447466  -0.025218  -0.000135
     9  H    0.358969  -0.025218   0.448969  -0.000136
    10  F    0.003663  -0.000135  -0.000136   9.029985
 Mulliken charges:
               1
     1  C    0.856079
     2  S    0.969972
     3  O   -0.473587
     4  O   -0.467696
     5  F   -0.290152
     6  F   -0.288164
     7  N   -0.438881
     8  H    0.203060
     9  H    0.200366
    10  F   -0.270995
 Sum of Mulliken charges =  -0.00000
 Mulliken charges with hydrogens summed into heavy atoms:
               1
     1  C    0.856079
     2  S    0.969972
     3  O   -0.473587
     4  O   -0.467696
     5  F   -0.290152
     6  F   -0.288164
     7  N   -0.035456
    10  F   -0.270995
 Electronic spatial extent (au):  <R**2>=            875.1330
 Charge=             -0.0000 electrons
 Dipole moment (field-independent basis, Debye):
    X=              1.2514    Y=              3.3805    Z=             -0.5412  Tot=              3.6451
 Quadrupole moment (field-independent basis, Debye-Ang):
   XX=            -47.7405   YY=            -49.3352   ZZ=            -53.4193
   XY=              7.4188   XZ=             -1.1521   YZ=             -0.9460
 Traceless Quadrupole moment (field-independent basis, Debye-Ang):
   XX=              2.4245   YY=              0.8298   ZZ=             -3.2543
   XY=              7.4188   XZ=             -1.1521   YZ=             -0.9460
 Octapole moment (field-independent basis, Debye-Ang**2):
  XXX=             -8.3562  YYY=              6.7126  ZZZ=             -3.6828  XYY=              2.3326
  XXY=             13.8852  XXZ=             -1.6971  XZZ=             -6.2682  YZZ=              7.6101
  YYZ=              1.2624  XYZ=             -1.3077
 Hexadecapole moment (field-independent basis, Debye-Ang**3):
 XXXX=           -467.0535 YYYY=           -228.8683 ZZZZ=           -226.5691 XXXY=             21.9914
 XXXZ=             -2.3011 YYYX=             17.3797 YYYZ=             -0.1675 ZZZX=             -5.6401
 ZZZY=             -2.7603 XXYY=           -105.0902 XXZZ=           -118.4815 YYZZ=            -72.7034
 XXYZ=             -1.6748 YYXZ=              0.7557 ZZXY=             13.0462
 N-N= 5.650083775245D+02 E-N=-3.364843285724D+03  KE= 9.401182076860D+02
 No NMR shielding tensors so no spin-rotation constants.
 Leave Link  601 at Fri Jan  2 11:44:57 2026, MaxMem=  6442450944 cpu:               5.1 elap:               0.3
 (Enter /applications/g16/g16/l701.exe)
 ... and contract with generalized density number  0.
 Compute integral first derivatives.
 R6Disp: Adding Grimme-D2 dispersion energy 1st derivatives to the gradient.
 Leave Link  701 at Fri Jan  2 11:44:57 2026, MaxMem=  6442450944 cpu:               5.5 elap:               0.3
 (Enter /applications/g16/g16/l702.exe)
 L702 exits ... SP integral derivatives will be done elsewhere.
 Leave Link  702 at Fri Jan  2 11:44:57 2026, MaxMem=  6442450944 cpu:               0.8 elap:               0.0
 (Enter /applications/g16/g16/l703.exe)
 Integral derivatives from FoFJK, PRISM(SPDF).
 Compute integral first derivatives, UseDBF=F ICtDFT=           0.
 Calling FoFJK, ICntrl=      2127 FMM=F ISym2X=0 I1Cent= 0 IOpClX= 0 NMat=1 NMatS=1 NMatT=0.
 FoFJK:  IHMeth= 1 ICntrl=    2127 DoSepK=T KAlg= 0 I1Cent=           0 FoldK=F
 IRaf=         1 NMat=       1 IRICut=       1 DoRegI=T DoRafI=F ISym2E= 0 IDoP0=0 IntGTp=1.
 FoFCou: FMM=F IPFlag=           0 FMFlag=      100000 FMFlg1=         800
         NFxFlg=           0 DoJE=F BraDBF=F KetDBF=F FulRan=T
         wScrn=  0.000000 ICntrl=      2527 IOpCl=  0 I1Cent=           0 NGrid=           0
         NMat0=    1 NMatS0=      1 NMatT0=    0 NMatD0=    1 NMtDS0=    0 NMtDT0=    0
 Symmetry not used in FoFCou.
 Leave Link  703 at Fri Jan  2 11:45:07 2026, MaxMem=  6442450944 cpu:             229.1 elap:               9.7
 (Enter /applications/g16/g16/l716.exe)
 Dipole        = 4.92324293D-01 1.32998735D+00-2.12939853D-01
 ***** Axes restored to original set *****
 -------------------------------------------------------------------
 Center     Atomic                   Forces (Hartrees/Bohr)
 Number     Number              X              Y              Z
 -------------------------------------------------------------------
      1        6          -0.006291844    0.001632586    0.000085441
      2       16          -0.003669138   -0.003449312   -0.001161772
      3        8          -0.001454741   -0.000588352    0.000315606
      4        8          -0.000215359    0.000640989    0.000353594
      5        9          -0.005868277   -0.008723296   -0.007863548
      6        9          -0.005470274   -0.003551103    0.008175889
      7        7          -0.000046567    0.000445760    0.000357706
      8        1           0.000116977   -0.000172885   -0.000049690
      9        1           0.000030591   -0.000154256    0.000113866
     10        9           0.022868632    0.013919867   -0.000327092
 -------------------------------------------------------------------
 Cartesian Forces:  Max     0.022868632 RMS     0.005975277
 Leave Link  716 at Fri Jan  2 11:45:07 2026, MaxMem=  6442450944 cpu:               1.0 elap:               0.1
 (Enter /applications/g16/g16/l103.exe)

 GradGradGradGradGradGradGradGradGradGradGradGradGradGradGradGradGradGrad
 Berny optimization.
 FormGI is forming the generalized inverse of G from B-inverse, IUseBI=4.
 Internal  Forces:  Max     0.026622494 RMS     0.005677338
 Search for a local minimum.
 Step number   1 out of a maximum of   49
 All quantities printed in internal units (Hartrees-Bohrs-Radians)
 RMS Force = .56773D-02 SwitMx=.10000D-02 MixMth= 1
 Mixed Optimization -- RFO/linear search
 Second derivative matrix not updated -- first step.
 ITU=  0
     Eigenvalues ---    0.00230   0.02216   0.03977   0.08382   0.09126
     Eigenvalues ---    0.09279   0.09968   0.11564   0.16000   0.16000
     Eigenvalues ---    0.17310   0.21374   0.25000   0.25000   0.25000
     Eigenvalues ---    0.25000   0.45754   0.46374   0.46374   0.55021
     Eigenvalues ---    0.57964   0.58264   1.05980   1.06615
 RFO step:  Lambda=-3.70921174D-03 EMin= 2.30000000D-03
 Linear search not attempted -- first point.
 Iteration  1 RMS(Cart)=  0.05407162 RMS(Int)=  0.00195554
 Iteration  2 RMS(Cart)=  0.00189674 RMS(Int)=  0.00046779
 Iteration  3 RMS(Cart)=  0.00000115 RMS(Int)=  0.00046779
 Iteration  4 RMS(Cart)=  0.00000000 RMS(Int)=  0.00046779
 ITry= 1 IFail=0 DXMaxC= 1.53D-01 DCOld= 1.00D+10 DXMaxT= 3.00D-01 DXLimC= 3.00D+00 Rises=F
 Variable       Old X    -DE/DX   Delta X   Delta X   Delta X     New X
                                 (Linear)    (Quad)   (Total)
    R1        3.53133  -0.00277   0.00000  -0.01274  -0.01274   3.51859
    R2        2.52588  -0.01159   0.00000  -0.01986  -0.01986   2.50602
    R3        2.52341  -0.00909   0.00000  -0.01550  -0.01550   2.50791
    R4        2.55113  -0.02662   0.00000  -0.04806  -0.04806   2.50307
    R5        2.69801   0.00025   0.00000   0.00023   0.00023   2.69824
    R6        2.70035  -0.00072   0.00000  -0.00067  -0.00067   2.69968
    R7        3.08110   0.00002   0.00000   0.00004   0.00004   3.08115
    R8        1.90412  -0.00003   0.00000  -0.00005  -0.00005   1.90407
    R9        1.90412  -0.00005   0.00000  -0.00010  -0.00010   1.90402
    A1        1.87968   0.01004   0.00000   0.04237   0.04153   1.92122
    A2        1.88289   0.00849   0.00000   0.04013   0.03932   1.92220
    A3        1.96761  -0.00821   0.00000  -0.04257  -0.04213   1.92548
    A4        1.90463  -0.00414   0.00000   0.00652   0.00450   1.90913
    A5        1.92282  -0.00395   0.00000  -0.02926  -0.02886   1.89395
    A6        1.90494  -0.00189   0.00000  -0.01407  -0.01362   1.89132
    A7        1.86473  -0.00141   0.00000  -0.00931  -0.00934   1.85539
    A8        1.84288  -0.00034   0.00000  -0.00280  -0.00283   1.84005
    A9        1.73413   0.00125   0.00000   0.00603   0.00603   1.74017
   A10        2.16829   0.00011   0.00000  -0.00211  -0.00218   2.16611
   A11        1.89232   0.00050   0.00000   0.00539   0.00541   1.89773
   A12        1.91082   0.00008   0.00000   0.00375   0.00375   1.91456
   A13        1.97509  -0.00002   0.00000  -0.00097  -0.00098   1.97411
   A14        1.98708  -0.00021   0.00000  -0.00212  -0.00212   1.98496
   A15        2.02523   0.00001   0.00000  -0.00115  -0.00116   2.02407
    D1        0.78340  -0.00170   0.00000   0.05683   0.05616   0.83956
    D2        3.12218  -0.00275   0.00000   0.04594   0.04531  -3.11570
    D3       -1.18208  -0.00231   0.00000   0.05141   0.05077  -1.13131
    D4        2.83711   0.00326   0.00000   0.10826   0.10890   2.94601
    D5       -1.10730   0.00221   0.00000   0.09737   0.09805  -1.00925
    D6        0.87163   0.00266   0.00000   0.10284   0.10351   0.97514
    D7       -1.34145   0.00154   0.00000   0.09135   0.09132  -1.25013
    D8        0.99733   0.00049   0.00000   0.08046   0.08047   1.07780
    D9        2.97626   0.00094   0.00000   0.08593   0.08592   3.06219
   D10        2.01884  -0.00023   0.00000   0.00095   0.00095   2.01980
   D11       -1.90235  -0.00044   0.00000  -0.00406  -0.00406  -1.90641
   D12        0.07508   0.00064   0.00000   0.00697   0.00697   0.08205
   D13        2.43707   0.00042   0.00000   0.00195   0.00196   2.43903
   D14       -2.33895  -0.00004   0.00000   0.00166   0.00165  -2.33730
   D15        0.02304  -0.00025   0.00000  -0.00336  -0.00336   0.01968
         Item               Value     Threshold  Converged?
 Maximum Force            0.026622     0.000450     NO 
 RMS     Force            0.005677     0.000300     NO 
 Maximum Displacement     0.152981     0.001800     NO 
 RMS     Displacement     0.053908     0.001200     NO 
 Predicted change in Energy=-2.012516D-03
 Lowest energy point so far.  Saving SCF results.
 GradGradGradGradGradGradGradGradGradGradGradGradGradGradGradGradGradGrad

 Leave Link  103 at Fri Jan  2 11:45:07 2026, MaxMem=  6442450944 cpu:               3.3 elap:               0.2
 (Enter /applications/g16/g16/l202.exe)
                          Input orientation:                          
 ---------------------------------------------------------------------
 Center     Atomic      Atomic             Coordinates (Angstroms)
 Number     Number       Type             X           Y           Z
 ---------------------------------------------------------------------
      1          6           0        1.072910    0.574314   -0.185178
      2         16           0        2.640680   -0.386821    0.106707
      3          8           0        2.738940   -0.574355    1.518772
      4          8           0        2.614930   -1.453525   -0.843243
      5          9           0        1.017577    1.615031    0.634864
      6          9           0        1.025295    1.000185   -1.441220
      7          7           0        3.736956    0.730042   -0.350717
      8          1           0        4.331925    1.032494    0.404116
      9          1           0        4.201073    0.511272   -1.217849
     10          9           0        0.015510   -0.192154    0.035973
 ---------------------------------------------------------------------
                    Distance matrix (angstroms):
                    1          2          3          4          5
     1  C    0.000000
     2  S    1.861957   0.000000
     3  O    2.645476   1.427849   0.000000
     4  O    2.631161   1.428609   2.523377   0.000000
     5  F    1.326130   2.630746   2.921951   3.761964   0.000000
     6  F    1.327131   2.632363   3.765277   2.984159   2.165230
     7  N    2.673723   1.630473   2.488469   2.503896   3.024830
     8  H    3.343407   2.227828   2.522305   3.268680   3.373054
     9  H    3.294813   2.235139   3.287174   2.552765   3.845189
    10  F    1.324567   2.633329   3.124395   3.020109   2.151448
                    6          7          8          9         10
     6  F    0.000000
     7  N    2.935179   0.000000
     8  H    3.786834   1.007590   0.000000
     9  H    3.220947   1.007563   1.708673   0.000000
    10  F    2.150218   3.853458   4.501859   4.425587   0.000000
 Stoichiometry    CH2F3NO2S
 Framework group  C1[X(CH2F3NO2S)]
 Deg. of freedom    24
 Full point group                 C1      NOp   1
 RotChk:  IX=0 Diff= 1.23D-01
 Largest Abelian subgroup         C1      NOp   1
 Largest concise Abelian subgroup C1      NOp   1
                         Standard orientation:                         
 ---------------------------------------------------------------------
 Center     Atomic      Atomic             Coordinates (Angstroms)
 Number     Number       Type             X           Y           Z
 ---------------------------------------------------------------------
      1          6           0       -0.996765    0.038880    0.003983
      2         16           0        0.850641   -0.193441    0.003434
      3          8           0        1.187708   -0.729147    1.283339
      4          8           0        1.152841   -0.833213   -1.237650
      5          9           0       -1.377156    0.660084    1.112148
      6          9           0       -1.367638    0.753473   -1.051046
      7          7           0        1.323719    1.365884   -0.052633
      8          1           0        1.827289    1.656193    0.770395
      9          1           0        1.728037    1.635456   -0.935267
     10          9           0       -1.608031   -1.134911   -0.051218
 ---------------------------------------------------------------------
 Rotational constants (GHZ):           2.6252454           1.5507517           1.5441526
 Leave Link  202 at Fri Jan  2 11:45:07 2026, MaxMem=  6442450944 cpu:               0.1 elap:               0.0
 (Enter /applications/g16/g16/l301.exe)
 Standard basis: 6-311+G(2d,2p) (5D, 7F)
 Ernie: Thresh=  0.10000D-02 Tol=  0.10000D-05 Strict=F.
 There are   258 symmetry adapted cartesian basis functions of A   symmetry.
 There are   242 symmetry adapted basis functions of A   symmetry.
   242 basis functions,   372 primitive gaussians,   258 cartesian basis functions
    37 alpha electrons       37 beta electrons
       nuclear repulsion energy       566.8764802694 Hartrees.
 IExCor= 4639 DFT=T Ex+Corr=wB97XD ExCW=0 ScaHFX=  1.000000
 ScaDFX=  1.000000  1.000000  1.000000  1.000000 ScalE2=  1.000000  1.000000
 IRadAn=      5 IRanWt=     -1 IRanGd=            0 ICorTp=0 IEmpDi=121
 HFx  wShort=  0.000000 wLong=  0.200000 cFull=  0.222036 cShort=  0.000000 cLong=  0.777964
 DFx  wShort=  0.000000 wLong=  0.200000 cFull=  0.000000 cShort=  0.000000 cLong=  1.000000
 NAtoms=   10 NActive=   10 NUniq=   10 SFac= 1.00D+00 NAtFMM=   60 NAOKFM=F Big=F
 Integral buffers will be    131072 words long.
 Raffenetti 2 integral format.
 Two-electron integral symmetry is turned on.
 R6Disp:  Grimme-D2 Dispersion energy=       -0.0034542866 Hartrees.
 Nuclear repulsion after empirical dispersion term =      566.8730259827 Hartrees.
 Leave Link  301 at Fri Jan  2 11:45:07 2026, MaxMem=  6442450944 cpu:               1.1 elap:               0.0
 (Enter /applications/g16/g16/l302.exe)
 NPDir=0 NMtPBC=     1 NCelOv=     1 NCel=       1 NClECP=     1 NCelD=      1
         NCelK=      1 NCelE2=     1 NClLst=     1 CellRange=     0.0.
 One-electron integrals computed using PRISM.
 One-electron integral symmetry used in STVInt
 NBasis=   242 RedAO= T EigKep=  2.18D-04  NBF=   242
 NBsUse=   242 1.00D-06 EigRej= -1.00D+00 NBFU=   242
 Precomputing XC quadrature grid using
 IXCGrd= 4 IRadAn=           5 IRanWt=          -1 IRanGd=           0 AccXCQ= 0.00D+00.
 Generated NRdTot=       0 NPtTot=           0 NUsed=           0 NTot=          32
 NSgBfM=   258   258   258   258   258 MxSgAt=    10 MxSgA2=    10.
 Leave Link  302 at Fri Jan  2 11:45:07 2026, MaxMem=  6442450944 cpu:               7.2 elap:               0.3
 (Enter /applications/g16/g16/l303.exe)
 DipDrv:  MaxL=1.
 Leave Link  303 at Fri Jan  2 11:45:07 2026, MaxMem=  6442450944 cpu:               1.1 elap:               0.1
 (Enter /applications/g16/g16/l401.exe)
 Initial guess from the checkpoint file:  "triflate_amide.chk"
 B after Tr=    -0.000000   -0.000000   -0.000000
         Rot=    0.999265   -0.037598    0.000920   -0.007446 Ang=  -4.39 deg.
 Guess basis will be translated and rotated to current coordinates.
 JPrj=2 DoOrth=T DoCkMO=T.
 Generating alternative initial guess.
 ExpMin= 4.05D-02 ExpMax= 9.34D+04 ExpMxC= 3.17D+03 IAcc=2 IRadAn=         4 AccDes= 0.00D+00
 Harris functional with IExCor= 4639 and IRadAn=       4 diagonalized for initial guess.
 HarFok:  IExCor= 4639 AccDes= 0.00D+00 IRadAn=         4 IDoV= 1 UseB2=F ITyADJ=14
 ICtDFT=  3500011 ScaDFX=  1.000000  1.000000  1.000000  1.000000
 FoFCou: FMM=F IPFlag=           0 FMFlag=      100000 FMFlg1=           0
         NFxFlg=           0 DoJE=T BraDBF=F KetDBF=T FulRan=T
         wScrn=  0.000000 ICntrl=       500 IOpCl=  0 I1Cent=   200000004 NGrid=           0
         NMat0=    1 NMatS0=      1 NMatT0=    0 NMatD0=    1 NMtDS0=    0 NMtDT0=    0
 Petite list used in FoFCou.
 Harris En= -917.351157155713    
 Leave Link  401 at Fri Jan  2 11:45:08 2026, MaxMem=  6442450944 cpu:              17.1 elap:               0.7
 (Enter /applications/g16/g16/l502.exe)
 Keep R1 ints in memory in canonical form, NReq=890653791.
 FoFCou: FMM=F IPFlag=           0 FMFlag=           0 FMFlg1=           0
         NFxFlg=           0 DoJE=F BraDBF=F KetDBF=F FulRan=T
         wScrn=  0.000000 ICntrl=       600 IOpCl=  0 I1Cent=           0 NGrid=           0
         NMat0=    1 NMatS0=  29403 NMatT0=    0 NMatD0=    1 NMtDS0=    0 NMtDT0=    0
 Symmetry not used in FoFCou.
 Two-electron integral symmetry not used.
 Closed shell SCF:
 Using DIIS extrapolation, IDIIS=  1040.
 NGot=  6442450944 LenX=  5577743467 LenY=  5577676462
 Requested convergence on RMS density matrix=1.00D-08 within 128 cycles.
 Requested convergence on MAX density matrix=1.00D-06.
 Requested convergence on             energy=1.00D-06.
 No special actions if energy rises.

 Cycle   1  Pass 1  IDiag  1:
 E= -942.210232642324    
 DIIS: error= 3.79D-03 at cycle   1 NSaved=   1.
 NSaved= 1 IEnMin= 1 EnMin= -942.210232642324     IErMin= 1 ErrMin= 3.79D-03
 ErrMax= 3.79D-03  0.00D+00 EMaxC= 1.00D-01 BMatC= 5.87D-03 BMatP= 5.87D-03
 IDIUse=3 WtCom= 9.62D-01 WtEn= 3.79D-02
 Coeff-Com:  0.100D+01
 Coeff-En:   0.100D+01
 Coeff:      0.100D+01
 Gap=     0.745 Goal=   None    Shift=    0.000
 GapD=    0.745 DampG=2.000 DampE=1.000 DampFc=2.0000 IDamp=-1.
 RMSDP=4.62D-04 MaxDP=7.96D-03              OVMax= 1.75D-02

 Cycle   2  Pass 1  IDiag  1:
 E= -942.217575410702     Delta-E=       -0.007342768378 Rises=F Damp=F
 DIIS: error= 6.38D-04 at cycle   2 NSaved=   2.
 NSaved= 2 IEnMin= 2 EnMin= -942.217575410702     IErMin= 2 ErrMin= 6.38D-04
 ErrMax= 6.38D-04  0.00D+00 EMaxC= 1.00D-01 BMatC= 2.32D-04 BMatP= 5.87D-03
 IDIUse=3 WtCom= 9.94D-01 WtEn= 6.38D-03
 Coeff-Com: -0.115D+00 0.111D+01
 Coeff-En:   0.000D+00 0.100D+01
 Coeff:     -0.114D+00 0.111D+01
 Gap=     0.470 Goal=   None    Shift=    0.000
 RMSDP=1.17D-04 MaxDP=3.35D-03 DE=-7.34D-03 OVMax= 5.29D-03

 Cycle   3  Pass 1  IDiag  1:
 E= -942.217893476699     Delta-E=       -0.000318065997 Rises=F Damp=F
 DIIS: error= 5.48D-04 at cycle   3 NSaved=   3.
 NSaved= 3 IEnMin= 3 EnMin= -942.217893476699     IErMin= 3 ErrMin= 5.48D-04
 ErrMax= 5.48D-04  0.00D+00 EMaxC= 1.00D-01 BMatC= 1.40D-04 BMatP= 2.32D-04
 IDIUse=3 WtCom= 9.95D-01 WtEn= 5.48D-03
 Coeff-Com: -0.816D-01 0.534D+00 0.548D+00
 Coeff-En:   0.000D+00 0.000D+00 0.100D+01
 Coeff:     -0.812D-01 0.531D+00 0.550D+00
 Gap=     0.471 Goal=   None    Shift=    0.000
 RMSDP=4.30D-05 MaxDP=1.59D-03 DE=-3.18D-04 OVMax= 2.25D-03

 Cycle   4  Pass 1  IDiag  1:
 E= -942.217985847658     Delta-E=       -0.000092370958 Rises=F Damp=F
 DIIS: error= 1.21D-04 at cycle   4 NSaved=   4.
 NSaved= 4 IEnMin= 4 EnMin= -942.217985847658     IErMin= 4 ErrMin= 1.21D-04
 ErrMax= 1.21D-04  0.00D+00 EMaxC= 1.00D-01 BMatC= 1.34D-05 BMatP= 1.40D-04
 IDIUse=3 WtCom= 9.99D-01 WtEn= 1.21D-03
 Coeff-Com: -0.130D-01 0.193D-01 0.228D+00 0.765D+00
 Coeff-En:   0.000D+00 0.000D+00 0.000D+00 0.100D+01
 Coeff:     -0.130D-01 0.193D-01 0.228D+00 0.766D+00
 Gap=     0.471 Goal=   None    Shift=    0.000
 RMSDP=1.60D-05 MaxDP=5.81D-04 DE=-9.24D-05 OVMax= 8.42D-04

 Cycle   5  Pass 1  IDiag  1:
 E= -942.217995664273     Delta-E=       -0.000009816616 Rises=F Damp=F
 DIIS: error= 6.01D-05 at cycle   5 NSaved=   5.
 NSaved= 5 IEnMin= 5 EnMin= -942.217995664273     IErMin= 5 ErrMin= 6.01D-05
 ErrMax= 6.01D-05  0.00D+00 EMaxC= 1.00D-01 BMatC= 1.24D-06 BMatP= 1.34D-05
 IDIUse=1 WtCom= 1.00D+00 WtEn= 0.00D+00
 Coeff-Com:  0.333D-02-0.474D-01 0.400D-01 0.309D+00 0.695D+00
 Coeff:      0.333D-02-0.474D-01 0.400D-01 0.309D+00 0.695D+00
 Gap=     0.471 Goal=   None    Shift=    0.000
 RMSDP=5.08D-06 MaxDP=2.26D-04 DE=-9.82D-06 OVMax= 2.25D-04

 Cycle   6  Pass 1  IDiag  1:
 E= -942.217996612136     Delta-E=       -0.000000947862 Rises=F Damp=F
 DIIS: error= 1.50D-05 at cycle   6 NSaved=   6.
 NSaved= 6 IEnMin= 6 EnMin= -942.217996612136     IErMin= 6 ErrMin= 1.50D-05
 ErrMax= 1.50D-05  0.00D+00 EMaxC= 1.00D-01 BMatC= 1.30D-07 BMatP= 1.24D-06
 IDIUse=1 WtCom= 1.00D+00 WtEn= 0.00D+00
 Coeff-Com:  0.223D-02-0.227D-01 0.453D-02 0.935D-01 0.316D+00 0.606D+00
 Coeff:      0.223D-02-0.227D-01 0.453D-02 0.935D-01 0.316D+00 0.606D+00
 Gap=     0.471 Goal=   None    Shift=    0.000
 RMSDP=1.57D-06 MaxDP=3.55D-05 DE=-9.48D-07 OVMax= 7.62D-05

 Cycle   7  Pass 1  IDiag  1:
 E= -942.217996700740     Delta-E=       -0.000000088604 Rises=F Damp=F
 DIIS: error= 4.84D-06 at cycle   7 NSaved=   7.
 NSaved= 7 IEnMin= 7 EnMin= -942.217996700740     IErMin= 7 ErrMin= 4.84D-06
 ErrMax= 4.84D-06  0.00D+00 EMaxC= 1.00D-01 BMatC= 1.13D-08 BMatP= 1.30D-07
 IDIUse=1 WtCom= 1.00D+00 WtEn= 0.00D+00
 Coeff-Com:  0.310D-03-0.112D-02-0.511D-02-0.139D-01 0.103D-01 0.214D+00
 Coeff-Com:  0.795D+00
 Coeff:      0.310D-03-0.112D-02-0.511D-02-0.139D-01 0.103D-01 0.214D+00
 Coeff:      0.795D+00
 Gap=     0.471 Goal=   None    Shift=    0.000
 RMSDP=8.46D-07 MaxDP=2.00D-05 DE=-8.86D-08 OVMax= 3.67D-05

 Cycle   8  Pass 1  IDiag  1:
 E= -942.217996711401     Delta-E=       -0.000000010661 Rises=F Damp=F
 DIIS: error= 2.10D-06 at cycle   8 NSaved=   8.
 NSaved= 8 IEnMin= 8 EnMin= -942.217996711401     IErMin= 8 ErrMin= 2.10D-06
 ErrMax= 2.10D-06  0.00D+00 EMaxC= 1.00D-01 BMatC= 2.07D-09 BMatP= 1.13D-08
 IDIUse=1 WtCom= 1.00D+00 WtEn= 0.00D+00
 Coeff-Com: -0.908D-04 0.189D-02-0.282D-02-0.164D-01-0.301D-01 0.330D-01
 Coeff-Com:  0.367D+00 0.648D+00
 Coeff:     -0.908D-04 0.189D-02-0.282D-02-0.164D-01-0.301D-01 0.330D-01
 Coeff:      0.367D+00 0.648D+00
 Gap=     0.471 Goal=   None    Shift=    0.000
 RMSDP=2.59D-07 MaxDP=8.54D-06 DE=-1.07D-08 OVMax= 1.53D-05

 Cycle   9  Pass 1  IDiag  1:
 E= -942.217996713203     Delta-E=       -0.000000001803 Rises=F Damp=F
 DIIS: error= 5.96D-07 at cycle   9 NSaved=   9.
 NSaved= 9 IEnMin= 9 EnMin= -942.217996713203     IErMin= 9 ErrMin= 5.96D-07
 ErrMax= 5.96D-07  0.00D+00 EMaxC= 1.00D-01 BMatC= 2.21D-10 BMatP= 2.07D-09
 IDIUse=1 WtCom= 1.00D+00 WtEn= 0.00D+00
 Coeff-Com: -0.828D-04 0.966D-03-0.422D-03-0.502D-02-0.146D-01-0.152D-01
 Coeff-Com:  0.413D-01 0.268D+00 0.725D+00
 Coeff:     -0.828D-04 0.966D-03-0.422D-03-0.502D-02-0.146D-01-0.152D-01
 Coeff:      0.413D-01 0.268D+00 0.725D+00
 Gap=     0.471 Goal=   None    Shift=    0.000
 RMSDP=1.04D-07 MaxDP=2.88D-06 DE=-1.80D-09 OVMax= 6.37D-06

 Cycle  10  Pass 1  IDiag  1:
 E= -942.217996713434     Delta-E=       -0.000000000231 Rises=F Damp=F
 DIIS: error= 1.52D-07 at cycle  10 NSaved=  10.
 NSaved=10 IEnMin=10 EnMin= -942.217996713434     IErMin=10 ErrMin= 1.52D-07
 ErrMax= 1.52D-07  0.00D+00 EMaxC= 1.00D-01 BMatC= 1.41D-11 BMatP= 2.21D-10
 IDIUse=1 WtCom= 1.00D+00 WtEn= 0.00D+00
 Coeff-Com: -0.120D-04 0.392D-04 0.235D-03 0.658D-03-0.242D-03-0.766D-02
 Coeff-Com: -0.336D-01-0.109D-01 0.180D+00 0.872D+00
 Coeff:     -0.120D-04 0.392D-04 0.235D-03 0.658D-03-0.242D-03-0.766D-02
 Coeff:     -0.336D-01-0.109D-01 0.180D+00 0.872D+00
 Gap=     0.471 Goal=   None    Shift=    0.000
 RMSDP=3.97D-08 MaxDP=1.28D-06 DE=-2.31D-10 OVMax= 2.49D-06

 Cycle  11  Pass 1  IDiag  1:
 E= -942.217996713451     Delta-E=       -0.000000000017 Rises=F Damp=F
 DIIS: error= 4.89D-08 at cycle  11 NSaved=  11.
 NSaved=11 IEnMin=11 EnMin= -942.217996713451     IErMin=11 ErrMin= 4.89D-08
 ErrMax= 4.89D-08  0.00D+00 EMaxC= 1.00D-01 BMatC= 1.37D-12 BMatP= 1.41D-11
 IDIUse=1 WtCom= 1.00D+00 WtEn= 0.00D+00
 Coeff-Com:  0.437D-05-0.809D-04 0.109D-03 0.684D-03 0.136D-02-0.826D-03
 Coeff-Com: -0.135D-01-0.279D-01-0.190D-01 0.244D+00 0.815D+00
 Coeff:      0.437D-05-0.809D-04 0.109D-03 0.684D-03 0.136D-02-0.826D-03
 Coeff:     -0.135D-01-0.279D-01-0.190D-01 0.244D+00 0.815D+00
 Gap=     0.471 Goal=   None    Shift=    0.000
 RMSDP=1.16D-08 MaxDP=3.29D-07 DE=-1.71D-11 OVMax= 7.77D-07

 Cycle  12  Pass 1  IDiag  1:
 E= -942.217996713454     Delta-E=       -0.000000000003 Rises=F Damp=F
 DIIS: error= 2.17D-08 at cycle  12 NSaved=  12.
 NSaved=12 IEnMin=12 EnMin= -942.217996713454     IErMin=12 ErrMin= 2.17D-08
 ErrMax= 2.17D-08  0.00D+00 EMaxC= 1.00D-01 BMatC= 1.57D-13 BMatP= 1.37D-12
 IDIUse=1 WtCom= 1.00D+00 WtEn= 0.00D+00
 Coeff-Com:  0.208D-05-0.273D-04 0.166D-04 0.159D-03 0.424D-03 0.291D-03
 Coeff-Com: -0.156D-02-0.733D-02-0.196D-01 0.559D-02 0.264D+00 0.758D+00
 Coeff:      0.208D-05-0.273D-04 0.166D-04 0.159D-03 0.424D-03 0.291D-03
 Coeff:     -0.156D-02-0.733D-02-0.196D-01 0.559D-02 0.264D+00 0.758D+00
 Gap=     0.471 Goal=   None    Shift=    0.000
 RMSDP=2.83D-09 MaxDP=7.24D-08 DE=-2.50D-12 OVMax= 1.47D-07

 SCF Done:  E(RwB97XD) =  -942.217996713     A.U. after   12 cycles
            NFock= 12  Conv=0.28D-08     -V/T= 2.0021
 KE= 9.402407552255D+02 PE=-3.368641200701D+03 EE= 9.193094227789D+02
 Leave Link  502 at Fri Jan  2 11:45:29 2026, MaxMem=  6442450944 cpu:             348.0 elap:              20.4
 (Enter /applications/g16/g16/l701.exe)
 ... and contract with generalized density number  0.
 Compute integral first derivatives.
 R6Disp: Adding Grimme-D2 dispersion energy 1st derivatives to the gradient.
 Leave Link  701 at Fri Jan  2 11:45:29 2026, MaxMem=  6442450944 cpu:               4.8 elap:               0.2
 (Enter /applications/g16/g16/l702.exe)
 L702 exits ... SP integral derivatives will be done elsewhere.
 Leave Link  702 at Fri Jan  2 11:45:29 2026, MaxMem=  6442450944 cpu:               0.8 elap:               0.0
 (Enter /applications/g16/g16/l703.exe)
 Integral derivatives from FoFJK, PRISM(SPDF).
 Compute integral first derivatives, UseDBF=F ICtDFT=           0.
 Calling FoFJK, ICntrl=      2127 FMM=F ISym2X=0 I1Cent= 0 IOpClX= 0 NMat=1 NMatS=1 NMatT=0.
 FoFJK:  IHMeth= 1 ICntrl=    2127 DoSepK=T KAlg= 0 I1Cent=           0 FoldK=F
 IRaf=         1 NMat=       1 IRICut=       1 DoRegI=T DoRafI=F ISym2E= 0 IDoP0=0 IntGTp=1.
 FoFCou: FMM=F IPFlag=           0 FMFlag=      100000 FMFlg1=         800
         NFxFlg=           0 DoJE=F BraDBF=F KetDBF=F FulRan=T
         wScrn=  0.000000 ICntrl=      2527 IOpCl=  0 I1Cent=           0 NGrid=           0
         NMat0=    1 NMatS0=      1 NMatT0=    0 NMatD0=    1 NMtDS0=    0 NMtDT0=    0
 Symmetry not used in FoFCou.
 Leave Link  703 at Fri Jan  2 11:45:39 2026, MaxMem=  6442450944 cpu:             228.7 elap:               9.6
 (Enter /applications/g16/g16/l716.exe)
 Dipole        = 5.19604351D-01 1.35177251D+00-6.95083034D-02
 ***** Axes restored to original set *****
 -------------------------------------------------------------------
 Center     Atomic                   Forces (Hartrees/Bohr)
 Number     Number              X              Y              Z
 -------------------------------------------------------------------
      1        6          -0.005837019    0.001116688    0.000453751
      2       16          -0.002971984    0.000200371   -0.001192019
      3        8          -0.000449545   -0.000185380    0.000241605
      4        8           0.000303416    0.000644689    0.000096525
      5        9           0.002321501    0.000255482   -0.001393753
      6        9           0.002440573    0.000427985    0.000756841
      7        7           0.000264171    0.000418535   -0.000108355
      8        1           0.000413732    0.000023428   -0.000081129
      9        1           0.000491403   -0.000275875    0.000110010
     10        9           0.003023752   -0.002625922    0.001116523
 -------------------------------------------------------------------
 Cartesian Forces:  Max     0.005837019 RMS     0.001620583
 Leave Link  716 at Fri Jan  2 11:45:39 2026, MaxMem=  6442450944 cpu:               0.8 elap:               0.0
 (Enter /applications/g16/g16/l103.exe)

 GradGradGradGradGradGradGradGradGradGradGradGradGradGradGradGradGradGrad
 Berny optimization.
 Using GEDIIS/GDIIS optimizer.
 FormGI is forming the generalized inverse of G from B-inverse, IUseBI=4.
 Internal  Forces:  Max     0.005887761 RMS     0.001549278
 Search for a local minimum.
 Step number   2 out of a maximum of   49
 All quantities printed in internal units (Hartrees-Bohrs-Radians)
 RMS Force = .15493D-02 SwitMx=.10000D-02 MixMth= 1
 Mixed Optimization -- RFO/linear search
 Update second derivatives using D2CorX and points    1    2
 DE= -1.93D-03 DEPred=-2.01D-03 R= 9.59D-01
 TightC=F SS=  1.41D+00  RLast= 2.68D-01 DXNew= 5.0454D-01 8.0292D-01
 Trust test= 9.59D-01 RLast= 2.68D-01 DXMaxT set to 5.05D-01
 ITU=  1  0
 Use linear search instead of GDIIS.
     Eigenvalues ---    0.00237   0.02216   0.03996   0.08650   0.09171
     Eigenvalues ---    0.09416   0.09914   0.11504   0.15996   0.16002
     Eigenvalues ---    0.17266   0.20106   0.22287   0.25000   0.25000
     Eigenvalues ---    0.29418   0.45715   0.46371   0.46374   0.54849
     Eigenvalues ---    0.57580   0.58179   1.05971   1.06614
 RFO step:  Lambda=-5.45413042D-04 EMin= 2.36895344D-03
 Quartic linear search produced a step of  0.03221.
 Iteration  1 RMS(Cart)=  0.04442466 RMS(Int)=  0.00109898
 Iteration  2 RMS(Cart)=  0.00115952 RMS(Int)=  0.00002536
 Iteration  3 RMS(Cart)=  0.00000060 RMS(Int)=  0.00002535
 ITry= 1 IFail=0 DXMaxC= 1.39D-01 DCOld= 1.00D+10 DXMaxT= 5.05D-01 DXLimC= 3.00D+00 Rises=F
 Variable       Old X    -DE/DX   Delta X   Delta X   Delta X     New X
                                 (Linear)    (Quad)   (Total)
    R1        3.51859  -0.00221  -0.00041  -0.01148  -0.01189   3.50670
    R2        2.50602  -0.00076  -0.00064  -0.00278  -0.00342   2.50260
    R3        2.50791  -0.00067  -0.00050  -0.00229  -0.00279   2.50512
    R4        2.50307  -0.00071  -0.00155  -0.00480  -0.00635   2.49672
    R5        2.69824   0.00023   0.00001   0.00024   0.00025   2.69849
    R6        2.69968  -0.00055  -0.00002  -0.00058  -0.00060   2.69908
    R7        3.08115   0.00092   0.00000   0.00206   0.00207   3.08321
    R8        1.90407   0.00019  -0.00000   0.00042   0.00042   1.90449
    R9        1.90402   0.00019  -0.00000   0.00041   0.00041   1.90442
    A1        1.92122  -0.00112   0.00134  -0.00291  -0.00162   1.91960
    A2        1.92220  -0.00199   0.00127  -0.00697  -0.00578   1.91642
    A3        1.92548  -0.00589  -0.00136  -0.02417  -0.02557   1.89992
    A4        1.90913   0.00070   0.00015  -0.00249  -0.00243   1.90671
    A5        1.89395   0.00410  -0.00093   0.01784   0.01688   1.91084
    A6        1.89132   0.00441  -0.00044   0.01948   0.01898   1.91030
    A7        1.85539  -0.00096  -0.00030  -0.00514  -0.00546   1.84994
    A8        1.84005  -0.00018  -0.00009  -0.00012  -0.00021   1.83984
    A9        1.74017   0.00210   0.00019   0.01012   0.01031   1.75048
   A10        2.16611   0.00035  -0.00007  -0.00073  -0.00081   2.16530
   A11        1.89773  -0.00014   0.00017   0.00107   0.00126   1.89899
   A12        1.91456  -0.00073   0.00012  -0.00272  -0.00260   1.91196
   A13        1.97411   0.00028  -0.00003   0.00025   0.00021   1.97432
   A14        1.98496  -0.00014  -0.00007  -0.00251  -0.00259   1.98238
   A15        2.02407  -0.00031  -0.00004  -0.00419  -0.00424   2.01983
    D1        0.83956   0.00103   0.00181   0.08246   0.08424   0.92380
    D2       -3.11570   0.00071   0.00146   0.07811   0.07955  -3.03615
    D3       -1.13131   0.00066   0.00164   0.07894   0.08057  -1.05074
    D4        2.94601  -0.00011   0.00351   0.07301   0.07652   3.02252
    D5       -1.00925  -0.00043   0.00316   0.06867   0.07183  -0.93742
    D6        0.97514  -0.00047   0.00333   0.06950   0.07285   1.04798
    D7       -1.25013   0.00038   0.00294   0.07747   0.08041  -1.16971
    D8        1.07780   0.00007   0.00259   0.07313   0.07573   1.15352
    D9        3.06219   0.00002   0.00277   0.07396   0.07675   3.13893
   D10        2.01980  -0.00015   0.00003  -0.00068  -0.00064   2.01915
   D11       -1.90641  -0.00048  -0.00013  -0.00936  -0.00948  -1.91589
   D12        0.08205   0.00005   0.00022   0.00031   0.00053   0.08258
   D13        2.43903  -0.00028   0.00006  -0.00838  -0.00832   2.43072
   D14       -2.33730   0.00036   0.00005   0.00284   0.00289  -2.33441
   D15        0.01968   0.00003  -0.00011  -0.00584  -0.00595   0.01373
         Item               Value     Threshold  Converged?
 Maximum Force            0.005888     0.000450     NO 
 RMS     Force            0.001549     0.000300     NO 
 Maximum Displacement     0.139397     0.001800     NO 
 RMS     Displacement     0.044443     0.001200     NO 
 Predicted change in Energy=-2.914886D-04
 Lowest energy point so far.  Saving SCF results.
 GradGradGradGradGradGradGradGradGradGradGradGradGradGradGradGradGradGrad

 Leave Link  103 at Fri Jan  2 11:45:39 2026, MaxMem=  6442450944 cpu:               2.5 elap:               0.1
 (Enter /applications/g16/g16/l202.exe)
                          Input orientation:                          
 ---------------------------------------------------------------------
 Center     Atomic      Atomic             Coordinates (Angstroms)
 Number     Number       Type             X           Y           Z
 ---------------------------------------------------------------------
      1          6           0        1.068165    0.575930   -0.187614
      2         16           0        2.632578   -0.382424    0.091062
      3          8           0        2.714781   -0.600396    1.499912
      4          8           0        2.614858   -1.429047   -0.880679
      5          9           0        1.052913    1.651899    0.584321
      6          9           0        0.989625    0.948066   -1.457537
      7          7           0        3.740294    0.737792   -0.333305
      8          1           0        4.330183    1.021196    0.433113
      9          1           0        4.215627    0.527859   -1.196788
     10          9           0        0.036771   -0.194392    0.109738
 ---------------------------------------------------------------------
                    Distance matrix (angstroms):
                    1          2          3          4          5
     1  C    0.000000
     2  S    1.855665   0.000000
     3  O    2.634925   1.427979   0.000000
     4  O    2.625363   1.428291   2.522669   0.000000
     5  F    1.324321   2.622425   2.944986   3.752083   0.000000
     6  F    1.325654   2.620622   3.757712   2.936804   2.160688
     7  N    2.680988   1.631566   2.490603   2.502282   2.983227
     8  H    3.350273   2.229128   2.525301   3.266815   3.340831
     9  H    3.305641   2.234551   3.285983   2.547914   3.799812
    10  F    1.321207   2.602676   3.044530   3.025200   2.160223
                    6          7          8          9         10
     6  F    0.000000
     7  N    2.978975   0.000000
     8  H    3.839171   1.007811   0.000000
     9  H    3.263687   1.007778   1.706775   0.000000
    10  F    2.160901   3.844651   4.473882   4.437510   0.000000
 Stoichiometry    CH2F3NO2S
 Framework group  C1[X(CH2F3NO2S)]
 Deg. of freedom    24
 Full point group                 C1      NOp   1
 RotChk:  IX=0 Diff= 1.06D-02
 Largest Abelian subgroup         C1      NOp   1
 Largest concise Abelian subgroup C1      NOp   1
                         Standard orientation:                         
 ---------------------------------------------------------------------
 Center     Atomic      Atomic             Coordinates (Angstroms)
 Number     Number       Type             X           Y           Z
 ---------------------------------------------------------------------
      1          6           0       -0.999754    0.041001    0.003085
      2         16           0        0.841249   -0.191798    0.001415
      3          8           0        1.167836   -0.754441    1.272594
      4          8           0        1.144461   -0.811254   -1.249326
      5          9           0       -1.367901    0.729801    1.072593
      6          9           0       -1.370537    0.696566   -1.087837
      7          7           0        1.331873    1.363997   -0.026797
      8          1           0        1.836628    1.634861    0.802383
      9          1           0        1.748421    1.639570   -0.902104
     10          9           0       -1.580228   -1.145710    0.021911
 ---------------------------------------------------------------------
 Rotational constants (GHZ):           2.6197547           1.5626704           1.5598146
 Leave Link  202 at Fri Jan  2 11:45:39 2026, MaxMem=  6442450944 cpu:               0.1 elap:               0.0
 (Enter /applications/g16/g16/l301.exe)
 Standard basis: 6-311+G(2d,2p) (5D, 7F)
 Ernie: Thresh=  0.10000D-02 Tol=  0.10000D-05 Strict=F.
 There are   258 symmetry adapted cartesian basis functions of A   symmetry.
 There are   242 symmetry adapted basis functions of A   symmetry.
   242 basis functions,   372 primitive gaussians,   258 cartesian basis functions
    37 alpha electrons       37 beta electrons
       nuclear repulsion energy       567.9686988858 Hartrees.
 IExCor= 4639 DFT=T Ex+Corr=wB97XD ExCW=0 ScaHFX=  1.000000
 ScaDFX=  1.000000  1.000000  1.000000  1.000000 ScalE2=  1.000000  1.000000
 IRadAn=      5 IRanWt=     -1 IRanGd=            0 ICorTp=0 IEmpDi=121
 HFx  wShort=  0.000000 wLong=  0.200000 cFull=  0.222036 cShort=  0.000000 cLong=  0.777964
 DFx  wShort=  0.000000 wLong=  0.200000 cFull=  0.000000 cShort=  0.000000 cLong=  1.000000
 NAtoms=   10 NActive=   10 NUniq=   10 SFac= 1.00D+00 NAtFMM=   60 NAOKFM=F Big=F
 Integral buffers will be    131072 words long.
 Raffenetti 2 integral format.
 Two-electron integral symmetry is turned on.
 R6Disp:  Grimme-D2 Dispersion energy=       -0.0034458348 Hartrees.
 Nuclear repulsion after empirical dispersion term =      567.9652530511 Hartrees.
 Leave Link  301 at Fri Jan  2 11:45:39 2026, MaxMem=  6442450944 cpu:               1.1 elap:               0.1
 (Enter /applications/g16/g16/l302.exe)
 NPDir=0 NMtPBC=     1 NCelOv=     1 NCel=       1 NClECP=     1 NCelD=      1
         NCelK=      1 NCelE2=     1 NClLst=     1 CellRange=     0.0.
 One-electron integrals computed using PRISM.
 One-electron integral symmetry used in STVInt
 NBasis=   242 RedAO= T EigKep=  2.16D-04  NBF=   242
 NBsUse=   242 1.00D-06 EigRej= -1.00D+00 NBFU=   242
 Precomputing XC quadrature grid using
 IXCGrd= 4 IRadAn=           5 IRanWt=          -1 IRanGd=           0 AccXCQ= 0.00D+00.
 Generated NRdTot=       0 NPtTot=           0 NUsed=           0 NTot=          32
 NSgBfM=   258   258   258   258   258 MxSgAt=    10 MxSgA2=    10.
 Leave Link  302 at Fri Jan  2 11:45:40 2026, MaxMem=  6442450944 cpu:               6.9 elap:               0.3
 (Enter /applications/g16/g16/l303.exe)
 DipDrv:  MaxL=1.
 Leave Link  303 at Fri Jan  2 11:45:40 2026, MaxMem=  6442450944 cpu:               1.1 elap:               0.1
 (Enter /applications/g16/g16/l401.exe)
 Initial guess from the checkpoint file:  "triflate_amide.chk"
 B after Tr=    -0.000000   -0.000000   -0.000000
         Rot=    0.999971    0.007562    0.000115    0.000497 Ang=   0.87 deg.
 Guess basis will be translated and rotated to current coordinates.
 JPrj=2 DoOrth=T DoCkMO=T.
 Generating alternative initial guess.
 ExpMin= 4.05D-02 ExpMax= 9.34D+04 ExpMxC= 3.17D+03 IAcc=2 IRadAn=         4 AccDes= 0.00D+00
 Harris functional with IExCor= 4639 and IRadAn=       4 diagonalized for initial guess.
 HarFok:  IExCor= 4639 AccDes= 0.00D+00 IRadAn=         4 IDoV= 1 UseB2=F ITyADJ=14
 ICtDFT=  3500011 ScaDFX=  1.000000  1.000000  1.000000  1.000000
 FoFCou: FMM=F IPFlag=           0 FMFlag=      100000 FMFlg1=           0
         NFxFlg=           0 DoJE=T BraDBF=F KetDBF=T FulRan=T
         wScrn=  0.000000 ICntrl=       500 IOpCl=  0 I1Cent=   200000004 NGrid=           0
         NMat0=    1 NMatS0=      1 NMatT0=    0 NMatD0=    1 NMtDS0=    0 NMtDT0=    0
 Petite list used in FoFCou.
 Harris En= -917.349726837040    
 Leave Link  401 at Fri Jan  2 11:45:40 2026, MaxMem=  6442450944 cpu:              16.3 elap:               0.7
 (Enter /applications/g16/g16/l502.exe)
 Keep R1 ints in memory in canonical form, NReq=890653791.
 FoFCou: FMM=F IPFlag=           0 FMFlag=           0 FMFlg1=           0
         NFxFlg=           0 DoJE=F BraDBF=F KetDBF=F FulRan=T
         wScrn=  0.000000 ICntrl=       600 IOpCl=  0 I1Cent=           0 NGrid=           0
         NMat0=    1 NMatS0=  29403 NMatT0=    0 NMatD0=    1 NMtDS0=    0 NMtDT0=    0
 Symmetry not used in FoFCou.
 Two-electron integral symmetry not used.
 Closed shell SCF:
 Using DIIS extrapolation, IDIIS=  1040.
 NGot=  6442450944 LenX=  5577743467 LenY=  5577676462
 Requested convergence on RMS density matrix=1.00D-08 within 128 cycles.
 Requested convergence on MAX density matrix=1.00D-06.
 Requested convergence on             energy=1.00D-06.
 No special actions if energy rises.

 Cycle   1  Pass 1  IDiag  1:
 E= -942.213274125796    
 DIIS: error= 3.47D-03 at cycle   1 NSaved=   1.
 NSaved= 1 IEnMin= 1 EnMin= -942.213274125796     IErMin= 1 ErrMin= 3.47D-03
 ErrMax= 3.47D-03  0.00D+00 EMaxC= 1.00D-01 BMatC= 3.67D-03 BMatP= 3.67D-03
 IDIUse=3 WtCom= 9.65D-01 WtEn= 3.47D-02
 Coeff-Com:  0.100D+01
 Coeff-En:   0.100D+01
 Coeff:      0.100D+01
 Gap=     0.745 Goal=   None    Shift=    0.000
 GapD=    0.745 DampG=2.000 DampE=1.000 DampFc=2.0000 IDamp=-1.
 RMSDP=3.40D-04 MaxDP=7.00D-03              OVMax= 1.44D-02

 Cycle   2  Pass 1  IDiag  1:
 E= -942.218000582366     Delta-E=       -0.004726456569 Rises=F Damp=F
 DIIS: error= 6.26D-04 at cycle   2 NSaved=   2.
 NSaved= 2 IEnMin= 2 EnMin= -942.218000582366     IErMin= 2 ErrMin= 6.26D-04
 ErrMax= 6.26D-04  0.00D+00 EMaxC= 1.00D-01 BMatC= 1.21D-04 BMatP= 3.67D-03
 IDIUse=3 WtCom= 9.94D-01 WtEn= 6.26D-03
 Coeff-Com: -0.153D+00 0.115D+01
 Coeff-En:   0.000D+00 0.100D+01
 Coeff:     -0.152D+00 0.115D+01
 Gap=     0.470 Goal=   None    Shift=    0.000
 RMSDP=8.54D-05 MaxDP=1.25D-03 DE=-4.73D-03 OVMax= 3.91D-03

 Cycle   3  Pass 1  IDiag  1:
 E= -942.218215148538     Delta-E=       -0.000214566173 Rises=F Damp=F
 DIIS: error= 3.47D-04 at cycle   3 NSaved=   3.
 NSaved= 3 IEnMin= 3 EnMin= -942.218215148538     IErMin= 3 ErrMin= 3.47D-04
 ErrMax= 3.47D-04  0.00D+00 EMaxC= 1.00D-01 BMatC= 3.73D-05 BMatP= 1.21D-04
 IDIUse=3 WtCom= 9.97D-01 WtEn= 3.47D-03
 Coeff-Com: -0.782D-01 0.494D+00 0.584D+00
 Coeff-En:   0.000D+00 0.000D+00 0.100D+01
 Coeff:     -0.780D-01 0.492D+00 0.586D+00
 Gap=     0.470 Goal=   None    Shift=    0.000
 RMSDP=2.39D-05 MaxDP=9.20D-04 DE=-2.15D-04 OVMax= 1.46D-03

 Cycle   4  Pass 1  IDiag  1:
 E= -942.218237449644     Delta-E=       -0.000022301106 Rises=F Damp=F
 DIIS: error= 1.27D-04 at cycle   4 NSaved=   4.
 NSaved= 4 IEnMin= 4 EnMin= -942.218237449644     IErMin= 4 ErrMin= 1.27D-04
 ErrMax= 1.27D-04  0.00D+00 EMaxC= 1.00D-01 BMatC= 7.03D-06 BMatP= 3.73D-05
 IDIUse=3 WtCom= 9.99D-01 WtEn= 1.27D-03
 Coeff-Com:  0.666D-02-0.971D-01 0.286D+00 0.804D+00
 Coeff-En:   0.000D+00 0.000D+00 0.937D-01 0.906D+00
 Coeff:      0.665D-02-0.970D-01 0.286D+00 0.804D+00
 Gap=     0.470 Goal=   None    Shift=    0.000
 RMSDP=1.19D-05 MaxDP=3.75D-04 DE=-2.23D-05 OVMax= 6.69D-04

 Cycle   5  Pass 1  IDiag  1:
 E= -942.218242857868     Delta-E=       -0.000005408224 Rises=F Damp=F
 DIIS: error= 2.55D-05 at cycle   5 NSaved=   5.
 NSaved= 5 IEnMin= 5 EnMin= -942.218242857868     IErMin= 5 ErrMin= 2.55D-05
 ErrMax= 2.55D-05  0.00D+00 EMaxC= 1.00D-01 BMatC= 2.52D-07 BMatP= 7.03D-06
 IDIUse=1 WtCom= 1.00D+00 WtEn= 0.00D+00
 Coeff-Com:  0.492D-02-0.551D-01 0.109D+00 0.347D+00 0.594D+00
 Coeff:      0.492D-02-0.551D-01 0.109D+00 0.347D+00 0.594D+00
 Gap=     0.470 Goal=   None    Shift=    0.000
 RMSDP=1.97D-06 MaxDP=5.84D-05 DE=-5.41D-06 OVMax= 8.83D-05

 Cycle   6  Pass 1  IDiag  1:
 E= -942.218243022933     Delta-E=       -0.000000165065 Rises=F Damp=F
 DIIS: error= 8.26D-06 at cycle   6 NSaved=   6.
 NSaved= 6 IEnMin= 6 EnMin= -942.218243022933     IErMin= 6 ErrMin= 8.26D-06
 ErrMax= 8.26D-06  0.00D+00 EMaxC= 1.00D-01 BMatC= 2.55D-08 BMatP= 2.52D-07
 IDIUse=1 WtCom= 1.00D+00 WtEn= 0.00D+00
 Coeff-Com:  0.877D-03-0.634D-02-0.336D-02 0.648D-02 0.226D+00 0.776D+00
 Coeff:      0.877D-03-0.634D-02-0.336D-02 0.648D-02 0.226D+00 0.776D+00
 Gap=     0.470 Goal=   None    Shift=    0.000
 RMSDP=1.07D-06 MaxDP=2.31D-05 DE=-1.65D-07 OVMax= 5.14D-05

 Cycle   7  Pass 1  IDiag  1:
 E= -942.218243043372     Delta-E=       -0.000000020440 Rises=F Damp=F
 DIIS: error= 2.20D-06 at cycle   7 NSaved=   7.
 NSaved= 7 IEnMin= 7 EnMin= -942.218243043372     IErMin= 7 ErrMin= 2.20D-06
 ErrMax= 2.20D-06  0.00D+00 EMaxC= 1.00D-01 BMatC= 2.93D-09 BMatP= 2.55D-08
 IDIUse=1 WtCom= 1.00D+00 WtEn= 0.00D+00
 Coeff-Com: -0.891D-04 0.254D-02-0.123D-01-0.304D-01 0.367D-01 0.311D+00
 Coeff-Com:  0.693D+00
 Coeff:     -0.891D-04 0.254D-02-0.123D-01-0.304D-01 0.367D-01 0.311D+00
 Coeff:      0.693D+00
 Gap=     0.470 Goal=   None    Shift=    0.000
 RMSDP=3.49D-07 MaxDP=1.08D-05 DE=-2.04D-08 OVMax= 1.47D-05

 Cycle   8  Pass 1  IDiag  1:
 E= -942.218243045653     Delta-E=       -0.000000002281 Rises=F Damp=F
 DIIS: error= 9.84D-07 at cycle   8 NSaved=   8.
 NSaved= 8 IEnMin= 8 EnMin= -942.218243045653     IErMin= 8 ErrMin= 9.84D-07
 ErrMax= 9.84D-07  0.00D+00 EMaxC= 1.00D-01 BMatC= 4.89D-10 BMatP= 2.93D-09
 IDIUse=1 WtCom= 1.00D+00 WtEn= 0.00D+00
 Coeff-Com: -0.145D-03 0.192D-02-0.542D-02-0.148D-01-0.857D-02 0.567D-01
 Coeff-Com:  0.330D+00 0.640D+00
 Coeff:     -0.145D-03 0.192D-02-0.542D-02-0.148D-01-0.857D-02 0.567D-01
 Coeff:      0.330D+00 0.640D+00
 Gap=     0.470 Goal=   None    Shift=    0.000
 RMSDP=1.16D-07 MaxDP=3.13D-06 DE=-2.28D-09 OVMax= 5.94D-06

 Cycle   9  Pass 1  IDiag  1:
 E= -942.218243046029     Delta-E=       -0.000000000376 Rises=F Damp=F
 DIIS: error= 2.46D-07 at cycle   9 NSaved=   9.
 NSaved= 9 IEnMin= 9 EnMin= -942.218243046029     IErMin= 9 ErrMin= 2.46D-07
 ErrMax= 2.46D-07  0.00D+00 EMaxC= 1.00D-01 BMatC= 2.88D-11 BMatP= 4.89D-10
 IDIUse=1 WtCom= 1.00D+00 WtEn= 0.00D+00
 Coeff-Com: -0.275D-04 0.223D-03-0.241D-04-0.460D-03-0.702D-02-0.214D-01
 Coeff-Com:  0.427D-02 0.188D+00 0.837D+00
 Coeff:     -0.275D-04 0.223D-03-0.241D-04-0.460D-03-0.702D-02-0.214D-01
 Coeff:      0.427D-02 0.188D+00 0.837D+00
 Gap=     0.470 Goal=   None    Shift=    0.000
 RMSDP=4.24D-08 MaxDP=1.06D-06 DE=-3.76D-10 OVMax= 2.30D-06

 Cycle  10  Pass 1  IDiag  1:
 E= -942.218243046039     Delta-E=       -0.000000000010 Rises=F Damp=F
 DIIS: error= 6.38D-08 at cycle  10 NSaved=  10.
 NSaved=10 IEnMin=10 EnMin= -942.218243046039     IErMin=10 ErrMin= 6.38D-08
 ErrMax= 6.38D-08  0.00D+00 EMaxC= 1.00D-01 BMatC= 2.38D-12 BMatP= 2.88D-11
 IDIUse=1 WtCom= 1.00D+00 WtEn= 0.00D+00
 Coeff-Com:  0.678D-05-0.131D-03 0.550D-03 0.140D-02-0.107D-02-0.117D-01
 Coeff-Com: -0.323D-01-0.125D-01 0.223D+00 0.833D+00
 Coeff:      0.678D-05-0.131D-03 0.550D-03 0.140D-02-0.107D-02-0.117D-01
 Coeff:     -0.323D-01-0.125D-01 0.223D+00 0.833D+00
 Gap=     0.470 Goal=   None    Shift=    0.000
 RMSDP=1.33D-08 MaxDP=3.52D-07 DE=-1.02D-11 OVMax= 7.89D-07

 Cycle  11  Pass 1  IDiag  1:
 E= -942.218243046056     Delta-E=       -0.000000000017 Rises=F Damp=F
 DIIS: error= 3.47D-08 at cycle  11 NSaved=  11.
 NSaved=11 IEnMin=11 EnMin= -942.218243046056     IErMin=11 ErrMin= 3.47D-08
 ErrMax= 3.47D-08  0.00D+00 EMaxC= 1.00D-01 BMatC= 4.46D-13 BMatP= 2.38D-12
 IDIUse=1 WtCom= 1.00D+00 WtEn= 0.00D+00
 Coeff-Com:  0.479D-05-0.711D-04 0.229D-03 0.616D-03 0.140D-03-0.309D-02
 Coeff-Com: -0.137D-01-0.207D-01 0.227D-01 0.352D+00 0.662D+00
 Coeff:      0.479D-05-0.711D-04 0.229D-03 0.616D-03 0.140D-03-0.309D-02
 Coeff:     -0.137D-01-0.207D-01 0.227D-01 0.352D+00 0.662D+00
 Gap=     0.470 Goal=   None    Shift=    0.000
 RMSDP=3.45D-09 MaxDP=9.51D-08 DE=-1.68D-11 OVMax= 2.18D-07

 SCF Done:  E(RwB97XD) =  -942.218243046     A.U. after   11 cycles
            NFock= 11  Conv=0.34D-08     -V/T= 2.0021
 KE= 9.402611795100D+02 PE=-3.370837595902D+03 EE= 9.203929202948D+02
 Leave Link  502 at Fri Jan  2 11:45:59 2026, MaxMem=  6442450944 cpu:             327.9 elap:              19.0
 (Enter /applications/g16/g16/l701.exe)
 ... and contract with generalized density number  0.
 Compute integral first derivatives.
 R6Disp: Adding Grimme-D2 dispersion energy 1st derivatives to the gradient.
 Leave Link  701 at Fri Jan  2 11:46:00 2026, MaxMem=  6442450944 cpu:               4.7 elap:               0.2
 (Enter /applications/g16/g16/l702.exe)
 L702 exits ... SP integral derivatives will be done elsewhere.
 Leave Link  702 at Fri Jan  2 11:46:00 2026, MaxMem=  6442450944 cpu:               0.7 elap:               0.0
 (Enter /applications/g16/g16/l703.exe)
 Integral derivatives from FoFJK, PRISM(SPDF).
 Compute integral first derivatives, UseDBF=F ICtDFT=           0.
 Calling FoFJK, ICntrl=      2127 FMM=F ISym2X=0 I1Cent= 0 IOpClX= 0 NMat=1 NMatS=1 NMatT=0.
 FoFJK:  IHMeth= 1 ICntrl=    2127 DoSepK=T KAlg= 0 I1Cent=           0 FoldK=F
 IRaf=         1 NMat=       1 IRICut=       1 DoRegI=T DoRafI=F ISym2E= 0 IDoP0=0 IntGTp=1.
 FoFCou: FMM=F IPFlag=           0 FMFlag=      100000 FMFlg1=         800
         NFxFlg=           0 DoJE=F BraDBF=F KetDBF=F FulRan=T
         wScrn=  0.000000 ICntrl=      2527 IOpCl=  0 I1Cent=           0 NGrid=           0
         NMat0=    1 NMatS0=      1 NMatT0=    0 NMatD0=    1 NMtDS0=    0 NMtDT0=    0
 Symmetry not used in FoFCou.
 Leave Link  703 at Fri Jan  2 11:46:10 2026, MaxMem=  6442450944 cpu:             229.6 elap:               9.7
 (Enter /applications/g16/g16/l716.exe)
 Dipole        = 4.90127647D-01 1.34288160D+00-4.43623937D-02
 ***** Axes restored to original set *****
 -------------------------------------------------------------------
 Center     Atomic                   Forces (Hartrees/Bohr)
 Number     Number              X              Y              Z
 -------------------------------------------------------------------
      1        6           0.001914516   -0.000258742    0.000164676
      2       16          -0.000406320   -0.000211540   -0.000495441
      3        8           0.000039879   -0.000124241    0.000718095
      4        8           0.000349242   -0.000221215   -0.000325580
      5        9          -0.000744863    0.000439129    0.000012585
      6        9          -0.000619520    0.000272653    0.000115347
      7        7           0.000130887    0.000512767   -0.000388277
      8        1           0.000108514    0.000067749   -0.000047180
      9        1           0.000332921   -0.000397941    0.000202551
     10        9          -0.001105256   -0.000078619    0.000043224
 -------------------------------------------------------------------
 Cartesian Forces:  Max     0.001914516 RMS     0.000523860
 Leave Link  716 at Fri Jan  2 11:46:10 2026, MaxMem=  6442450944 cpu:               0.8 elap:               0.0
 (Enter /applications/g16/g16/l103.exe)

 GradGradGradGradGradGradGradGradGradGradGradGradGradGradGradGradGradGrad
 Berny optimization.
 Using GEDIIS/GDIIS optimizer.
 FormGI is forming the generalized inverse of G from B-inverse, IUseBI=4.
 Internal  Forces:  Max     0.001044117 RMS     0.000474745
 Search for a local minimum.
 Step number   3 out of a maximum of   49
 All quantities printed in internal units (Hartrees-Bohrs-Radians)
 RMS Force = .47474D-03 SwitMx=.10000D-02 MixMth= 2
 Mixed Optimization -- En-DIIS/RFO-DIIS
 Update second derivatives using D2CorX and points    1    2    3
 DE= -2.46D-04 DEPred=-2.91D-04 R= 8.45D-01
 TightC=F SS=  1.41D+00  RLast= 2.37D-01 DXNew= 8.4853D-01 7.1151D-01
 Trust test= 8.45D-01 RLast= 2.37D-01 DXMaxT set to 7.12D-01
 ITU=  1  1  0
 Use linear search instead of GDIIS.
     Eigenvalues ---    0.00269   0.02199   0.03962   0.08900   0.09169
     Eigenvalues ---    0.09512   0.09812   0.11569   0.15761   0.16004
     Eigenvalues ---    0.16605   0.19906   0.21784   0.25000   0.25218
     Eigenvalues ---    0.33449   0.45597   0.46367   0.46374   0.55148
     Eigenvalues ---    0.57551   0.58177   1.06037   1.06706
 RFO step:  Lambda=-2.91489647D-05 EMin= 2.68642748D-03
 Quartic linear search produced a step of -0.10101.
 Iteration  1 RMS(Cart)=  0.00589069 RMS(Int)=  0.00002119
 Iteration  2 RMS(Cart)=  0.00001991 RMS(Int)=  0.00000333
 Iteration  3 RMS(Cart)=  0.00000000 RMS(Int)=  0.00000333
 ITry= 1 IFail=0 DXMaxC= 1.83D-02 DCOld= 1.00D+10 DXMaxT= 7.12D-01 DXLimC= 3.00D+00 Rises=F
 Variable       Old X    -DE/DX   Delta X   Delta X   Delta X     New X
                                 (Linear)    (Quad)   (Total)
    R1        3.50670   0.00061   0.00120   0.00074   0.00194   3.50864
    R2        2.50260   0.00037   0.00035   0.00012   0.00046   2.50307
    R3        2.50512   0.00000   0.00028  -0.00038  -0.00009   2.50503
    R4        2.49672   0.00092   0.00064   0.00070   0.00134   2.49806
    R5        2.69849   0.00073  -0.00002   0.00066   0.00063   2.69912
    R6        2.69908   0.00038   0.00006   0.00023   0.00029   2.69937
    R7        3.08321   0.00057  -0.00021   0.00147   0.00126   3.08447
    R8        1.90449   0.00005  -0.00004   0.00016   0.00012   1.90460
    R9        1.90442   0.00007  -0.00004   0.00019   0.00015   1.90458
    A1        1.91960   0.00104   0.00016   0.00349   0.00365   1.92325
    A2        1.91642   0.00086   0.00058   0.00213   0.00271   1.91914
    A3        1.89992   0.00068   0.00258  -0.00170   0.00089   1.90080
    A4        1.90671  -0.00087   0.00025  -0.00306  -0.00282   1.90389
    A5        1.91084  -0.00090  -0.00171  -0.00063  -0.00234   1.90850
    A6        1.91030  -0.00083  -0.00192  -0.00022  -0.00213   1.90817
    A7        1.84994  -0.00040   0.00055  -0.00218  -0.00162   1.84831
    A8        1.83984   0.00032   0.00002   0.00239   0.00241   1.84226
    A9        1.75048   0.00074  -0.00104   0.00471   0.00367   1.75415
   A10        2.16530   0.00009   0.00008  -0.00033  -0.00025   2.16505
   A11        1.89899  -0.00003  -0.00013   0.00002  -0.00011   1.89888
   A12        1.91196  -0.00053   0.00026  -0.00320  -0.00294   1.90902
   A13        1.97432   0.00017  -0.00002  -0.00014  -0.00017   1.97416
   A14        1.98238  -0.00032   0.00026  -0.00338  -0.00312   1.97925
   A15        2.01983  -0.00009   0.00043  -0.00286  -0.00244   2.01740
    D1        0.92380  -0.00006  -0.00851   0.00505  -0.00346   0.92034
    D2       -3.03615   0.00000  -0.00804   0.00480  -0.00324  -3.03939
    D3       -1.05074  -0.00019  -0.00814   0.00388  -0.00425  -1.05500
    D4        3.02252   0.00007  -0.00773   0.00480  -0.00293   3.01960
    D5       -0.93742   0.00012  -0.00726   0.00455  -0.00271  -0.94013
    D6        1.04798  -0.00007  -0.00736   0.00364  -0.00372   1.04427
    D7       -1.16971  -0.00001  -0.00812   0.00476  -0.00336  -1.17307
    D8        1.15352   0.00005  -0.00765   0.00451  -0.00314   1.15038
    D9        3.13893  -0.00014  -0.00775   0.00360  -0.00415   3.13478
   D10        2.01915  -0.00022   0.00006  -0.00397  -0.00391   2.01525
   D11       -1.91589  -0.00051   0.00096  -0.01187  -0.01090  -1.92680
   D12        0.08258  -0.00008  -0.00005  -0.00362  -0.00367   0.07891
   D13        2.43072  -0.00037   0.00084  -0.01151  -0.01067   2.42005
   D14       -2.33441   0.00029  -0.00029  -0.00025  -0.00055  -2.33496
   D15        0.01373   0.00000   0.00060  -0.00815  -0.00755   0.00618
         Item               Value     Threshold  Converged?
 Maximum Force            0.001044     0.000450     NO 
 RMS     Force            0.000475     0.000300     NO 
 Maximum Displacement     0.018295     0.001800     NO 
 RMS     Displacement     0.005886     0.001200     NO 
 Predicted change in Energy=-1.776534D-05
 Lowest energy point so far.  Saving SCF results.
 GradGradGradGradGradGradGradGradGradGradGradGradGradGradGradGradGradGrad

 Leave Link  103 at Fri Jan  2 11:46:10 2026, MaxMem=  6442450944 cpu:               2.7 elap:               0.1
 (Enter /applications/g16/g16/l202.exe)
                          Input orientation:                          
 ---------------------------------------------------------------------
 Center     Atomic      Atomic             Coordinates (Angstroms)
 Number     Number       Type             X           Y           Z
 ---------------------------------------------------------------------
      1          6           0        1.066213    0.576393   -0.186576
      2         16           0        2.633093   -0.380554    0.089912
      3          8           0        2.715479   -0.597702    1.499217
      4          8           0        2.618594   -1.428022   -0.881200
      5          9           0        1.044350    1.651286    0.587118
      6          9           0        0.984108    0.953449   -1.454769
      7          7           0        3.743606    0.737345   -0.335815
      8          1           0        4.332178    1.022340    0.431107
      9          1           0        4.223381    0.518178   -1.194629
     10          9           0        0.034794   -0.196232    0.107859
 ---------------------------------------------------------------------
                    Distance matrix (angstroms):
                    1          2          3          4          5
     1  C    0.000000
     2  S    1.856692   0.000000
     3  O    2.634478   1.428314   0.000000
     4  O    2.628700   1.428445   2.522936   0.000000
     5  F    1.324567   2.626727   2.946615   3.757172   0.000000
     6  F    1.325604   2.623881   3.758955   2.944814   2.158682
     7  N    2.686375   1.632232   2.491332   2.500382   2.995509
     8  H    3.353644   2.229668   2.525690   3.265393   3.351078
     9  H    3.314705   2.233110   3.282645   2.541903   3.816385
    10  F    1.321917   2.604890   3.046822   3.028459   2.159217
                    6          7          8          9         10
     6  F    0.000000
     7  N    2.985563   0.000000
     8  H    3.843286   1.007873   0.000000
     9  H    3.278723   1.007859   1.705589   0.000000
    10  F    2.159807   3.850155   4.478495   4.444222   0.000000
 Stoichiometry    CH2F3NO2S
 Framework group  C1[X(CH2F3NO2S)]
 Deg. of freedom    24
 Full point group                 C1      NOp   1
 RotChk:  IX=0 Diff= 1.11D-02
 Largest Abelian subgroup         C1      NOp   1
 Largest concise Abelian subgroup C1      NOp   1
                         Standard orientation:                         
 ---------------------------------------------------------------------
 Center     Atomic      Atomic             Coordinates (Angstroms)
 Number     Number       Type             X           Y           Z
 ---------------------------------------------------------------------
      1          6           0       -1.000107    0.041668    0.002274
      2         16           0        0.841860   -0.191695    0.000950
      3          8           0        1.164745   -0.763673    1.269283
      4          8           0        1.149719   -0.802019   -1.253316
      5          9           0       -1.374418    0.718999    1.077257
      6          9           0       -1.372545    0.708133   -1.081396
      7          7           0        1.338794    1.362951   -0.016763
      8          1           0        1.840622    1.627381    0.816336
      9          1           0        1.765935    1.636790   -0.887591
     10          9           0       -1.582253   -1.145152    0.007696
 ---------------------------------------------------------------------
 Rotational constants (GHZ):           2.6220378           1.5581345           1.5553794
 Leave Link  202 at Fri Jan  2 11:46:10 2026, MaxMem=  6442450944 cpu:               0.0 elap:               0.0
 (Enter /applications/g16/g16/l301.exe)
 Standard basis: 6-311+G(2d,2p) (5D, 7F)
 Ernie: Thresh=  0.10000D-02 Tol=  0.10000D-05 Strict=F.
 There are   258 symmetry adapted cartesian basis functions of A   symmetry.
 There are   242 symmetry adapted basis functions of A   symmetry.
   242 basis functions,   372 primitive gaussians,   258 cartesian basis functions
    37 alpha electrons       37 beta electrons
       nuclear repulsion energy       567.6308376014 Hartrees.
 IExCor= 4639 DFT=T Ex+Corr=wB97XD ExCW=0 ScaHFX=  1.000000
 ScaDFX=  1.000000  1.000000  1.000000  1.000000 ScalE2=  1.000000  1.000000
 IRadAn=      5 IRanWt=     -1 IRanGd=            0 ICorTp=0 IEmpDi=121
 HFx  wShort=  0.000000 wLong=  0.200000 cFull=  0.222036 cShort=  0.000000 cLong=  0.777964
 DFx  wShort=  0.000000 wLong=  0.200000 cFull=  0.000000 cShort=  0.000000 cLong=  1.000000
 NAtoms=   10 NActive=   10 NUniq=   10 SFac= 1.00D+00 NAtFMM=   60 NAOKFM=F Big=F
 Integral buffers will be    131072 words long.
 Raffenetti 2 integral format.
 Two-electron integral symmetry is turned on.
 R6Disp:  Grimme-D2 Dispersion energy=       -0.0034422706 Hartrees.
 Nuclear repulsion after empirical dispersion term =      567.6273953309 Hartrees.
 Leave Link  301 at Fri Jan  2 11:46:10 2026, MaxMem=  6442450944 cpu:               1.2 elap:               0.1
 (Enter /applications/g16/g16/l302.exe)
 NPDir=0 NMtPBC=     1 NCelOv=     1 NCel=       1 NClECP=     1 NCelD=      1
         NCelK=      1 NCelE2=     1 NClLst=     1 CellRange=     0.0.
 One-electron integrals computed using PRISM.
 One-electron integral symmetry used in STVInt
 NBasis=   242 RedAO= T EigKep=  2.17D-04  NBF=   242
 NBsUse=   242 1.00D-06 EigRej= -1.00D+00 NBFU=   242
 Precomputing XC quadrature grid using
 IXCGrd= 4 IRadAn=           5 IRanWt=          -1 IRanGd=           0 AccXCQ= 0.00D+00.
 Generated NRdTot=       0 NPtTot=           0 NUsed=           0 NTot=          32
 NSgBfM=   258   258   258   258   258 MxSgAt=    10 MxSgA2=    10.
 Leave Link  302 at Fri Jan  2 11:46:11 2026, MaxMem=  6442450944 cpu:               7.0 elap:               0.3
 (Enter /applications/g16/g16/l303.exe)
 DipDrv:  MaxL=1.
 Leave Link  303 at Fri Jan  2 11:46:11 2026, MaxMem=  6442450944 cpu:               1.1 elap:               0.0
 (Enter /applications/g16/g16/l401.exe)
 Initial guess from the checkpoint file:  "triflate_amide.chk"
 B after Tr=     0.000000    0.000000   -0.000000
         Rot=    0.999991   -0.004169    0.000872    0.000304 Ang=  -0.49 deg.
 Guess basis will be translated and rotated to current coordinates.
 JPrj=2 DoOrth=T DoCkMO=T.
 Leave Link  401 at Fri Jan  2 11:46:11 2026, MaxMem=  6442450944 cpu:               4.3 elap:               0.2
 (Enter /applications/g16/g16/l502.exe)
 Keep R1 ints in memory in canonical form, NReq=890653791.
 FoFCou: FMM=F IPFlag=           0 FMFlag=           0 FMFlg1=           0
         NFxFlg=           0 DoJE=F BraDBF=F KetDBF=F FulRan=T
         wScrn=  0.000000 ICntrl=       600 IOpCl=  0 I1Cent=           0 NGrid=           0
         NMat0=    1 NMatS0=  29403 NMatT0=    0 NMatD0=    1 NMtDS0=    0 NMtDT0=    0
 Symmetry not used in FoFCou.
 Two-electron integral symmetry not used.
 Closed shell SCF:
 Using DIIS extrapolation, IDIIS=  1040.
 NGot=  6442450944 LenX=  5577743467 LenY=  5577676462
 Requested convergence on RMS density matrix=1.00D-08 within 128 cycles.
 Requested convergence on MAX density matrix=1.00D-06.
 Requested convergence on             energy=1.00D-06.
 No special actions if energy rises.

 Cycle   1  Pass 1  IDiag  1:
 E= -942.218214250482    
 DIIS: error= 2.96D-04 at cycle   1 NSaved=   1.
 NSaved= 1 IEnMin= 1 EnMin= -942.218214250482     IErMin= 1 ErrMin= 2.96D-04
 ErrMax= 2.96D-04  0.00D+00 EMaxC= 1.00D-01 BMatC= 3.83D-05 BMatP= 3.83D-05
 IDIUse=3 WtCom= 9.97D-01 WtEn= 2.96D-03
 Coeff-Com:  0.100D+01
 Coeff-En:   0.100D+01
 Coeff:      0.100D+01
 Gap=     0.745 Goal=   None    Shift=    0.000
 RMSDP=4.57D-05 MaxDP=8.92D-04              OVMax= 1.58D-03

 Cycle   2  Pass 1  IDiag  1:
 E= -942.218260624784     Delta-E=       -0.000046374301 Rises=F Damp=F
 DIIS: error= 4.26D-05 at cycle   2 NSaved=   2.
 NSaved= 2 IEnMin= 2 EnMin= -942.218260624784     IErMin= 2 ErrMin= 4.26D-05
 ErrMax= 4.26D-05  0.00D+00 EMaxC= 1.00D-01 BMatC= 1.18D-06 BMatP= 3.83D-05
 IDIUse=1 WtCom= 1.00D+00 WtEn= 0.00D+00
 Coeff-Com: -0.126D+00 0.113D+01
 Coeff:     -0.126D+00 0.113D+01
 Gap=     0.470 Goal=   None    Shift=    0.000
 RMSDP=9.96D-06 MaxDP=2.23D-04 DE=-4.64D-05 OVMax= 4.94D-04

 Cycle   3  Pass 1  IDiag  1:
 E= -942.218262922267     Delta-E=       -0.000002297484 Rises=F Damp=F
 DIIS: error= 2.73D-05 at cycle   3 NSaved=   3.
 NSaved= 3 IEnMin= 3 EnMin= -942.218262922267     IErMin= 3 ErrMin= 2.73D-05
 ErrMax= 2.73D-05  0.00D+00 EMaxC= 1.00D-01 BMatC= 4.12D-07 BMatP= 1.18D-06
 IDIUse=1 WtCom= 1.00D+00 WtEn= 0.00D+00
 Coeff-Com: -0.658D-01 0.458D+00 0.608D+00
 Coeff:     -0.658D-01 0.458D+00 0.608D+00
 Gap=     0.470 Goal=   None    Shift=    0.000
 RMSDP=2.79D-06 MaxDP=9.38D-05 DE=-2.30D-06 OVMax= 1.42D-04

 Cycle   4  Pass 1  IDiag  1:
 E= -942.218263183789     Delta-E=       -0.000000261522 Rises=F Damp=F
 DIIS: error= 1.17D-05 at cycle   4 NSaved=   4.
 NSaved= 4 IEnMin= 4 EnMin= -942.218263183789     IErMin= 4 ErrMin= 1.17D-05
 ErrMax= 1.17D-05  0.00D+00 EMaxC= 1.00D-01 BMatC= 8.11D-08 BMatP= 4.12D-07
 IDIUse=1 WtCom= 1.00D+00 WtEn= 0.00D+00
 Coeff-Com:  0.503D-02-0.109D+00 0.280D+00 0.824D+00
 Coeff:      0.503D-02-0.109D+00 0.280D+00 0.824D+00
 Gap=     0.470 Goal=   None    Shift=    0.000
 RMSDP=1.71D-06 MaxDP=4.66D-05 DE=-2.62D-07 OVMax= 7.74D-05

 Cycle   5  Pass 1  IDiag  1:
 E= -942.218263257018     Delta-E=       -0.000000073228 Rises=F Damp=F
 DIIS: error= 2.27D-06 at cycle   5 NSaved=   5.
 NSaved= 5 IEnMin= 5 EnMin= -942.218263257018     IErMin= 5 ErrMin= 2.27D-06
 ErrMax= 2.27D-06  0.00D+00 EMaxC= 1.00D-01 BMatC= 2.88D-09 BMatP= 8.11D-08
 IDIUse=1 WtCom= 1.00D+00 WtEn= 0.00D+00
 Coeff-Com:  0.460D-02-0.560D-01 0.591D-01 0.268D+00 0.725D+00
 Coeff:      0.460D-02-0.560D-01 0.591D-01 0.268D+00 0.725D+00
 Gap=     0.470 Goal=   None    Shift=    0.000
 RMSDP=4.32D-07 MaxDP=1.34D-05 DE=-7.32D-08 OVMax= 1.91D-05

 Cycle   6  Pass 1  IDiag  1:
 E= -942.218263259627     Delta-E=       -0.000000002609 Rises=F Damp=F
 DIIS: error= 1.12D-06 at cycle   6 NSaved=   6.
 NSaved= 6 IEnMin= 6 EnMin= -942.218263259627     IErMin= 6 ErrMin= 1.12D-06
 ErrMax= 1.12D-06  0.00D+00 EMaxC= 1.00D-01 BMatC= 6.00D-10 BMatP= 2.88D-09
 IDIUse=1 WtCom= 1.00D+00 WtEn= 0.00D+00
 Coeff-Com:  0.122D-02-0.965D-02-0.926D-02 0.117D-01 0.321D+00 0.685D+00
 Coeff:      0.122D-02-0.965D-02-0.926D-02 0.117D-01 0.321D+00 0.685D+00
 Gap=     0.470 Goal=   None    Shift=    0.000
 RMSDP=2.00D-07 MaxDP=6.75D-06 DE=-2.61D-09 OVMax= 6.85D-06

 Cycle   7  Pass 1  IDiag  1:
 E= -942.218263260152     Delta-E=       -0.000000000525 Rises=F Damp=F
 DIIS: error= 3.58D-07 at cycle   7 NSaved=   7.
 NSaved= 7 IEnMin= 7 EnMin= -942.218263260152     IErMin= 7 ErrMin= 3.58D-07
 ErrMax= 3.58D-07  0.00D+00 EMaxC= 1.00D-01 BMatC= 4.76D-11 BMatP= 6.00D-10
 IDIUse=1 WtCom= 1.00D+00 WtEn= 0.00D+00
 Coeff-Com: -0.205D-03 0.418D-02-0.106D-01-0.327D-01 0.183D-02 0.217D+00
 Coeff-Com:  0.821D+00
 Coeff:     -0.205D-03 0.418D-02-0.106D-01-0.327D-01 0.183D-02 0.217D+00
 Coeff:      0.821D+00
 Gap=     0.470 Goal=   None    Shift=    0.000
 RMSDP=9.14D-08 MaxDP=3.02D-06 DE=-5.25D-10 OVMax= 3.77D-06

 Cycle   8  Pass 1  IDiag  1:
 E= -942.218263260192     Delta-E=       -0.000000000040 Rises=F Damp=F
 DIIS: error= 1.91D-07 at cycle   8 NSaved=   8.
 NSaved= 8 IEnMin= 8 EnMin= -942.218263260192     IErMin= 8 ErrMin= 1.91D-07
 ErrMax= 1.91D-07  0.00D+00 EMaxC= 1.00D-01 BMatC= 1.07D-11 BMatP= 4.76D-11
 IDIUse=1 WtCom= 1.00D+00 WtEn= 0.00D+00
 Coeff-Com: -0.226D-03 0.309D-02-0.468D-02-0.181D-01-0.297D-01 0.430D-01
 Coeff-Com:  0.400D+00 0.606D+00
 Coeff:     -0.226D-03 0.309D-02-0.468D-02-0.181D-01-0.297D-01 0.430D-01
 Coeff:      0.400D+00 0.606D+00
 Gap=     0.470 Goal=   None    Shift=    0.000
 RMSDP=2.79D-08 MaxDP=9.45D-07 DE=-4.00D-11 OVMax= 1.11D-06

 Cycle   9  Pass 1  IDiag  1:
 E= -942.218263260199     Delta-E=       -0.000000000007 Rises=F Damp=F
 DIIS: error= 5.22D-08 at cycle   9 NSaved=   9.
 NSaved= 9 IEnMin= 9 EnMin= -942.218263260199     IErMin= 9 ErrMin= 5.22D-08
 ErrMax= 5.22D-08  0.00D+00 EMaxC= 1.00D-01 BMatC= 1.17D-12 BMatP= 1.07D-11
 IDIUse=1 WtCom= 1.00D+00 WtEn= 0.00D+00
 Coeff-Com: -0.635D-04 0.667D-03-0.382D-03-0.268D-02-0.135D-01-0.160D-01
 Coeff-Com:  0.423D-01 0.261D+00 0.729D+00
 Coeff:     -0.635D-04 0.667D-03-0.382D-03-0.268D-02-0.135D-01-0.160D-01
 Coeff:      0.423D-01 0.261D+00 0.729D+00
 Gap=     0.470 Goal=   None    Shift=    0.000
 RMSDP=1.13D-08 MaxDP=3.82D-07 DE=-6.82D-12 OVMax= 4.05D-07

 Cycle  10  Pass 1  IDiag  1:
 E= -942.218263260224     Delta-E=       -0.000000000025 Rises=F Damp=F
 DIIS: error= 1.03D-08 at cycle  10 NSaved=  10.
 NSaved=10 IEnMin=10 EnMin= -942.218263260224     IErMin=10 ErrMin= 1.03D-08
 ErrMax= 1.03D-08  0.00D+00 EMaxC= 1.00D-01 BMatC= 8.46D-14 BMatP= 1.17D-12
 IDIUse=1 WtCom= 1.00D+00 WtEn= 0.00D+00
 Coeff-Com:  0.778D-05-0.169D-03 0.471D-03 0.148D-02-0.431D-03-0.999D-02
 Coeff-Com: -0.365D-01 0.422D-02 0.229D+00 0.812D+00
 Coeff:      0.778D-05-0.169D-03 0.471D-03 0.148D-02-0.431D-03-0.999D-02
 Coeff:     -0.365D-01 0.422D-02 0.229D+00 0.812D+00
 Gap=     0.470 Goal=   None    Shift=    0.000
 RMSDP=3.60D-09 MaxDP=1.21D-07 DE=-2.50D-11 OVMax= 1.20D-07

 SCF Done:  E(RwB97XD) =  -942.218263260     A.U. after   10 cycles
            NFock= 10  Conv=0.36D-08     -V/T= 2.0021
 KE= 9.402549711616D+02 PE=-3.370151673694D+03 EE= 9.200510439413D+02
 Leave Link  502 at Fri Jan  2 11:46:29 2026, MaxMem=  6442450944 cpu:             312.0 elap:              17.9
 (Enter /applications/g16/g16/l701.exe)
 ... and contract with generalized density number  0.
 Compute integral first derivatives.
 R6Disp: Adding Grimme-D2 dispersion energy 1st derivatives to the gradient.
 Leave Link  701 at Fri Jan  2 11:46:29 2026, MaxMem=  6442450944 cpu:               4.8 elap:               0.2
 (Enter /applications/g16/g16/l702.exe)
 L702 exits ... SP integral derivatives will be done elsewhere.
 Leave Link  702 at Fri Jan  2 11:46:30 2026, MaxMem=  6442450944 cpu:               0.8 elap:               0.0
 (Enter /applications/g16/g16/l703.exe)
 Integral derivatives from FoFJK, PRISM(SPDF).
 Compute integral first derivatives, UseDBF=F ICtDFT=           0.
 Calling FoFJK, ICntrl=      2127 FMM=F ISym2X=0 I1Cent= 0 IOpClX= 0 NMat=1 NMatS=1 NMatT=0.
 FoFJK:  IHMeth= 1 ICntrl=    2127 DoSepK=T KAlg= 0 I1Cent=           0 FoldK=F
 IRaf=         1 NMat=       1 IRICut=       1 DoRegI=T DoRafI=F ISym2E= 0 IDoP0=0 IntGTp=1.
 FoFCou: FMM=F IPFlag=           0 FMFlag=      100000 FMFlg1=         800
         NFxFlg=           0 DoJE=F BraDBF=F KetDBF=F FulRan=T
         wScrn=  0.000000 ICntrl=      2527 IOpCl=  0 I1Cent=           0 NGrid=           0
         NMat0=    1 NMatS0=      1 NMatT0=    0 NMatD0=    1 NMtDS0=    0 NMtDT0=    0
 Symmetry not used in FoFCou.
 Leave Link  703 at Fri Jan  2 11:46:39 2026, MaxMem=  6442450944 cpu:             228.7 elap:               9.6
 (Enter /applications/g16/g16/l716.exe)
 Dipole        = 5.00008857D-01 1.33725305D+00-3.35473711D-02
 ***** Axes restored to original set *****
 -------------------------------------------------------------------
 Center     Atomic                   Forces (Hartrees/Bohr)
 Number     Number              X              Y              Z
 -------------------------------------------------------------------
      1        6           0.000387807    0.000490793   -0.000192566
      2       16           0.000405685   -0.000368081    0.000071674
      3        8          -0.000217802   -0.000052630    0.000317812
      4        8          -0.000177129    0.000044480   -0.000215552
      5        9           0.000062531    0.000026227    0.000272347
      6        9          -0.000029851   -0.000102701   -0.000149071
      7        7          -0.000311118    0.000550462   -0.000426106
      8        1          -0.000026688    0.000056719    0.000067803
      9        1           0.000238322   -0.000305858    0.000121971
     10        9          -0.000331756   -0.000339412    0.000131689
 -------------------------------------------------------------------
 Cartesian Forces:  Max     0.000550462 RMS     0.000262979
 Leave Link  716 at Fri Jan  2 11:46:39 2026, MaxMem=  6442450944 cpu:               0.8 elap:               0.0
 (Enter /applications/g16/g16/l103.exe)

 GradGradGradGradGradGradGradGradGradGradGradGradGradGradGradGradGradGrad
 Berny optimization.
 Using GEDIIS/GDIIS optimizer.
 FormGI is forming the generalized inverse of G from B-inverse, IUseBI=4.
 Internal  Forces:  Max     0.000486551 RMS     0.000176729
 Search for a local minimum.
 Step number   4 out of a maximum of   49
 All quantities printed in internal units (Hartrees-Bohrs-Radians)
 RMS Force = .17673D-03 SwitMx=.10000D-02 MixMth= 2
 Mixed Optimization -- En-DIIS/RFO-DIIS
 Swapping is turned off.
 Update second derivatives using D2CorX and points    1    2    3    4
 DE= -2.02D-05 DEPred=-1.78D-05 R= 1.14D+00
 TightC=F SS=  1.41D+00  RLast= 2.28D-02 DXNew= 1.1966D+00 6.8491D-02
 Trust test= 1.14D+00 RLast= 2.28D-02 DXMaxT set to 7.12D-01
 ITU=  1  1  1  0
     Eigenvalues ---    0.00267   0.01459   0.03643   0.08874   0.09149
     Eigenvalues ---    0.09438   0.09773   0.12888   0.15485   0.16087
     Eigenvalues ---    0.16648   0.20272   0.22242   0.24962   0.26082
     Eigenvalues ---    0.39978   0.45219   0.46374   0.46424   0.55041
     Eigenvalues ---    0.57663   0.58310   1.05546   1.06114
 En-DIIS/RFO-DIIS/Sim-DIIS IScMMF=       -3 using points:     4    3
 RFO step:  Lambda=-1.62004013D-05.
 NNeg= 0 NGDIIS= 2 SimSw=  2.50D-01 Rises=F DC= -2.02D-05 SmlDif=  1.00D-05
 NRisDI= 0 DoIntr=F SqrtH=F CThrHd= 10.0 CDAdj=  3.0
 RMS Error=  0.4599594928D-02 NUsed= 2 OKEnD=T EnDIS=F
 InvSVX:  RCond= 1.30D-04 Info=           0 Equed=N FErr=  5.92D-15 BErr=  8.00D-17
 DidBck=F Rises=F RFO-DIIS coefs:    2.00879   -1.00879
 Iteration  1 RMS(Cart)=  0.00483225 RMS(Int)=  0.00003331
 Iteration  2 RMS(Cart)=  0.00002897 RMS(Int)=  0.00000832
 Iteration  3 RMS(Cart)=  0.00000000 RMS(Int)=  0.00000832
 ITry= 1 IFail=0 DXMaxC= 1.76D-02 DCOld= 1.00D+10 DXMaxT= 7.12D-01 DXLimC= 3.00D+00 Rises=F
 Variable       Old X    -DE/DX   Delta X   Delta X   Delta X     New X
                                 (Linear)    (Quad)   (Total)
    R1        3.50864  -0.00005   0.00196  -0.00176   0.00020   3.50884
    R2        2.50307   0.00018   0.00047  -0.00011   0.00036   2.50343
    R3        2.50503   0.00012  -0.00009   0.00011   0.00001   2.50504
    R4        2.49806   0.00049   0.00135  -0.00015   0.00120   2.49926
    R5        2.69912   0.00031   0.00064   0.00001   0.00065   2.69977
    R6        2.69937   0.00012   0.00029  -0.00005   0.00024   2.69962
    R7        3.08447   0.00020   0.00127  -0.00009   0.00118   3.08565
    R8        1.90460   0.00005   0.00012   0.00009   0.00020   1.90481
    R9        1.90458   0.00008   0.00015   0.00012   0.00028   1.90485
    A1        1.92325  -0.00022   0.00368  -0.00272   0.00096   1.92421
    A2        1.91914   0.00001   0.00274  -0.00104   0.00169   1.92082
    A3        1.90080  -0.00013   0.00089  -0.00258  -0.00169   1.89911
    A4        1.90389   0.00022  -0.00285   0.00336   0.00051   1.90439
    A5        1.90850   0.00009  -0.00236   0.00142  -0.00094   1.90756
    A6        1.90817   0.00003  -0.00215   0.00160  -0.00055   1.90761
    A7        1.84831  -0.00023  -0.00164  -0.00152  -0.00316   1.84515
    A8        1.84226   0.00000   0.00244  -0.00217   0.00027   1.84253
    A9        1.75415  -0.00029   0.00370  -0.00356   0.00015   1.75430
   A10        2.16505   0.00007  -0.00025   0.00123   0.00097   2.16602
   A11        1.89888   0.00029  -0.00011   0.00257   0.00247   1.90135
   A12        1.90902   0.00003  -0.00297   0.00188  -0.00109   1.90793
   A13        1.97416  -0.00002  -0.00017  -0.00106  -0.00124   1.97291
   A14        1.97925  -0.00021  -0.00315  -0.00094  -0.00412   1.97514
   A15        2.01740   0.00003  -0.00246  -0.00007  -0.00256   2.01483
    D1        0.92034  -0.00002  -0.00349   0.00267  -0.00083   0.91951
    D2       -3.03939  -0.00008  -0.00327   0.00177  -0.00151  -3.04090
    D3       -1.05500  -0.00015  -0.00429   0.00174  -0.00255  -1.05754
    D4        3.01960   0.00012  -0.00295   0.00444   0.00149   3.02109
    D5       -0.94013   0.00006  -0.00273   0.00354   0.00081  -0.93932
    D6        1.04427  -0.00001  -0.00375   0.00352  -0.00023   1.04404
    D7       -1.17307   0.00008  -0.00339   0.00418   0.00079  -1.17228
    D8        1.15038   0.00002  -0.00317   0.00329   0.00011   1.15050
    D9        3.13478  -0.00005  -0.00419   0.00326  -0.00093   3.13385
   D10        2.01525  -0.00009  -0.00394  -0.00252  -0.00646   2.00879
   D11       -1.92680  -0.00028  -0.01100  -0.00466  -0.01565  -1.94245
   D12        0.07891   0.00019  -0.00370  -0.00013  -0.00384   0.07507
   D13        2.42005  -0.00000  -0.01076  -0.00227  -0.01302   2.40702
   D14       -2.33496  -0.00021  -0.00056  -0.00588  -0.00645  -2.34141
   D15        0.00618  -0.00040  -0.00762  -0.00803  -0.01564  -0.00946
         Item               Value     Threshold  Converged?
 Maximum Force            0.000487     0.000450     NO 
 RMS     Force            0.000177     0.000300     YES
 Maximum Displacement     0.017631     0.001800     NO 
 RMS     Displacement     0.004831     0.001200     NO 
 Predicted change in Energy=-8.096628D-06
 Lowest energy point so far.  Saving SCF results.
 GradGradGradGradGradGradGradGradGradGradGradGradGradGradGradGradGradGrad

 Leave Link  103 at Fri Jan  2 11:46:39 2026, MaxMem=  6442450944 cpu:               2.1 elap:               0.1
 (Enter /applications/g16/g16/l202.exe)
                          Input orientation:                          
 ---------------------------------------------------------------------
 Center     Atomic      Atomic             Coordinates (Angstroms)
 Number     Number       Type             X           Y           Z
 ---------------------------------------------------------------------
      1          6           0        1.066285    0.577098   -0.186000
      2         16           0        2.633705   -0.379780    0.088373
      3          8           0        2.712839   -0.596976    1.498207
      4          8           0        2.619107   -1.426480   -0.883754
      5          9           0        1.042734    1.650676    0.589797
      6          9           0        0.980708    0.955568   -1.453550
      7          7           0        3.744159    0.738567   -0.338714
      8          1           0        4.329245    1.027046    0.429714
      9          1           0        4.230823    0.508848   -1.191042
     10          9           0        0.036190   -0.198084    0.109193
 ---------------------------------------------------------------------
                    Distance matrix (angstroms):
                    1          2          3          4          5
     1  C    0.000000
     2  S    1.856798   0.000000
     3  O    2.631757   1.428659   0.000000
     4  O    2.629153   1.428575   2.524005   0.000000
     5  F    1.324758   2.627806   2.943875   3.758350   0.000000
     6  F    1.325611   2.625467   3.758130   2.946722   2.159233
     7  N    2.687081   1.632854   2.494308   2.500048   2.998629
     8  H    3.350889   2.229469   2.528220   3.266429   3.348984
     9  H    3.321004   2.230998   3.280119   2.537233   3.826104
    10  F    1.322552   2.603945   3.041862   3.027600   2.159172
                    6          7          8          9         10
     6  F    0.000000
     7  N    2.987743   0.000000
     8  H    3.842458   1.007981   0.000000
     9  H    3.291157   1.008006   1.704425   0.000000
    10  F    2.159906   3.850581   4.475935   4.448068   0.000000
 Stoichiometry    CH2F3NO2S
 Framework group  C1[X(CH2F3NO2S)]
 Deg. of freedom    24
 Full point group                 C1      NOp   1
 RotChk:  IX=0 Diff= 1.50D-02
 Largest Abelian subgroup         C1      NOp   1
 Largest concise Abelian subgroup C1      NOp   1
                         Standard orientation:                         
 ---------------------------------------------------------------------
 Center     Atomic      Atomic             Coordinates (Angstroms)
 Number     Number       Type             X           Y           Z
 ---------------------------------------------------------------------
      1          6           0       -0.999618    0.042877    0.001572
      2         16           0        0.842322   -0.191544   -0.000387
      3          8           0        1.159136   -0.778570    1.262981
      4          8           0        1.151566   -0.788254   -1.260995
      5          9           0       -1.376147    0.706959    1.084256
      6          9           0       -1.372775    0.720473   -1.074932
      7          7           0        1.340580    1.363432   -0.002121
      8          1           0        1.836570    1.619687    0.837136
      9          1           0        1.781080    1.637745   -0.866290
     10          9           0       -1.580720   -1.145146   -0.006560
 ---------------------------------------------------------------------
 Rotational constants (GHZ):           2.6208165           1.5579793           1.5552133
 Leave Link  202 at Fri Jan  2 11:46:39 2026, MaxMem=  6442450944 cpu:               0.0 elap:               0.0
 (Enter /applications/g16/g16/l301.exe)
 Standard basis: 6-311+G(2d,2p) (5D, 7F)
 Ernie: Thresh=  0.10000D-02 Tol=  0.10000D-05 Strict=F.
 There are   258 symmetry adapted cartesian basis functions of A   symmetry.
 There are   242 symmetry adapted basis functions of A   symmetry.
   242 basis functions,   372 primitive gaussians,   258 cartesian basis functions
    37 alpha electrons       37 beta electrons
       nuclear repulsion energy       567.5518080632 Hartrees.
 IExCor= 4639 DFT=T Ex+Corr=wB97XD ExCW=0 ScaHFX=  1.000000
 ScaDFX=  1.000000  1.000000  1.000000  1.000000 ScalE2=  1.000000  1.000000
 IRadAn=      5 IRanWt=     -1 IRanGd=            0 ICorTp=0 IEmpDi=121
 HFx  wShort=  0.000000 wLong=  0.200000 cFull=  0.222036 cShort=  0.000000 cLong=  0.777964
 DFx  wShort=  0.000000 wLong=  0.200000 cFull=  0.000000 cShort=  0.000000 cLong=  1.000000
 NAtoms=   10 NActive=   10 NUniq=   10 SFac= 1.00D+00 NAtFMM=   60 NAOKFM=F Big=F
 Integral buffers will be    131072 words long.
 Raffenetti 2 integral format.
 Two-electron integral symmetry is turned on.
 R6Disp:  Grimme-D2 Dispersion energy=       -0.0034401341 Hartrees.
 Nuclear repulsion after empirical dispersion term =      567.5483679291 Hartrees.
 Leave Link  301 at Fri Jan  2 11:46:39 2026, MaxMem=  6442450944 cpu:               1.1 elap:               0.0
 (Enter /applications/g16/g16/l302.exe)
 NPDir=0 NMtPBC=     1 NCelOv=     1 NCel=       1 NClECP=     1 NCelD=      1
         NCelK=      1 NCelE2=     1 NClLst=     1 CellRange=     0.0.
 One-electron integrals computed using PRISM.
 One-electron integral symmetry used in STVInt
 NBasis=   242 RedAO= T EigKep=  2.18D-04  NBF=   242
 NBsUse=   242 1.00D-06 EigRej= -1.00D+00 NBFU=   242
 Precomputing XC quadrature grid using
 IXCGrd= 4 IRadAn=           5 IRanWt=          -1 IRanGd=           0 AccXCQ= 0.00D+00.
 Generated NRdTot=       0 NPtTot=           0 NUsed=           0 NTot=          32
 NSgBfM=   258   258   258   258   258 MxSgAt=    10 MxSgA2=    10.
 Leave Link  302 at Fri Jan  2 11:46:40 2026, MaxMem=  6442450944 cpu:               7.0 elap:               0.3
 (Enter /applications/g16/g16/l303.exe)
 DipDrv:  MaxL=1.
 Leave Link  303 at Fri Jan  2 11:46:40 2026, MaxMem=  6442450944 cpu:               1.2 elap:               0.1
 (Enter /applications/g16/g16/l401.exe)
 Initial guess from the checkpoint file:  "triflate_amide.chk"
 B after Tr=     0.000000   -0.000000    0.000000
         Rot=    0.999985   -0.005465    0.000658    0.000173 Ang=  -0.63 deg.
 Guess basis will be translated and rotated to current coordinates.
 JPrj=2 DoOrth=T DoCkMO=T.
 Leave Link  401 at Fri Jan  2 11:46:40 2026, MaxMem=  6442450944 cpu:               4.6 elap:               0.2
 (Enter /applications/g16/g16/l502.exe)
 Keep R1 ints in memory in canonical form, NReq=890653791.
 FoFCou: FMM=F IPFlag=           0 FMFlag=           0 FMFlg1=           0
         NFxFlg=           0 DoJE=F BraDBF=F KetDBF=F FulRan=T
         wScrn=  0.000000 ICntrl=       600 IOpCl=  0 I1Cent=           0 NGrid=           0
         NMat0=    1 NMatS0=  29403 NMatT0=    0 NMatD0=    1 NMtDS0=    0 NMtDT0=    0
 Symmetry not used in FoFCou.
 Two-electron integral symmetry not used.
 Closed shell SCF:
 Using DIIS extrapolation, IDIIS=  1040.
 NGot=  6442450944 LenX=  5577743467 LenY=  5577676462
 Requested convergence on RMS density matrix=1.00D-08 within 128 cycles.
 Requested convergence on MAX density matrix=1.00D-06.
 Requested convergence on             energy=1.00D-06.
 No special actions if energy rises.

 Cycle   1  Pass 1  IDiag  1:
 E= -942.218230042239    
 DIIS: error= 3.79D-04 at cycle   1 NSaved=   1.
 NSaved= 1 IEnMin= 1 EnMin= -942.218230042239     IErMin= 1 ErrMin= 3.79D-04
 ErrMax= 3.79D-04  0.00D+00 EMaxC= 1.00D-01 BMatC= 3.60D-05 BMatP= 3.60D-05
 IDIUse=3 WtCom= 9.96D-01 WtEn= 3.79D-03
 Coeff-Com:  0.100D+01
 Coeff-En:   0.100D+01
 Coeff:      0.100D+01
 Gap=     0.745 Goal=   None    Shift=    0.000
 RMSDP=3.94D-05 MaxDP=7.60D-04              OVMax= 1.87D-03

 Cycle   2  Pass 1  IDiag  1:
 E= -942.218272126780     Delta-E=       -0.000042084541 Rises=F Damp=F
 DIIS: error= 6.22D-05 at cycle   2 NSaved=   2.
 NSaved= 2 IEnMin= 2 EnMin= -942.218272126780     IErMin= 2 ErrMin= 6.22D-05
 ErrMax= 6.22D-05  0.00D+00 EMaxC= 1.00D-01 BMatC= 9.78D-07 BMatP= 3.60D-05
 IDIUse=1 WtCom= 1.00D+00 WtEn= 0.00D+00
 Coeff-Com: -0.123D+00 0.112D+01
 Coeff:     -0.123D+00 0.112D+01
 Gap=     0.470 Goal=   None    Shift=    0.000
 RMSDP=9.81D-06 MaxDP=2.93D-04 DE=-4.21D-05 OVMax= 6.10D-04

 Cycle   3  Pass 1  IDiag  1:
 E= -942.218274233506     Delta-E=       -0.000002106726 Rises=F Damp=F
 DIIS: error= 2.91D-05 at cycle   3 NSaved=   3.
 NSaved= 3 IEnMin= 3 EnMin= -942.218274233506     IErMin= 3 ErrMin= 2.91D-05
 ErrMax= 2.91D-05  0.00D+00 EMaxC= 1.00D-01 BMatC= 2.38D-07 BMatP= 9.78D-07
 IDIUse=1 WtCom= 1.00D+00 WtEn= 0.00D+00
 Coeff-Com: -0.553D-01 0.384D+00 0.671D+00
 Coeff:     -0.553D-01 0.384D+00 0.671D+00
 Gap=     0.470 Goal=   None    Shift=    0.000
 RMSDP=2.28D-06 MaxDP=6.21D-05 DE=-2.11D-06 OVMax= 1.33D-04

 Cycle   4  Pass 1  IDiag  1:
 E= -942.218274400694     Delta-E=       -0.000000167188 Rises=F Damp=F
 DIIS: error= 1.22D-05 at cycle   4 NSaved=   4.
 NSaved= 4 IEnMin= 4 EnMin= -942.218274400694     IErMin= 4 ErrMin= 1.22D-05
 ErrMax= 1.22D-05  0.00D+00 EMaxC= 1.00D-01 BMatC= 5.94D-08 BMatP= 2.38D-07
 IDIUse=1 WtCom= 1.00D+00 WtEn= 0.00D+00
 Coeff-Com:  0.582D-02-0.113D+00 0.304D+00 0.803D+00
 Coeff:      0.582D-02-0.113D+00 0.304D+00 0.803D+00
 Gap=     0.470 Goal=   None    Shift=    0.000
 RMSDP=1.86D-06 MaxDP=6.48D-05 DE=-1.67D-07 OVMax= 7.71D-05

 Cycle   5  Pass 1  IDiag  1:
 E= -942.218274454815     Delta-E=       -0.000000054121 Rises=F Damp=F
 DIIS: error= 3.60D-06 at cycle   5 NSaved=   5.
 NSaved= 5 IEnMin= 5 EnMin= -942.218274454815     IErMin= 5 ErrMin= 3.60D-06
 ErrMax= 3.60D-06  0.00D+00 EMaxC= 1.00D-01 BMatC= 4.21D-09 BMatP= 5.94D-08
 IDIUse=1 WtCom= 1.00D+00 WtEn= 0.00D+00
 Coeff-Com:  0.593D-02-0.692D-01 0.787D-01 0.322D+00 0.663D+00
 Coeff:      0.593D-02-0.692D-01 0.787D-01 0.322D+00 0.663D+00
 Gap=     0.470 Goal=   None    Shift=    0.000
 RMSDP=5.39D-07 MaxDP=1.77D-05 DE=-5.41D-08 OVMax= 2.56D-05

 Cycle   6  Pass 1  IDiag  1:
 E= -942.218274458373     Delta-E=       -0.000000003559 Rises=F Damp=F
 DIIS: error= 1.49D-06 at cycle   6 NSaved=   6.
 NSaved= 6 IEnMin= 6 EnMin= -942.218274458373     IErMin= 6 ErrMin= 1.49D-06
 ErrMax= 1.49D-06  0.00D+00 EMaxC= 1.00D-01 BMatC= 8.48D-10 BMatP= 4.21D-09
 IDIUse=1 WtCom= 1.00D+00 WtEn= 0.00D+00
 Coeff-Com:  0.193D-02-0.171D-01-0.287D-02 0.467D-01 0.324D+00 0.647D+00
 Coeff:      0.193D-02-0.171D-01-0.287D-02 0.467D-01 0.324D+00 0.647D+00
 Gap=     0.470 Goal=   None    Shift=    0.000
 RMSDP=2.68D-07 MaxDP=9.92D-06 DE=-3.56D-09 OVMax= 8.47D-06

 Cycle   7  Pass 1  IDiag  1:
 E= -942.218274459115     Delta-E=       -0.000000000742 Rises=F Damp=F
 DIIS: error= 4.90D-07 at cycle   7 NSaved=   7.
 NSaved= 7 IEnMin= 7 EnMin= -942.218274459115     IErMin= 7 ErrMin= 4.90D-07
 ErrMax= 4.90D-07  0.00D+00 EMaxC= 1.00D-01 BMatC= 6.95D-11 BMatP= 8.48D-10
 IDIUse=1 WtCom= 1.00D+00 WtEn= 0.00D+00
 Coeff-Com: -0.490D-03 0.721D-02-0.165D-01-0.456D-01-0.225D-01 0.211D+00
 Coeff-Com:  0.867D+00
 Coeff:     -0.490D-03 0.721D-02-0.165D-01-0.456D-01-0.225D-01 0.211D+00
 Coeff:      0.867D+00
 Gap=     0.470 Goal=   None    Shift=    0.000
 RMSDP=1.48D-07 MaxDP=5.62D-06 DE=-7.42D-10 OVMax= 5.48D-06

 Cycle   8  Pass 1  IDiag  1:
 E= -942.218274459206     Delta-E=       -0.000000000090 Rises=F Damp=F
 DIIS: error= 1.34D-07 at cycle   8 NSaved=   8.
 NSaved= 8 IEnMin= 8 EnMin= -942.218274459206     IErMin= 8 ErrMin= 1.34D-07
 ErrMax= 1.34D-07  0.00D+00 EMaxC= 1.00D-01 BMatC= 4.57D-12 BMatP= 6.95D-11
 IDIUse=1 WtCom= 1.00D+00 WtEn= 0.00D+00
 Coeff-Com: -0.281D-03 0.343D-02-0.528D-02-0.181D-01-0.297D-01 0.278D-01
 Coeff-Com:  0.283D+00 0.739D+00
 Coeff:     -0.281D-03 0.343D-02-0.528D-02-0.181D-01-0.297D-01 0.278D-01
 Coeff:      0.283D+00 0.739D+00
 Gap=     0.470 Goal=   None    Shift=    0.000
 RMSDP=3.03D-08 MaxDP=1.12D-06 DE=-9.05D-11 OVMax= 1.04D-06

 Cycle   9  Pass 1  IDiag  1:
 E= -942.218274459217     Delta-E=       -0.000000000011 Rises=F Damp=F
 DIIS: error= 3.29D-08 at cycle   9 NSaved=   9.
 NSaved= 9 IEnMin= 9 EnMin= -942.218274459217     IErMin= 9 ErrMin= 3.29D-08
 ErrMax= 3.29D-08  0.00D+00 EMaxC= 1.00D-01 BMatC= 6.04D-13 BMatP= 4.57D-12
 IDIUse=1 WtCom= 1.00D+00 WtEn= 0.00D+00
 Coeff-Com: -0.594D-04 0.612D-03-0.340D-03-0.241D-02-0.945D-02-0.100D-01
 Coeff-Com:  0.241D-01 0.266D+00 0.731D+00
 Coeff:     -0.594D-04 0.612D-03-0.340D-03-0.241D-02-0.945D-02-0.100D-01
 Coeff:      0.241D-01 0.266D+00 0.731D+00
 Gap=     0.470 Goal=   None    Shift=    0.000
 RMSDP=8.73D-09 MaxDP=2.99D-07 DE=-1.11D-11 OVMax= 3.17D-07

 SCF Done:  E(RwB97XD) =  -942.218274459     A.U. after    9 cycles
            NFock=  9  Conv=0.87D-08     -V/T= 2.0021
 KE= 9.402509771474D+02 PE=-3.369991029773D+03 EE= 9.199734102370D+02
 Leave Link  502 at Fri Jan  2 11:46:56 2026, MaxMem=  6442450944 cpu:             288.3 elap:              16.4
 (Enter /applications/g16/g16/l701.exe)
 ... and contract with generalized density number  0.
 Compute integral first derivatives.
 R6Disp: Adding Grimme-D2 dispersion energy 1st derivatives to the gradient.
 Leave Link  701 at Fri Jan  2 11:46:57 2026, MaxMem=  6442450944 cpu:               4.9 elap:               0.2
 (Enter /applications/g16/g16/l702.exe)
 L702 exits ... SP integral derivatives will be done elsewhere.
 Leave Link  702 at Fri Jan  2 11:46:57 2026, MaxMem=  6442450944 cpu:               0.8 elap:               0.0
 (Enter /applications/g16/g16/l703.exe)
 Integral derivatives from FoFJK, PRISM(SPDF).
 Compute integral first derivatives, UseDBF=F ICtDFT=           0.
 Calling FoFJK, ICntrl=      2127 FMM=F ISym2X=0 I1Cent= 0 IOpClX= 0 NMat=1 NMatS=1 NMatT=0.
 FoFJK:  IHMeth= 1 ICntrl=    2127 DoSepK=T KAlg= 0 I1Cent=           0 FoldK=F
 IRaf=         1 NMat=       1 IRICut=       1 DoRegI=T DoRafI=F ISym2E= 0 IDoP0=0 IntGTp=1.
 FoFCou: FMM=F IPFlag=           0 FMFlag=      100000 FMFlg1=         800
         NFxFlg=           0 DoJE=F BraDBF=F KetDBF=F FulRan=T
         wScrn=  0.000000 ICntrl=      2527 IOpCl=  0 I1Cent=           0 NGrid=           0
         NMat0=    1 NMatS0=      1 NMatT0=    0 NMatD0=    1 NMtDS0=    0 NMtDT0=    0
 Symmetry not used in FoFCou.
 Leave Link  703 at Fri Jan  2 11:47:07 2026, MaxMem=  6442450944 cpu:             229.6 elap:               9.7
 (Enter /applications/g16/g16/l716.exe)
 Dipole        = 5.10392853D-01 1.33507195D+00-1.60180065D-02
 ***** Axes restored to original set *****
 -------------------------------------------------------------------
 Center     Atomic                   Forces (Hartrees/Bohr)
 Number     Number              X              Y              Z
 -------------------------------------------------------------------
      1        6          -0.000166189    0.000298859   -0.000202584
      2       16          -0.000211323   -0.000109723    0.000366891
      3        8           0.000124824   -0.000096466   -0.000153618
      4        8           0.000001072    0.000103338   -0.000012957
      5        9           0.000270065   -0.000086687    0.000061130
      6        9           0.000107362   -0.000093122    0.000036203
      7        7          -0.000250352    0.000243862   -0.000306194
      8        1          -0.000023876    0.000071986    0.000107377
      9        1           0.000221480   -0.000165908    0.000067350
     10        9          -0.000073063   -0.000166139    0.000036401
 -------------------------------------------------------------------
 Cartesian Forces:  Max     0.000366891 RMS     0.000169595
 Leave Link  716 at Fri Jan  2 11:47:07 2026, MaxMem=  6442450944 cpu:               0.8 elap:               0.0
 (Enter /applications/g16/g16/l103.exe)

 GradGradGradGradGradGradGradGradGradGradGradGradGradGradGradGradGradGrad
 Berny optimization.
 Using GEDIIS/GDIIS optimizer.
 FormGI is forming the generalized inverse of G from B-inverse, IUseBI=4.
 Internal  Forces:  Max     0.000459021 RMS     0.000137279
 Search for a local minimum.
 Step number   5 out of a maximum of   49
 All quantities printed in internal units (Hartrees-Bohrs-Radians)
 RMS Force = .13728D-03 SwitMx=.10000D-02 MixMth= 2
 Mixed Optimization -- En-DIIS/RFO-DIIS
 Swapping is turned off.
 Update second derivatives using D2CorX and points    1    2    3    4    5
 DE= -1.12D-05 DEPred=-8.10D-06 R= 1.38D+00
 TightC=F SS=  1.41D+00  RLast= 2.87D-02 DXNew= 1.1966D+00 8.6227D-02
 Trust test= 1.38D+00 RLast= 2.87D-02 DXMaxT set to 7.12D-01
 ITU=  1  1  1  1  0
     Eigenvalues ---    0.00259   0.00642   0.03694   0.08882   0.09339
     Eigenvalues ---    0.09539   0.09769   0.15178   0.16014   0.16383
     Eigenvalues ---    0.17225   0.20285   0.22581   0.24946   0.26354
     Eigenvalues ---    0.44129   0.45373   0.46375   0.47473   0.53846
     Eigenvalues ---    0.57970   0.58263   1.06068   1.08179
 En-DIIS/RFO-DIIS/Sim-DIIS IScMMF=       -3 using points:     5    4    3
 RFO step:  Lambda=-1.41990015D-05.
 NNeg= 0 NGDIIS= 3 SimSw=  2.50D-01 Rises=F DC= -1.12D-05 SmlDif=  1.00D-05
 NRisDI= 0 DoIntr=F SqrtH=F CThrHd= 10.0 CDAdj=  3.0
 RMS Error=  0.7746252073D-02 NUsed= 3 OKEnD=T EnDIS=F
 InvSVX:  RCond= 5.01D-06 Info=           0 Equed=N FErr=  2.87D-13 BErr=  7.48D-17
 DidBck=F Rises=F RFO-DIIS coefs:    2.31148   -1.12743   -0.18405
 Iteration  1 RMS(Cart)=  0.00709919 RMS(Int)=  0.00006390
 Iteration  2 RMS(Cart)=  0.00005582 RMS(Int)=  0.00001802
 Iteration  3 RMS(Cart)=  0.00000000 RMS(Int)=  0.00001802
 ITry= 1 IFail=0 DXMaxC= 2.05D-02 DCOld= 1.00D+10 DXMaxT= 7.12D-01 DXLimC= 3.00D+00 Rises=F
 Variable       Old X    -DE/DX   Delta X   Delta X   Delta X     New X
                                 (Linear)    (Quad)   (Total)
    R1        3.50884  -0.00013   0.00062  -0.00080  -0.00018   3.50866
    R2        2.50343  -0.00004   0.00056  -0.00041   0.00015   2.50358
    R3        2.50504  -0.00007   0.00000  -0.00034  -0.00034   2.50470
    R4        2.49926   0.00016   0.00182  -0.00049   0.00133   2.50059
    R5        2.69977  -0.00013   0.00097  -0.00047   0.00050   2.70027
    R6        2.69962  -0.00007   0.00037  -0.00020   0.00017   2.69979
    R7        3.08565   0.00010   0.00177  -0.00017   0.00161   3.08726
    R8        1.90481   0.00009   0.00029   0.00017   0.00046   1.90527
    R9        1.90485   0.00009   0.00039   0.00012   0.00051   1.90537
    A1        1.92421  -0.00046   0.00193  -0.00229  -0.00036   1.92385
    A2        1.92082  -0.00013   0.00271  -0.00109   0.00162   1.92244
    A3        1.89911  -0.00003  -0.00205   0.00071  -0.00134   1.89777
    A4        1.90439   0.00026   0.00014   0.00012   0.00026   1.90465
    A5        1.90756   0.00025  -0.00166   0.00160  -0.00006   1.90750
    A6        1.90761   0.00011  -0.00112   0.00099  -0.00013   1.90749
    A7        1.84515   0.00018  -0.00445   0.00318  -0.00126   1.84389
    A8        1.84253   0.00009   0.00080   0.00092   0.00173   1.84426
    A9        1.75430  -0.00033   0.00087  -0.00108  -0.00021   1.75409
   A10        2.16602  -0.00006   0.00123  -0.00070   0.00053   2.16655
   A11        1.90135   0.00005   0.00321  -0.00159   0.00163   1.90298
   A12        1.90793   0.00002  -0.00197  -0.00051  -0.00248   1.90544
   A13        1.97291  -0.00007  -0.00166  -0.00040  -0.00211   1.97080
   A14        1.97514  -0.00003  -0.00597   0.00113  -0.00489   1.97025
   A15        2.01483  -0.00000  -0.00381   0.00015  -0.00374   2.01109
    D1        0.91951  -0.00001  -0.00172   0.00653   0.00481   0.92431
    D2       -3.04090   0.00008  -0.00257   0.00833   0.00575  -3.03515
    D3       -1.05754   0.00001  -0.00412   0.00765   0.00353  -1.05401
    D4        3.02109  -0.00006   0.00142   0.00452   0.00594   3.02703
    D5       -0.93932   0.00003   0.00057   0.00631   0.00688  -0.93243
    D6        1.04404  -0.00004  -0.00098   0.00564   0.00466   1.04870
    D7       -1.17228  -0.00002   0.00042   0.00551   0.00593  -1.16636
    D8        1.15050   0.00008  -0.00043   0.00730   0.00687   1.15737
    D9        3.13385  -0.00000  -0.00198   0.00663   0.00465   3.13850
   D10        2.00879  -0.00002  -0.00919  -0.00102  -0.01023   1.99855
   D11       -1.94245  -0.00012  -0.02253  -0.00008  -0.02259  -1.96504
   D12        0.07507  -0.00009  -0.00571  -0.00355  -0.00928   0.06579
   D13        2.40702  -0.00019  -0.01904  -0.00261  -0.02164   2.38538
   D14       -2.34141  -0.00006  -0.00856  -0.00065  -0.00923  -2.35065
   D15       -0.00946  -0.00016  -0.02190   0.00029  -0.02159  -0.03105
         Item               Value     Threshold  Converged?
 Maximum Force            0.000459     0.000450     NO 
 RMS     Force            0.000137     0.000300     YES
 Maximum Displacement     0.020537     0.001800     NO 
 RMS     Displacement     0.007103     0.001200     NO 
 Predicted change in Energy=-7.041144D-06
 Lowest energy point so far.  Saving SCF results.
 GradGradGradGradGradGradGradGradGradGradGradGradGradGradGradGradGradGrad

 Leave Link  103 at Fri Jan  2 11:47:07 2026, MaxMem=  6442450944 cpu:               2.6 elap:               0.1
 (Enter /applications/g16/g16/l202.exe)
                          Input orientation:                          
 ---------------------------------------------------------------------
 Center     Atomic      Atomic             Coordinates (Angstroms)
 Number     Number       Type             X           Y           Z
 ---------------------------------------------------------------------
      1          6           0        1.065701    0.577818   -0.185568
      2         16           0        2.633399   -0.379362    0.085488
      3          8           0        2.711710   -0.599475    1.495182
      4          8           0        2.621389   -1.423559   -0.889495
      5          9           0        1.045355    1.652414    0.589040
      6          9           0        0.974024    0.954292   -1.453096
      7          7           0        3.743634    0.740542   -0.341349
      8          1           0        4.322477    1.033590    0.430388
      9          1           0        4.241372    0.497980   -1.183989
     10          9           0        0.036733   -0.197758    0.115624
 ---------------------------------------------------------------------
                    Distance matrix (angstroms):
                    1          2          3          4          5
     1  C    0.000000
     2  S    1.856702   0.000000
     3  O    2.630644   1.428923   0.000000
     4  O    2.630816   1.428665   2.524670   0.000000
     5  F    1.324835   2.627463   2.944289   3.759196   0.000000
     6  F    1.325430   2.626671   3.758469   2.947140   2.159347
     7  N    2.687392   1.633706   2.496669   2.498646   2.996305
     8  H    3.345702   2.228984   2.528885   3.267013   3.338808
     9  H    3.329881   2.228649   3.274482   2.530492   3.832867
    10  F    1.323257   2.603183   3.036455   3.032045   2.159763
                    6          7          8          9         10
     6  F    0.000000
     7  N    2.992058   0.000000
     8  H    3.842647   1.008223   0.000000
     9  H    3.310016   1.008277   1.702841   0.000000
    10  F    2.160235   3.851019   4.470223   4.455562   0.000000
 Stoichiometry    CH2F3NO2S
 Framework group  C1[X(CH2F3NO2S)]
 Deg. of freedom    24
 Full point group                 C1      NOp   1
 RotChk:  IX=0 Diff= 8.34D-03
 Largest Abelian subgroup         C1      NOp   1
 Largest concise Abelian subgroup C1      NOp   1
                         Standard orientation:                         
 ---------------------------------------------------------------------
 Center     Atomic      Atomic             Coordinates (Angstroms)
 Number     Number       Type             X           Y           Z
 ---------------------------------------------------------------------
      1          6           0       -0.999709    0.043524    0.000742
      2         16           0        0.842039   -0.191640   -0.001179
      3          8           0        1.155678   -0.788413    1.258708
      4          8           0        1.154840   -0.777831   -1.265940
      5          9           0       -1.375940    0.704803    1.085338
      6          9           0       -1.374328    0.722860   -1.073933
      7          7           0        1.340870    1.364024    0.007277
      8          1           0        1.827864    1.615588    0.853484
      9          1           0        1.800075    1.633237   -0.849038
     10          9           0       -1.580015   -1.145656   -0.009528
 ---------------------------------------------------------------------
 Rotational constants (GHZ):           2.6202344           1.5576308           1.5548394
 Leave Link  202 at Fri Jan  2 11:47:07 2026, MaxMem=  6442450944 cpu:               0.1 elap:               0.0
 (Enter /applications/g16/g16/l301.exe)
 Standard basis: 6-311+G(2d,2p) (5D, 7F)
 Ernie: Thresh=  0.10000D-02 Tol=  0.10000D-05 Strict=F.
 There are   258 symmetry adapted cartesian basis functions of A   symmetry.
 There are   242 symmetry adapted basis functions of A   symmetry.
   242 basis functions,   372 primitive gaussians,   258 cartesian basis functions
    37 alpha electrons       37 beta electrons
       nuclear repulsion energy       567.4812849535 Hartrees.
 IExCor= 4639 DFT=T Ex+Corr=wB97XD ExCW=0 ScaHFX=  1.000000
 ScaDFX=  1.000000  1.000000  1.000000  1.000000 ScalE2=  1.000000  1.000000
 IRadAn=      5 IRanWt=     -1 IRanGd=            0 ICorTp=0 IEmpDi=121
 HFx  wShort=  0.000000 wLong=  0.200000 cFull=  0.222036 cShort=  0.000000 cLong=  0.777964
 DFx  wShort=  0.000000 wLong=  0.200000 cFull=  0.000000 cShort=  0.000000 cLong=  1.000000
 NAtoms=   10 NActive=   10 NUniq=   10 SFac= 1.00D+00 NAtFMM=   60 NAOKFM=F Big=F
 Integral buffers will be    131072 words long.
 Raffenetti 2 integral format.
 Two-electron integral symmetry is turned on.
 R6Disp:  Grimme-D2 Dispersion energy=       -0.0034377344 Hartrees.
 Nuclear repulsion after empirical dispersion term =      567.4778472191 Hartrees.
 Leave Link  301 at Fri Jan  2 11:47:07 2026, MaxMem=  6442450944 cpu:               1.2 elap:               0.1
 (Enter /applications/g16/g16/l302.exe)
 NPDir=0 NMtPBC=     1 NCelOv=     1 NCel=       1 NClECP=     1 NCelD=      1
         NCelK=      1 NCelE2=     1 NClLst=     1 CellRange=     0.0.
 One-electron integrals computed using PRISM.
 One-electron integral symmetry used in STVInt
 NBasis=   242 RedAO= T EigKep=  2.18D-04  NBF=   242
 NBsUse=   242 1.00D-06 EigRej= -1.00D+00 NBFU=   242
 Precomputing XC quadrature grid using
 IXCGrd= 4 IRadAn=           5 IRanWt=          -1 IRanGd=           0 AccXCQ= 0.00D+00.
 Generated NRdTot=       0 NPtTot=           0 NUsed=           0 NTot=          32
 NSgBfM=   258   258   258   258   258 MxSgAt=    10 MxSgA2=    10.
 Leave Link  302 at Fri Jan  2 11:47:08 2026, MaxMem=  6442450944 cpu:               7.1 elap:               0.3
 (Enter /applications/g16/g16/l303.exe)
 DipDrv:  MaxL=1.
 Leave Link  303 at Fri Jan  2 11:47:08 2026, MaxMem=  6442450944 cpu:               1.1 elap:               0.1
 (Enter /applications/g16/g16/l401.exe)
 Initial guess from the checkpoint file:  "triflate_amide.chk"
 B after Tr=    -0.000000   -0.000000    0.000000
         Rot=    0.999997   -0.002544    0.000460    0.000035 Ang=  -0.30 deg.
 Guess basis will be translated and rotated to current coordinates.
 JPrj=2 DoOrth=T DoCkMO=T.
 Generating alternative initial guess.
 ExpMin= 4.05D-02 ExpMax= 9.34D+04 ExpMxC= 3.17D+03 IAcc=2 IRadAn=         4 AccDes= 0.00D+00
 Harris functional with IExCor= 4639 and IRadAn=       4 diagonalized for initial guess.
 HarFok:  IExCor= 4639 AccDes= 0.00D+00 IRadAn=         4 IDoV= 1 UseB2=F ITyADJ=14
 ICtDFT=  3500011 ScaDFX=  1.000000  1.000000  1.000000  1.000000
 FoFCou: FMM=F IPFlag=           0 FMFlag=      100000 FMFlg1=           0
         NFxFlg=           0 DoJE=T BraDBF=F KetDBF=T FulRan=T
         wScrn=  0.000000 ICntrl=       500 IOpCl=  0 I1Cent=   200000004 NGrid=           0
         NMat0=    1 NMatS0=      1 NMatT0=    0 NMatD0=    1 NMtDS0=    0 NMtDT0=    0
 Petite list used in FoFCou.
 Harris En= -917.351271254262    
 Leave Link  401 at Fri Jan  2 11:47:08 2026, MaxMem=  6442450944 cpu:              16.3 elap:               0.7
 (Enter /applications/g16/g16/l502.exe)
 Keep R1 ints in memory in canonical form, NReq=890653791.
 FoFCou: FMM=F IPFlag=           0 FMFlag=           0 FMFlg1=           0
         NFxFlg=           0 DoJE=F BraDBF=F KetDBF=F FulRan=T
         wScrn=  0.000000 ICntrl=       600 IOpCl=  0 I1Cent=           0 NGrid=           0
         NMat0=    1 NMatS0=  29403 NMatT0=    0 NMatD0=    1 NMtDS0=    0 NMtDT0=    0
 Symmetry not used in FoFCou.
 Two-electron integral symmetry not used.
 Closed shell SCF:
 Using DIIS extrapolation, IDIIS=  1040.
 NGot=  6442450944 LenX=  5577743467 LenY=  5577676462
 Requested convergence on RMS density matrix=1.00D-08 within 128 cycles.
 Requested convergence on MAX density matrix=1.00D-06.
 Requested convergence on             energy=1.00D-06.
 No special actions if energy rises.

 Cycle   1  Pass 1  IDiag  1:
 E= -942.218189557026    
 DIIS: error= 4.82D-04 at cycle   1 NSaved=   1.
 NSaved= 1 IEnMin= 1 EnMin= -942.218189557026     IErMin= 1 ErrMin= 4.82D-04
 ErrMax= 4.82D-04  0.00D+00 EMaxC= 1.00D-01 BMatC= 7.48D-05 BMatP= 7.48D-05
 IDIUse=3 WtCom= 9.95D-01 WtEn= 4.82D-03
 Coeff-Com:  0.100D+01
 Coeff-En:   0.100D+01
 Coeff:      0.100D+01
 Gap=     0.745 Goal=   None    Shift=    0.000
 RMSDP=5.04D-05 MaxDP=1.08D-03              OVMax= 2.58D-03

 Cycle   2  Pass 1  IDiag  1:
 E= -942.218277847555     Delta-E=       -0.000088290529 Rises=F Damp=F
 DIIS: error= 8.90D-05 at cycle   2 NSaved=   2.
 NSaved= 2 IEnMin= 2 EnMin= -942.218277847555     IErMin= 2 ErrMin= 8.90D-05
 ErrMax= 8.90D-05  0.00D+00 EMaxC= 1.00D-01 BMatC= 1.99D-06 BMatP= 7.48D-05
 IDIUse=1 WtCom= 1.00D+00 WtEn= 0.00D+00
 Coeff-Com: -0.131D+00 0.113D+01
 Coeff:     -0.131D+00 0.113D+01
 Gap=     0.470 Goal=   None    Shift=    0.000
 RMSDP=1.36D-05 MaxDP=4.20D-04 DE=-8.83D-05 OVMax= 8.89D-04

 Cycle   3  Pass 1  IDiag  1:
 E= -942.218282246382     Delta-E=       -0.000004398827 Rises=F Damp=F
 DIIS: error= 2.24D-05 at cycle   3 NSaved=   3.
 NSaved= 3 IEnMin= 3 EnMin= -942.218282246382     IErMin= 3 ErrMin= 2.24D-05
 ErrMax= 2.24D-05  0.00D+00 EMaxC= 1.00D-01 BMatC= 3.08D-07 BMatP= 1.99D-06
 IDIUse=1 WtCom= 1.00D+00 WtEn= 0.00D+00
 Coeff-Com: -0.452D-01 0.293D+00 0.753D+00
 Coeff:     -0.452D-01 0.293D+00 0.753D+00
 Gap=     0.470 Goal=   None    Shift=    0.000
 RMSDP=3.37D-06 MaxDP=8.57D-05 DE=-4.40D-06 OVMax= 1.84D-04

 Cycle   4  Pass 1  IDiag  1:
 E= -942.218282490194     Delta-E=       -0.000000243812 Rises=F Damp=F
 DIIS: error= 1.60D-05 at cycle   4 NSaved=   4.
 NSaved= 4 IEnMin= 4 EnMin= -942.218282490194     IErMin= 4 ErrMin= 1.60D-05
 ErrMax= 1.60D-05  0.00D+00 EMaxC= 1.00D-01 BMatC= 1.19D-07 BMatP= 3.08D-07
 IDIUse=1 WtCom= 1.00D+00 WtEn= 0.00D+00
 Coeff-Com:  0.970D-02-0.134D+00 0.375D+00 0.749D+00
 Coeff:      0.970D-02-0.134D+00 0.375D+00 0.749D+00
 Gap=     0.470 Goal=   None    Shift=    0.000
 RMSDP=2.47D-06 MaxDP=8.28D-05 DE=-2.44D-07 OVMax= 1.06D-04

 Cycle   5  Pass 1  IDiag  1:
 E= -942.218282593554     Delta-E=       -0.000000103360 Rises=F Damp=F
 DIIS: error= 4.30D-06 at cycle   5 NSaved=   5.
 NSaved= 5 IEnMin= 5 EnMin= -942.218282593554     IErMin= 5 ErrMin= 4.30D-06
 ErrMax= 4.30D-06  0.00D+00 EMaxC= 1.00D-01 BMatC= 5.96D-09 BMatP= 1.19D-07
 IDIUse=1 WtCom= 1.00D+00 WtEn= 0.00D+00
 Coeff-Com:  0.594D-02-0.663D-01 0.114D+00 0.298D+00 0.649D+00
 Coeff:      0.594D-02-0.663D-01 0.114D+00 0.298D+00 0.649D+00
 Gap=     0.470 Goal=   None    Shift=    0.000
 RMSDP=6.61D-07 MaxDP=2.19D-05 DE=-1.03D-07 OVMax= 3.00D-05

 Cycle   6  Pass 1  IDiag  1:
 E= -942.218282598535     Delta-E=       -0.000000004981 Rises=F Damp=F
 DIIS: error= 1.74D-06 at cycle   6 NSaved=   6.
 NSaved= 6 IEnMin= 6 EnMin= -942.218282598535     IErMin= 6 ErrMin= 1.74D-06
 ErrMax= 1.74D-06  0.00D+00 EMaxC= 1.00D-01 BMatC= 1.27D-09 BMatP= 5.96D-09
 IDIUse=1 WtCom= 1.00D+00 WtEn= 0.00D+00
 Coeff-Com:  0.764D-03-0.408D-02-0.216D-01-0.817D-02 0.306D+00 0.727D+00
 Coeff:      0.764D-03-0.408D-02-0.216D-01-0.817D-02 0.306D+00 0.727D+00
 Gap=     0.470 Goal=   None    Shift=    0.000
 RMSDP=4.27D-07 MaxDP=1.64D-05 DE=-4.98D-09 OVMax= 1.31D-05

 Cycle   7  Pass 1  IDiag  1:
 E= -942.218282599842     Delta-E=       -0.000000001307 Rises=F Damp=F
 DIIS: error= 6.64D-07 at cycle   7 NSaved=   7.
 NSaved= 7 IEnMin= 7 EnMin= -942.218282599842     IErMin= 7 ErrMin= 6.64D-07
 ErrMax= 6.64D-07  0.00D+00 EMaxC= 1.00D-01 BMatC= 1.05D-10 BMatP= 1.27D-09
 IDIUse=1 WtCom= 1.00D+00 WtEn= 0.00D+00
 Coeff-Com: -0.562D-03 0.768D-02-0.238D-01-0.449D-01 0.652D-02 0.253D+00
 Coeff-Com:  0.802D+00
 Coeff:     -0.562D-03 0.768D-02-0.238D-01-0.449D-01 0.652D-02 0.253D+00
 Coeff:      0.802D+00
 Gap=     0.470 Goal=   None    Shift=    0.000
 RMSDP=1.62D-07 MaxDP=6.17D-06 DE=-1.31D-09 OVMax= 6.39D-06

 Cycle   8  Pass 1  IDiag  1:
 E= -942.218282599974     Delta-E=       -0.000000000131 Rises=F Damp=F
 DIIS: error= 1.15D-07 at cycle   8 NSaved=   8.
 NSaved= 8 IEnMin= 8 EnMin= -942.218282599974     IErMin= 8 ErrMin= 1.15D-07
 ErrMax= 1.15D-07  0.00D+00 EMaxC= 1.00D-01 BMatC= 1.43D-11 BMatP= 1.05D-10
 IDIUse=1 WtCom= 1.00D+00 WtEn= 0.00D+00
 Coeff-Com: -0.318D-03 0.383D-02-0.908D-02-0.197D-01-0.215D-01 0.574D-01
 Coeff-Com:  0.361D+00 0.629D+00
 Coeff:     -0.318D-03 0.383D-02-0.908D-02-0.197D-01-0.215D-01 0.574D-01
 Coeff:      0.361D+00 0.629D+00
 Gap=     0.470 Goal=   None    Shift=    0.000
 RMSDP=3.52D-08 MaxDP=1.32D-06 DE=-1.31D-10 OVMax= 1.17D-06

 Cycle   9  Pass 1  IDiag  1:
 E= -942.218282599979     Delta-E=       -0.000000000005 Rises=F Damp=F
 DIIS: error= 3.85D-08 at cycle   9 NSaved=   9.
 NSaved= 9 IEnMin= 9 EnMin= -942.218282599979     IErMin= 9 ErrMin= 3.85D-08
 ErrMax= 3.85D-08  0.00D+00 EMaxC= 1.00D-01 BMatC= 9.32D-13 BMatP= 1.43D-11
 IDIUse=1 WtCom= 1.00D+00 WtEn= 0.00D+00
 Coeff-Com: -0.184D-04 0.109D-03 0.602D-03 0.329D-03-0.749D-02-0.186D-01
 Coeff-Com: -0.114D-02 0.186D+00 0.841D+00
 Coeff:     -0.184D-04 0.109D-03 0.602D-03 0.329D-03-0.749D-02-0.186D-01
 Coeff:     -0.114D-02 0.186D+00 0.841D+00
 Gap=     0.470 Goal=   None    Shift=    0.000
 RMSDP=1.39D-08 MaxDP=5.23D-07 DE=-4.77D-12 OVMax= 4.77D-07

 Cycle  10  Pass 1  IDiag  1:
 E= -942.218282599971     Delta-E=        0.000000000008 Rises=F Damp=F
 DIIS: error= 2.52D-08 at cycle  10 NSaved=  10.
 NSaved=10 IEnMin= 9 EnMin= -942.218282599979     IErMin=10 ErrMin= 2.52D-08
 ErrMax= 2.52D-08  0.00D+00 EMaxC= 1.00D-01 BMatC= 1.93D-13 BMatP= 9.32D-13
 IDIUse=1 WtCom= 1.00D+00 WtEn= 0.00D+00
 Coeff-Com:  0.208D-04-0.306D-03 0.115D-02 0.201D-02-0.175D-02-0.143D-01
 Coeff-Com: -0.338D-01 0.291D-01 0.396D+00 0.621D+00
 Coeff:      0.208D-04-0.306D-03 0.115D-02 0.201D-02-0.175D-02-0.143D-01
 Coeff:     -0.338D-01 0.291D-01 0.396D+00 0.621D+00
 Gap=     0.470 Goal=   None    Shift=    0.000
 RMSDP=3.22D-09 MaxDP=9.02D-08 DE= 7.96D-12 OVMax= 1.29D-07

 SCF Done:  E(RwB97XD) =  -942.218282600     A.U. after   10 cycles
            NFock= 10  Conv=0.32D-08     -V/T= 2.0021
 KE= 9.402477561177D+02 PE=-3.369844054737D+03 EE= 9.199001688005D+02
 Leave Link  502 at Fri Jan  2 11:47:26 2026, MaxMem=  6442450944 cpu:             309.3 elap:              17.8
 (Enter /applications/g16/g16/l701.exe)
 ... and contract with generalized density number  0.
 Compute integral first derivatives.
 R6Disp: Adding Grimme-D2 dispersion energy 1st derivatives to the gradient.
 Leave Link  701 at Fri Jan  2 11:47:27 2026, MaxMem=  6442450944 cpu:               4.8 elap:               0.2
 (Enter /applications/g16/g16/l702.exe)
 L702 exits ... SP integral derivatives will be done elsewhere.
 Leave Link  702 at Fri Jan  2 11:47:27 2026, MaxMem=  6442450944 cpu:               0.8 elap:               0.0
 (Enter /applications/g16/g16/l703.exe)
 Integral derivatives from FoFJK, PRISM(SPDF).
 Compute integral first derivatives, UseDBF=F ICtDFT=           0.
 Calling FoFJK, ICntrl=      2127 FMM=F ISym2X=0 I1Cent= 0 IOpClX= 0 NMat=1 NMatS=1 NMatT=0.
 FoFJK:  IHMeth= 1 ICntrl=    2127 DoSepK=T KAlg= 0 I1Cent=           0 FoldK=F
 IRaf=         1 NMat=       1 IRICut=       1 DoRegI=T DoRafI=F ISym2E= 0 IDoP0=0 IntGTp=1.
 FoFCou: FMM=F IPFlag=           0 FMFlag=      100000 FMFlg1=         800
         NFxFlg=           0 DoJE=F BraDBF=F KetDBF=F FulRan=T
         wScrn=  0.000000 ICntrl=      2527 IOpCl=  0 I1Cent=           0 NGrid=           0
         NMat0=    1 NMatS0=      1 NMatT0=    0 NMatD0=    1 NMtDS0=    0 NMtDT0=    0
 Symmetry not used in FoFCou.
 Leave Link  703 at Fri Jan  2 11:47:37 2026, MaxMem=  6442450944 cpu:             229.4 elap:               9.6
 (Enter /applications/g16/g16/l716.exe)
 Dipole        = 5.14243970D-01 1.32877227D+00-7.41473010D-04
 ***** Axes restored to original set *****
 -------------------------------------------------------------------
 Center     Atomic                   Forces (Hartrees/Bohr)
 Number     Number              X              Y              Z
 -------------------------------------------------------------------
      1        6          -0.000625574    0.000039862   -0.000181770
      2       16           0.000063783   -0.000003251    0.000499852
      3        8           0.000056818   -0.000097006   -0.000468180
      4        8          -0.000121517    0.000082402    0.000143886
      5        9           0.000268351   -0.000158609    0.000000269
      6        9           0.000195580   -0.000147921    0.000181549
      7        7          -0.000099990    0.000048628   -0.000213290
      8        1          -0.000082554    0.000073992    0.000074843
      9        1           0.000097608    0.000009612    0.000041526
     10        9           0.000247496    0.000152292   -0.000078684
 -------------------------------------------------------------------
 Cartesian Forces:  Max     0.000625574 RMS     0.000209919
 Leave Link  716 at Fri Jan  2 11:47:37 2026, MaxMem=  6442450944 cpu:               0.8 elap:               0.0
 (Enter /applications/g16/g16/l103.exe)

 GradGradGradGradGradGradGradGradGradGradGradGradGradGradGradGradGradGrad
 Berny optimization.
 Using GEDIIS/GDIIS optimizer.
 FormGI is forming the generalized inverse of G from B-inverse, IUseBI=4.
 Internal  Forces:  Max     0.000448860 RMS     0.000176558
 Search for a local minimum.
 Step number   6 out of a maximum of   49
 All quantities printed in internal units (Hartrees-Bohrs-Radians)
 RMS Force = .17656D-03 SwitMx=.10000D-02 MixMth= 2
 Mixed Optimization -- En-DIIS/RFO-DIIS
 Swapping is turned off.
 Update second derivatives using D2CorX and points    1    2    3    4    5
                                                      6
 DE= -8.14D-06 DEPred=-7.04D-06 R= 1.16D+00
 TightC=F SS=  1.41D+00  RLast= 4.54D-02 DXNew= 1.1966D+00 1.3629D-01
 Trust test= 1.16D+00 RLast= 4.54D-02 DXMaxT set to 7.12D-01
 ITU=  1  1  1  1  1  0
     Eigenvalues ---    0.00253   0.00491   0.03904   0.08891   0.09348
     Eigenvalues ---    0.09735   0.09862   0.15420   0.16089   0.16521
     Eigenvalues ---    0.17481   0.20321   0.22701   0.25069   0.26668
     Eigenvalues ---    0.41414   0.45074   0.46377   0.46443   0.56596
     Eigenvalues ---    0.58084   0.60882   1.06055   1.10979
 En-DIIS/RFO-DIIS/Sim-DIIS IScMMF=       -3 using points:     6    5    4    3
 RFO step:  Lambda=-4.81830405D-06.
 NNeg= 0 NGDIIS= 4 SimSw=  2.50D-01 Rises=F DC= -8.14D-06 SmlDif=  1.00D-05
 NRisDI= 0 DoIntr=F SqrtH=F CThrHd= 10.0 CDAdj=  3.0
 RMS Error=  0.3720316626D-02 NUsed= 4 OKEnD=F EnDIS=F
 InvSVX:  RCond= 2.72D-06 Info=           0 Equed=N FErr=  2.54D-13 BErr=  8.86D-17
 DidBck=F Rises=F RFO-DIIS coefs:    1.38831   -0.22180   -0.16385   -0.00266
 Iteration  1 RMS(Cart)=  0.00337596 RMS(Int)=  0.00001577
 Iteration  2 RMS(Cart)=  0.00001342 RMS(Int)=  0.00000800
 Iteration  3 RMS(Cart)=  0.00000000 RMS(Int)=  0.00000800
 ITry= 1 IFail=0 DXMaxC= 9.12D-03 DCOld= 1.00D+10 DXMaxT= 7.12D-01 DXLimC= 3.00D+00 Rises=F
 Variable       Old X    -DE/DX   Delta X   Delta X   Delta X     New X
                                 (Linear)    (Quad)   (Total)
    R1        3.50866  -0.00012  -0.00003  -0.00017  -0.00021   3.50845
    R2        2.50358  -0.00013   0.00012  -0.00018  -0.00006   2.50352
    R3        2.50470  -0.00023  -0.00013  -0.00035  -0.00048   2.50422
    R4        2.50059  -0.00030   0.00072  -0.00059   0.00013   2.50072
    R5        2.70027  -0.00044   0.00030  -0.00040  -0.00010   2.70017
    R6        2.69979  -0.00016   0.00011  -0.00013  -0.00002   2.69976
    R7        3.08726   0.00006   0.00082   0.00004   0.00086   3.08812
    R8        1.90527   0.00003   0.00021  -0.00001   0.00020   1.90547
    R9        1.90537   0.00001   0.00025  -0.00006   0.00019   1.90556
    A1        1.92385  -0.00045   0.00003  -0.00115  -0.00112   1.92273
    A2        1.92244  -0.00028   0.00092  -0.00108  -0.00017   1.92227
    A3        1.89777   0.00011  -0.00080   0.00108   0.00028   1.89805
    A4        1.90465   0.00030   0.00018   0.00012   0.00029   1.90495
    A5        1.90750   0.00020  -0.00019   0.00062   0.00043   1.90794
    A6        1.90749   0.00013  -0.00015   0.00044   0.00030   1.90778
    A7        1.84389   0.00022  -0.00102   0.00095  -0.00007   1.84382
    A8        1.84426  -0.00000   0.00072  -0.00032   0.00041   1.84467
    A9        1.75409  -0.00043  -0.00005  -0.00097  -0.00102   1.75307
   A10        2.16655  -0.00014   0.00037  -0.00074  -0.00038   2.16617
   A11        1.90298   0.00008   0.00104   0.00013   0.00117   1.90415
   A12        1.90544   0.00018  -0.00115   0.00083  -0.00033   1.90512
   A13        1.97080  -0.00008  -0.00103   0.00002  -0.00103   1.96977
   A14        1.97025   0.00012  -0.00259   0.00128  -0.00134   1.96891
   A15        2.01109  -0.00001  -0.00189   0.00044  -0.00148   2.00961
    D1        0.92431   0.00006   0.00172   0.00080   0.00252   0.92683
    D2       -3.03515   0.00003   0.00197   0.00030   0.00228  -3.03287
    D3       -1.05401   0.00006   0.00093   0.00073   0.00166  -1.05235
    D4        3.02703  -0.00004   0.00255  -0.00049   0.00206   3.02909
    D5       -0.93243  -0.00007   0.00280  -0.00098   0.00182  -0.93061
    D6        1.04870  -0.00004   0.00176  -0.00056   0.00120   1.04990
    D7       -1.16636   0.00002   0.00242   0.00007   0.00249  -1.16386
    D8        1.15737  -0.00001   0.00268  -0.00043   0.00225   1.15962
    D9        3.13850   0.00002   0.00164  -0.00001   0.00163   3.14013
   D10        1.99855  -0.00000  -0.00506  -0.00117  -0.00624   1.99231
   D11       -1.96504   0.00002  -0.01141   0.00073  -0.01067  -1.97571
   D12        0.06579  -0.00009  -0.00425  -0.00184  -0.00610   0.05969
   D13        2.38538  -0.00006  -0.01060   0.00006  -0.01053   2.37485
   D14       -2.35065  -0.00013  -0.00466  -0.00167  -0.00634  -2.35699
   D15       -0.03105  -0.00011  -0.01101   0.00022  -0.01078  -0.04183
         Item               Value     Threshold  Converged?
 Maximum Force            0.000449     0.000450     YES
 RMS     Force            0.000177     0.000300     YES
 Maximum Displacement     0.009124     0.001800     NO 
 RMS     Displacement     0.003377     0.001200     NO 
 Predicted change in Energy=-2.393085D-06
 Lowest energy point so far.  Saving SCF results.
 GradGradGradGradGradGradGradGradGradGradGradGradGradGradGradGradGradGrad

 Leave Link  103 at Fri Jan  2 11:47:37 2026, MaxMem=  6442450944 cpu:               2.0 elap:               0.1
 (Enter /applications/g16/g16/l202.exe)
                          Input orientation:                          
 ---------------------------------------------------------------------
 Center     Atomic      Atomic             Coordinates (Angstroms)
 Number     Number       Type             X           Y           Z
 ---------------------------------------------------------------------
      1          6           0        1.065700    0.577833   -0.185275
      2         16           0        2.633254   -0.379761    0.084401
      3          8           0        2.711627   -0.601563    1.493774
      4          8           0        2.621392   -1.423137   -0.891445
      5          9           0        1.048264    1.652733    0.588927
      6          9           0        0.972889    0.953530   -1.452685
      7          7           0        3.742577    0.741520   -0.342933
      8          1           0        4.317649    1.038180    0.430382
      9          1           0        4.245921    0.493929   -1.180887
     10          9           0        0.036523   -0.196782    0.117964
 ---------------------------------------------------------------------
                    Distance matrix (angstroms):
                    1          2          3          4          5
     1  C    0.000000
     2  S    1.856593   0.000000
     3  O    2.630448   1.428870   0.000000
     4  O    2.631109   1.428653   2.524360   0.000000
     5  F    1.324803   2.626361   2.944041   3.758618   0.000000
     6  F    1.325176   2.626236   3.758077   2.946370   2.159339
     7  N    2.686507   1.634161   2.498044   2.498731   2.992992
     8  H    3.341575   2.228776   2.529598   3.268424   3.330419
     9  H    3.333480   2.228224   3.272304   2.529429   3.834069
    10  F    1.323325   2.603387   3.035273   3.033876   2.160123
                    6          7          8          9         10
     6  F    0.000000
     7  N    2.991266   0.000000
     8  H    3.839340   1.008331   0.000000
     9  H    3.316301   1.008377   1.702217   0.000000
    10  F    2.160310   3.850672   4.466630   4.459051   0.000000
 Stoichiometry    CH2F3NO2S
 Framework group  C1[X(CH2F3NO2S)]
 Deg. of freedom    24
 Full point group                 C1      NOp   1
 RotChk:  IX=0 Diff= 2.74D-03
 Largest Abelian subgroup         C1      NOp   1
 Largest concise Abelian subgroup C1      NOp   1
                         Standard orientation:                         
 ---------------------------------------------------------------------
 Center     Atomic      Atomic             Coordinates (Angstroms)
 Number     Number       Type             X           Y           Z
 ---------------------------------------------------------------------
      1          6           0       -0.999730    0.043374    0.000338
      2         16           0        0.841917   -0.191729   -0.000820
      3          8           0        1.155043   -0.787705    1.259511
      4          8           0        1.155681   -0.778987   -1.264833
      5          9           0       -1.374580    0.708066    1.083286
      6          9           0       -1.374001    0.719732   -1.076022
      7          7           0        1.339258    1.364899    0.005485
      8          1           0        1.820681    1.618867    0.854286
      9          1           0        1.806945    1.629329   -0.847843
     10          9           0       -1.580364   -1.145747   -0.006284
 ---------------------------------------------------------------------
 Rotational constants (GHZ):           2.6197548           1.5580073           1.5555146
 Leave Link  202 at Fri Jan  2 11:47:37 2026, MaxMem=  6442450944 cpu:               0.1 elap:               0.0
 (Enter /applications/g16/g16/l301.exe)
 Standard basis: 6-311+G(2d,2p) (5D, 7F)
 Ernie: Thresh=  0.10000D-02 Tol=  0.10000D-05 Strict=F.
 There are   258 symmetry adapted cartesian basis functions of A   symmetry.
 There are   242 symmetry adapted basis functions of A   symmetry.
   242 basis functions,   372 primitive gaussians,   258 cartesian basis functions
    37 alpha electrons       37 beta electrons
       nuclear repulsion energy       567.5094477451 Hartrees.
 IExCor= 4639 DFT=T Ex+Corr=wB97XD ExCW=0 ScaHFX=  1.000000
 ScaDFX=  1.000000  1.000000  1.000000  1.000000 ScalE2=  1.000000  1.000000
 IRadAn=      5 IRanWt=     -1 IRanGd=            0 ICorTp=0 IEmpDi=121
 HFx  wShort=  0.000000 wLong=  0.200000 cFull=  0.222036 cShort=  0.000000 cLong=  0.777964
 DFx  wShort=  0.000000 wLong=  0.200000 cFull=  0.000000 cShort=  0.000000 cLong=  1.000000
 NAtoms=   10 NActive=   10 NUniq=   10 SFac= 1.00D+00 NAtFMM=   60 NAOKFM=F Big=F
 Integral buffers will be    131072 words long.
 Raffenetti 2 integral format.
 Two-electron integral symmetry is turned on.
 R6Disp:  Grimme-D2 Dispersion energy=       -0.0034376241 Hartrees.
 Nuclear repulsion after empirical dispersion term =      567.5060101210 Hartrees.
 Leave Link  301 at Fri Jan  2 11:47:37 2026, MaxMem=  6442450944 cpu:               1.1 elap:               0.1
 (Enter /applications/g16/g16/l302.exe)
 NPDir=0 NMtPBC=     1 NCelOv=     1 NCel=       1 NClECP=     1 NCelD=      1
         NCelK=      1 NCelE2=     1 NClLst=     1 CellRange=     0.0.
 One-electron integrals computed using PRISM.
 One-electron integral symmetry used in STVInt
 NBasis=   242 RedAO= T EigKep=  2.18D-04  NBF=   242
 NBsUse=   242 1.00D-06 EigRej= -1.00D+00 NBFU=   242
 Precomputing XC quadrature grid using
 IXCGrd= 4 IRadAn=           5 IRanWt=          -1 IRanGd=           0 AccXCQ= 0.00D+00.
 Generated NRdTot=       0 NPtTot=           0 NUsed=           0 NTot=          32
 NSgBfM=   258   258   258   258   258 MxSgAt=    10 MxSgA2=    10.
 Leave Link  302 at Fri Jan  2 11:47:37 2026, MaxMem=  6442450944 cpu:               7.4 elap:               0.3
 (Enter /applications/g16/g16/l303.exe)
 DipDrv:  MaxL=1.
 Leave Link  303 at Fri Jan  2 11:47:37 2026, MaxMem=  6442450944 cpu:               1.1 elap:               0.0
 (Enter /applications/g16/g16/l401.exe)
 Initial guess from the checkpoint file:  "triflate_amide.chk"
 B after Tr=     0.000000    0.000000    0.000000
         Rot=    1.000000    0.000892    0.000104   -0.000014 Ang=   0.10 deg.
 Guess basis will be translated and rotated to current coordinates.
 JPrj=2 DoOrth=T DoCkMO=T.
 Leave Link  401 at Fri Jan  2 11:47:37 2026, MaxMem=  6442450944 cpu:               4.7 elap:               0.2
 (Enter /applications/g16/g16/l502.exe)
 Keep R1 ints in memory in canonical form, NReq=890653791.
 FoFCou: FMM=F IPFlag=           0 FMFlag=           0 FMFlg1=           0
         NFxFlg=           0 DoJE=F BraDBF=F KetDBF=F FulRan=T
         wScrn=  0.000000 ICntrl=       600 IOpCl=  0 I1Cent=           0 NGrid=           0
         NMat0=    1 NMatS0=  29403 NMatT0=    0 NMatD0=    1 NMtDS0=    0 NMtDT0=    0
 Symmetry not used in FoFCou.
 Two-electron integral symmetry not used.
 Closed shell SCF:
 Using DIIS extrapolation, IDIIS=  1040.
 NGot=  6442450944 LenX=  5577743467 LenY=  5577676462
 Requested convergence on RMS density matrix=1.00D-08 within 128 cycles.
 Requested convergence on MAX density matrix=1.00D-06.
 Requested convergence on             energy=1.00D-06.
 No special actions if energy rises.

 Cycle   1  Pass 1  IDiag  1:
 E= -942.218266034587    
 DIIS: error= 2.64D-04 at cycle   1 NSaved=   1.
 NSaved= 1 IEnMin= 1 EnMin= -942.218266034587     IErMin= 1 ErrMin= 2.64D-04
 ErrMax= 2.64D-04  0.00D+00 EMaxC= 1.00D-01 BMatC= 1.60D-05 BMatP= 1.60D-05
 IDIUse=3 WtCom= 9.97D-01 WtEn= 2.64D-03
 Coeff-Com:  0.100D+01
 Coeff-En:   0.100D+01
 Coeff:      0.100D+01
 Gap=     0.745 Goal=   None    Shift=    0.000
 RMSDP=2.35D-05 MaxDP=5.69D-04              OVMax= 1.27D-03

 Cycle   2  Pass 1  IDiag  1:
 E= -942.218284746535     Delta-E=       -0.000018711948 Rises=F Damp=F
 DIIS: error= 4.18D-05 at cycle   2 NSaved=   2.
 NSaved= 2 IEnMin= 2 EnMin= -942.218284746535     IErMin= 2 ErrMin= 4.18D-05
 ErrMax= 4.18D-05  0.00D+00 EMaxC= 1.00D-01 BMatC= 4.55D-07 BMatP= 1.60D-05
 IDIUse=1 WtCom= 1.00D+00 WtEn= 0.00D+00
 Coeff-Com: -0.123D+00 0.112D+01
 Coeff:     -0.123D+00 0.112D+01
 Gap=     0.470 Goal=   None    Shift=    0.000
 RMSDP=6.67D-06 MaxDP=1.89D-04 DE=-1.87D-05 OVMax= 4.28D-04

 Cycle   3  Pass 1  IDiag  1:
 E= -942.218285633338     Delta-E=       -0.000000886803 Rises=F Damp=F
 DIIS: error= 1.60D-05 at cycle   3 NSaved=   3.
 NSaved= 3 IEnMin= 3 EnMin= -942.218285633338     IErMin= 3 ErrMin= 1.60D-05
 ErrMax= 1.60D-05  0.00D+00 EMaxC= 1.00D-01 BMatC= 1.88D-07 BMatP= 4.55D-07
 IDIUse=1 WtCom= 1.00D+00 WtEn= 0.00D+00
 Coeff-Com: -0.678D-01 0.498D+00 0.569D+00
 Coeff:     -0.678D-01 0.498D+00 0.569D+00
 Gap=     0.470 Goal=   None    Shift=    0.000
 RMSDP=1.92D-06 MaxDP=6.62D-05 DE=-8.87D-07 OVMax= 1.00D-04

 Cycle   4  Pass 1  IDiag  1:
 E= -942.218285767377     Delta-E=       -0.000000134039 Rises=F Damp=F
 DIIS: error= 8.00D-06 at cycle   4 NSaved=   4.
 NSaved= 4 IEnMin= 4 EnMin= -942.218285767377     IErMin= 4 ErrMin= 8.00D-06
 ErrMax= 8.00D-06  0.00D+00 EMaxC= 1.00D-01 BMatC= 2.77D-08 BMatP= 1.88D-07
 IDIUse=1 WtCom= 1.00D+00 WtEn= 0.00D+00
 Coeff-Com:  0.717D-02-0.121D+00 0.235D+00 0.879D+00
 Coeff:      0.717D-02-0.121D+00 0.235D+00 0.879D+00
 Gap=     0.470 Goal=   None    Shift=    0.000
 RMSDP=1.48D-06 MaxDP=5.14D-05 DE=-1.34D-07 OVMax= 6.47D-05

 Cycle   5  Pass 1  IDiag  1:
 E= -942.218285797445     Delta-E=       -0.000000030067 Rises=F Damp=F
 DIIS: error= 2.03D-06 at cycle   5 NSaved=   5.
 NSaved= 5 IEnMin= 5 EnMin= -942.218285797445     IErMin= 5 ErrMin= 2.03D-06
 ErrMax= 2.03D-06  0.00D+00 EMaxC= 1.00D-01 BMatC= 2.44D-09 BMatP= 2.77D-08
 IDIUse=1 WtCom= 1.00D+00 WtEn= 0.00D+00
 Coeff-Com:  0.709D-02-0.814D-01 0.698D-01 0.380D+00 0.625D+00
 Coeff:      0.709D-02-0.814D-01 0.698D-01 0.380D+00 0.625D+00
 Gap=     0.470 Goal=   None    Shift=    0.000
 RMSDP=3.74D-07 MaxDP=1.30D-05 DE=-3.01D-08 OVMax= 1.86D-05

 Cycle   6  Pass 1  IDiag  1:
 E= -942.218285799533     Delta-E=       -0.000000002088 Rises=F Damp=F
 DIIS: error= 7.05D-07 at cycle   6 NSaved=   6.
 NSaved= 6 IEnMin= 6 EnMin= -942.218285799533     IErMin= 6 ErrMin= 7.05D-07
 ErrMax= 7.05D-07  0.00D+00 EMaxC= 1.00D-01 BMatC= 2.53D-10 BMatP= 2.44D-09
 IDIUse=1 WtCom= 1.00D+00 WtEn= 0.00D+00
 Coeff-Com:  0.138D-02-0.106D-01-0.975D-02 0.559D-02 0.226D+00 0.787D+00
 Coeff:      0.138D-02-0.106D-01-0.975D-02 0.559D-02 0.226D+00 0.787D+00
 Gap=     0.470 Goal=   None    Shift=    0.000
 RMSDP=2.25D-07 MaxDP=9.04D-06 DE=-2.09D-09 OVMax= 7.27D-06

 Cycle   7  Pass 1  IDiag  1:
 E= -942.218285799834     Delta-E=       -0.000000000301 Rises=F Damp=F
 DIIS: error= 3.44D-07 at cycle   7 NSaved=   7.
 NSaved= 7 IEnMin= 7 EnMin= -942.218285799834     IErMin= 7 ErrMin= 3.44D-07
 ErrMax= 3.44D-07  0.00D+00 EMaxC= 1.00D-01 BMatC= 3.47D-11 BMatP= 2.53D-10
 IDIUse=1 WtCom= 1.00D+00 WtEn= 0.00D+00
 Coeff-Com: -0.438D-03 0.680D-02-0.134D-01-0.490D-01-0.278D-02 0.297D+00
 Coeff-Com:  0.762D+00
 Coeff:     -0.438D-03 0.680D-02-0.134D-01-0.490D-01-0.278D-02 0.297D+00
 Coeff:      0.762D+00
 Gap=     0.470 Goal=   None    Shift=    0.000
 RMSDP=8.38D-08 MaxDP=3.24D-06 DE=-3.01D-10 OVMax= 3.39D-06

 Cycle   8  Pass 1  IDiag  1:
 E= -942.218285799845     Delta-E=       -0.000000000011 Rises=F Damp=F
 DIIS: error= 1.12D-07 at cycle   8 NSaved=   8.
 NSaved= 8 IEnMin= 8 EnMin= -942.218285799845     IErMin= 8 ErrMin= 1.12D-07
 ErrMax= 1.12D-07  0.00D+00 EMaxC= 1.00D-01 BMatC= 8.59D-12 BMatP= 3.47D-11
 IDIUse=1 WtCom= 1.00D+00 WtEn= 0.00D+00
 Coeff-Com: -0.409D-03 0.501D-02-0.616D-02-0.273D-01-0.301D-01 0.632D-01
 Coeff-Com:  0.411D+00 0.585D+00
 Coeff:     -0.409D-03 0.501D-02-0.616D-02-0.273D-01-0.301D-01 0.632D-01
 Coeff:      0.411D+00 0.585D+00
 Gap=     0.470 Goal=   None    Shift=    0.000
 RMSDP=2.40D-08 MaxDP=9.09D-07 DE=-1.07D-11 OVMax= 8.31D-07

 Cycle   9  Pass 1  IDiag  1:
 E= -942.218285799883     Delta-E=       -0.000000000038 Rises=F Damp=F
 DIIS: error= 1.86D-08 at cycle   9 NSaved=   9.
 NSaved= 9 IEnMin= 9 EnMin= -942.218285799883     IErMin= 9 ErrMin= 1.86D-08
 ErrMax= 1.86D-08  0.00D+00 EMaxC= 1.00D-01 BMatC= 1.98D-13 BMatP= 8.59D-12
 IDIUse=1 WtCom= 1.00D+00 WtEn= 0.00D+00
 Coeff-Com: -0.469D-04 0.451D-03-0.453D-04-0.118D-02-0.630D-02-0.155D-01
 Coeff-Com:  0.193D-01 0.120D+00 0.883D+00
 Coeff:     -0.469D-04 0.451D-03-0.453D-04-0.118D-02-0.630D-02-0.155D-01
 Coeff:      0.193D-01 0.120D+00 0.883D+00
 Gap=     0.470 Goal=   None    Shift=    0.000
 RMSDP=7.50D-09 MaxDP=2.83D-07 DE=-3.84D-11 OVMax= 2.52D-07

 SCF Done:  E(RwB97XD) =  -942.218285800     A.U. after    9 cycles
            NFock=  9  Conv=0.75D-08     -V/T= 2.0021
 KE= 9.402481911111D+02 PE=-3.369900091249D+03 EE= 9.199276042167D+02
 Leave Link  502 at Fri Jan  2 11:47:54 2026, MaxMem=  6442450944 cpu:             289.0 elap:              16.5
 (Enter /applications/g16/g16/l701.exe)
 ... and contract with generalized density number  0.
 Compute integral first derivatives.
 R6Disp: Adding Grimme-D2 dispersion energy 1st derivatives to the gradient.
 Leave Link  701 at Fri Jan  2 11:47:55 2026, MaxMem=  6442450944 cpu:               4.9 elap:               0.2
 (Enter /applications/g16/g16/l702.exe)
 L702 exits ... SP integral derivatives will be done elsewhere.
 Leave Link  702 at Fri Jan  2 11:47:55 2026, MaxMem=  6442450944 cpu:               0.8 elap:               0.0
 (Enter /applications/g16/g16/l703.exe)
 Integral derivatives from FoFJK, PRISM(SPDF).
 Compute integral first derivatives, UseDBF=F ICtDFT=           0.
 Calling FoFJK, ICntrl=      2127 FMM=F ISym2X=0 I1Cent= 0 IOpClX= 0 NMat=1 NMatS=1 NMatT=0.
 FoFJK:  IHMeth= 1 ICntrl=    2127 DoSepK=T KAlg= 0 I1Cent=           0 FoldK=F
 IRaf=         1 NMat=       1 IRICut=       1 DoRegI=T DoRafI=F ISym2E= 0 IDoP0=0 IntGTp=1.
 FoFCou: FMM=F IPFlag=           0 FMFlag=      100000 FMFlg1=         800
         NFxFlg=           0 DoJE=F BraDBF=F KetDBF=F FulRan=T
         wScrn=  0.000000 ICntrl=      2527 IOpCl=  0 I1Cent=           0 NGrid=           0
         NMat0=    1 NMatS0=      1 NMatT0=    0 NMatD0=    1 NMtDS0=    0 NMtDT0=    0
 Symmetry not used in FoFCou.
 Leave Link  703 at Fri Jan  2 11:48:04 2026, MaxMem=  6442450944 cpu:             230.5 elap:               9.7
 (Enter /applications/g16/g16/l716.exe)
 Dipole        = 5.13663224D-01 1.32728394D+00 1.19430028D-03
 ***** Axes restored to original set *****
 -------------------------------------------------------------------
 Center     Atomic                   Forces (Hartrees/Bohr)
 Number     Number              X              Y              Z
 -------------------------------------------------------------------
      1        6          -0.000465406   -0.000117507   -0.000102737
      2       16          -0.000024181    0.000014218    0.000380924
      3        8           0.000096878   -0.000046729   -0.000384276
      4        8          -0.000032215    0.000065547    0.000105394
      5        9           0.000114036   -0.000071757    0.000036093
      6        9           0.000097387   -0.000099089    0.000092891
      7        7          -0.000009425   -0.000106728   -0.000097232
      8        1          -0.000083679    0.000060969    0.000041948
      9        1           0.000023671    0.000050722    0.000021120
     10        9           0.000282935    0.000250354   -0.000094125
 -------------------------------------------------------------------
 Cartesian Forces:  Max     0.000465406 RMS     0.000163146
 Leave Link  716 at Fri Jan  2 11:48:05 2026, MaxMem=  6442450944 cpu:               0.8 elap:               0.0
 (Enter /applications/g16/g16/l103.exe)

 GradGradGradGradGradGradGradGradGradGradGradGradGradGradGradGradGradGrad
 Berny optimization.
 Using GEDIIS/GDIIS optimizer.
 FormGI is forming the generalized inverse of G from B-inverse, IUseBI=4.
 Internal  Forces:  Max     0.000388207 RMS     0.000126033
 Search for a local minimum.
 Step number   7 out of a maximum of   49
 All quantities printed in internal units (Hartrees-Bohrs-Radians)
 RMS Force = .12603D-03 SwitMx=.10000D-02 MixMth= 2
 Mixed Optimization -- En-DIIS/RFO-DIIS
 Swapping is turned off.
 Update second derivatives using D2CorX and points    1    2    3    4    5
                                                      6    7
 DE= -3.20D-06 DEPred=-2.39D-06 R= 1.34D+00
 TightC=F SS=  1.41D+00  RLast= 2.25D-02 DXNew= 1.1966D+00 6.7437D-02
 Trust test= 1.34D+00 RLast= 2.25D-02 DXMaxT set to 7.12D-01
 ITU=  1  1  1  1  1  1  0
     Eigenvalues ---    0.00247   0.00439   0.03988   0.08888   0.09353
     Eigenvalues ---    0.09718   0.09903   0.15527   0.16002   0.16659
     Eigenvalues ---    0.17230   0.19689   0.22134   0.25185   0.26124
     Eigenvalues ---    0.35595   0.45298   0.46376   0.46441   0.57974
     Eigenvalues ---    0.58361   0.61547   1.06040   1.07756
 En-DIIS/RFO-DIIS/Sim-DIIS IScMMF=       -3 using points:     7    6    5    4    3
 RFO step:  Lambda=-2.76262348D-06.
 NNeg= 0 NGDIIS= 5 SimSw=  2.50D-01 Rises=F DC= -3.20D-06 SmlDif=  1.00D-05
 NRisDI= 0 DoIntr=F SqrtH=F CThrHd= 10.0 CDAdj=  3.0
 RMS Error=  0.2486498582D-02 NUsed= 5 OKEnD=F EnDIS=F
 InvSVX:  RCond= 5.10D-07 Info=           0 Equed=N FErr=  7.53D-13 BErr=  6.43D-17
 DidBck=F Rises=F RFO-DIIS coefs:    2.32655   -1.59759    0.13313    0.19559   -0.05768
 Iteration  1 RMS(Cart)=  0.00265148 RMS(Int)=  0.00000760
 Iteration  2 RMS(Cart)=  0.00000621 RMS(Int)=  0.00000480
 Iteration  3 RMS(Cart)=  0.00000000 RMS(Int)=  0.00000480
 ITry= 1 IFail=0 DXMaxC= 9.07D-03 DCOld= 1.00D+10 DXMaxT= 7.12D-01 DXLimC= 3.00D+00 Rises=F
 Variable       Old X    -DE/DX   Delta X   Delta X   Delta X     New X
                                 (Linear)    (Quad)   (Total)
    R1        3.50845  -0.00003  -0.00014   0.00019   0.00005   3.50850
    R2        2.50352  -0.00004  -0.00014   0.00027   0.00012   2.50364
    R3        2.50422  -0.00012  -0.00055   0.00020  -0.00035   2.50387
    R4        2.50072  -0.00039  -0.00028  -0.00047  -0.00074   2.49998
    R5        2.70017  -0.00037  -0.00032  -0.00011  -0.00043   2.69974
    R6        2.69976  -0.00012  -0.00009  -0.00003  -0.00012   2.69964
    R7        3.08812  -0.00003   0.00061  -0.00032   0.00030   3.08841
    R8        1.90547   0.00000   0.00013  -0.00006   0.00007   1.90554
    R9        1.90556  -0.00002   0.00008  -0.00008   0.00001   1.90556
    A1        1.92273  -0.00022  -0.00131   0.00006  -0.00124   1.92149
    A2        1.92227  -0.00017  -0.00074  -0.00006  -0.00080   1.92147
    A3        1.89805   0.00013   0.00102  -0.00004   0.00098   1.89903
    A4        1.90495   0.00017   0.00009   0.00058   0.00067   1.90561
    A5        1.90794   0.00006   0.00058  -0.00042   0.00016   1.90810
    A6        1.90778   0.00004   0.00038  -0.00013   0.00025   1.90803
    A7        1.84382   0.00020   0.00060   0.00066   0.00125   1.84508
    A8        1.84467   0.00002   0.00017   0.00025   0.00043   1.84509
    A9        1.75307  -0.00027  -0.00110  -0.00041  -0.00151   1.75156
   A10        2.16617  -0.00010  -0.00079   0.00028  -0.00051   2.16566
   A11        1.90415   0.00001   0.00076  -0.00042   0.00035   1.90450
   A12        1.90512   0.00009   0.00022  -0.00042  -0.00020   1.90491
   A13        1.96977  -0.00005  -0.00063   0.00016  -0.00045   1.96932
   A14        1.96891   0.00011  -0.00006   0.00050   0.00045   1.96936
   A15        2.00961   0.00000  -0.00074   0.00055  -0.00017   2.00944
    D1        0.92683   0.00000   0.00195  -0.00097   0.00098   0.92781
    D2       -3.03287   0.00003   0.00148  -0.00004   0.00145  -3.03142
    D3       -1.05235   0.00003   0.00135  -0.00057   0.00078  -1.05157
    D4        3.02909  -0.00004   0.00075  -0.00025   0.00050   3.02959
    D5       -0.93061  -0.00001   0.00028   0.00069   0.00096  -0.92965
    D6        1.04990  -0.00001   0.00015   0.00015   0.00030   1.05020
    D7       -1.16386  -0.00001   0.00139  -0.00046   0.00093  -1.16293
    D8        1.15962   0.00001   0.00092   0.00047   0.00139   1.16101
    D9        3.14013   0.00002   0.00079  -0.00007   0.00073   3.14086
   D10        1.99231  -0.00000  -0.00483  -0.00086  -0.00569   1.98663
   D11       -1.97571   0.00006  -0.00650   0.00058  -0.00593  -1.98164
   D12        0.05969  -0.00011  -0.00526  -0.00127  -0.00653   0.05316
   D13        2.37485  -0.00005  -0.00693   0.00017  -0.00677   2.36808
   D14       -2.35699  -0.00007  -0.00505  -0.00089  -0.00594  -2.36294
   D15       -0.04183  -0.00001  -0.00672   0.00054  -0.00619  -0.04802
         Item               Value     Threshold  Converged?
 Maximum Force            0.000388     0.000450     YES
 RMS     Force            0.000126     0.000300     YES
 Maximum Displacement     0.009067     0.001800     NO 
 RMS     Displacement     0.002652     0.001200     NO 
 Predicted change in Energy=-1.292273D-06
 Lowest energy point so far.  Saving SCF results.
 GradGradGradGradGradGradGradGradGradGradGradGradGradGradGradGradGradGrad

 Leave Link  103 at Fri Jan  2 11:48:05 2026, MaxMem=  6442450944 cpu:               3.0 elap:               0.1
 (Enter /applications/g16/g16/l202.exe)
                          Input orientation:                          
 ---------------------------------------------------------------------
 Center     Atomic      Atomic             Coordinates (Angstroms)
 Number     Number       Type             X           Y           Z
 ---------------------------------------------------------------------
      1          6           0        1.065871    0.577766   -0.185112
      2         16           0        2.632965   -0.380766    0.084091
      3          8           0        2.712964   -0.603802    1.492945
      4          8           0        2.621220   -1.423673   -0.892166
      5          9           0        1.051164    1.652768    0.589118
      6          9           0        0.973703    0.952770   -1.452581
      7          7           0        3.741123    0.741614   -0.343973
      8          1           0        4.312851    1.042228    0.430343
      9          1           0        4.248082    0.492363   -1.179254
     10          9           0        0.035852   -0.194787    0.118811
 ---------------------------------------------------------------------
                    Distance matrix (angstroms):
                    1          2          3          4          5
     1  C    0.000000
     2  S    1.856620   0.000000
     3  O    2.631520   1.428641   0.000000
     4  O    2.631500   1.428590   2.523759   0.000000
     5  F    1.324869   2.625339   2.944586   3.758159   0.000000
     6  F    1.324991   2.625420   3.758201   2.945481   2.159753
     7  N    2.684968   1.634317   2.498304   2.498633   2.989437
     8  H    3.337272   2.228637   2.529462   3.269757   3.322133
     9  H    3.334978   2.228676   3.270904   2.529879   3.833270
    10  F    1.322931   2.603995   3.036852   3.035847   2.159978
                    6          7          8          9         10
     6  F    0.000000
     7  N    2.988680   0.000000
     8  H    3.834490   1.008368   0.000000
     9  H    3.317866   1.008379   1.702161   0.000000
    10  F    2.160029   3.849681   4.463180   4.460945   0.000000
 Stoichiometry    CH2F3NO2S
 Framework group  C1[X(CH2F3NO2S)]
 Deg. of freedom    24
 Full point group                 C1      NOp   1
 RotChk:  IX=0 Diff= 4.88D-03
 Largest Abelian subgroup         C1      NOp   1
 Largest concise Abelian subgroup C1      NOp   1
                         Standard orientation:                         
 ---------------------------------------------------------------------
 Center     Atomic      Atomic             Coordinates (Angstroms)
 Number     Number       Type             X           Y           Z
 ---------------------------------------------------------------------
      1          6           0       -0.999928    0.042716    0.000125
      2         16           0        0.841811   -0.191882   -0.000181
      3          8           0        1.156726   -0.783608    1.261446
      4          8           0        1.156452   -0.782555   -1.262312
      5          9           0       -1.373328    0.711984    1.080832
      6          9           0       -1.373343    0.714897   -1.078918
      7          7           0        1.336420    1.365793    0.000770
      8          1           0        1.812722    1.624589    0.851045
      9          1           0        1.808542    1.627005   -0.851109
     10          9           0       -1.581223   -1.145661   -0.001497
 ---------------------------------------------------------------------
 Rotational constants (GHZ):           2.6198117           1.5584135           1.5559694
 Leave Link  202 at Fri Jan  2 11:48:05 2026, MaxMem=  6442450944 cpu:               0.1 elap:               0.0
 (Enter /applications/g16/g16/l301.exe)
 Standard basis: 6-311+G(2d,2p) (5D, 7F)
 Ernie: Thresh=  0.10000D-02 Tol=  0.10000D-05 Strict=F.
 There are   258 symmetry adapted cartesian basis functions of A   symmetry.
 There are   242 symmetry adapted basis functions of A   symmetry.
   242 basis functions,   372 primitive gaussians,   258 cartesian basis functions
    37 alpha electrons       37 beta electrons
       nuclear repulsion energy       567.5569392878 Hartrees.
 IExCor= 4639 DFT=T Ex+Corr=wB97XD ExCW=0 ScaHFX=  1.000000
 ScaDFX=  1.000000  1.000000  1.000000  1.000000 ScalE2=  1.000000  1.000000
 IRadAn=      5 IRanWt=     -1 IRanGd=            0 ICorTp=0 IEmpDi=121
 HFx  wShort=  0.000000 wLong=  0.200000 cFull=  0.222036 cShort=  0.000000 cLong=  0.777964
 DFx  wShort=  0.000000 wLong=  0.200000 cFull=  0.000000 cShort=  0.000000 cLong=  1.000000
 NAtoms=   10 NActive=   10 NUniq=   10 SFac= 1.00D+00 NAtFMM=   60 NAOKFM=F Big=F
 Integral buffers will be    131072 words long.
 Raffenetti 2 integral format.
 Two-electron integral symmetry is turned on.
 R6Disp:  Grimme-D2 Dispersion energy=       -0.0034386643 Hartrees.
 Nuclear repulsion after empirical dispersion term =      567.5535006234 Hartrees.
 Leave Link  301 at Fri Jan  2 11:48:05 2026, MaxMem=  6442450944 cpu:               1.1 elap:               0.1
 (Enter /applications/g16/g16/l302.exe)
 NPDir=0 NMtPBC=     1 NCelOv=     1 NCel=       1 NClECP=     1 NCelD=      1
         NCelK=      1 NCelE2=     1 NClLst=     1 CellRange=     0.0.
 One-electron integrals computed using PRISM.
 One-electron integral symmetry used in STVInt
 NBasis=   242 RedAO= T EigKep=  2.18D-04  NBF=   242
 NBsUse=   242 1.00D-06 EigRej= -1.00D+00 NBFU=   242
 Precomputing XC quadrature grid using
 IXCGrd= 4 IRadAn=           5 IRanWt=          -1 IRanGd=           0 AccXCQ= 0.00D+00.
 Generated NRdTot=       0 NPtTot=           0 NUsed=           0 NTot=          32
 NSgBfM=   258   258   258   258   258 MxSgAt=    10 MxSgA2=    10.
 Leave Link  302 at Fri Jan  2 11:48:05 2026, MaxMem=  6442450944 cpu:              10.4 elap:               0.5
 (Enter /applications/g16/g16/l303.exe)
 DipDrv:  MaxL=1.
 Leave Link  303 at Fri Jan  2 11:48:05 2026, MaxMem=  6442450944 cpu:               1.1 elap:               0.1
 (Enter /applications/g16/g16/l401.exe)
 Initial guess from the checkpoint file:  "triflate_amide.chk"
 B after Tr=     0.000000    0.000000   -0.000000
         Rot=    0.999998    0.001734   -0.000042   -0.000192 Ang=   0.20 deg.
 Guess basis will be translated and rotated to current coordinates.
 JPrj=2 DoOrth=T DoCkMO=T.
 Leave Link  401 at Fri Jan  2 11:48:06 2026, MaxMem=  6442450944 cpu:               5.0 elap:               0.2
 (Enter /applications/g16/g16/l502.exe)
 Keep R1 ints in memory in canonical form, NReq=890653791.
 FoFCou: FMM=F IPFlag=           0 FMFlag=           0 FMFlg1=           0
         NFxFlg=           0 DoJE=F BraDBF=F KetDBF=F FulRan=T
         wScrn=  0.000000 ICntrl=       600 IOpCl=  0 I1Cent=           0 NGrid=           0
         NMat0=    1 NMatS0=  29403 NMatT0=    0 NMatD0=    1 NMtDS0=    0 NMtDT0=    0
 Symmetry not used in FoFCou.
 Two-electron integral symmetry not used.
 Closed shell SCF:
 Using DIIS extrapolation, IDIIS=  1040.
 NGot=  6442450944 LenX=  5577743467 LenY=  5577676462
 Requested convergence on RMS density matrix=1.00D-08 within 128 cycles.
 Requested convergence on MAX density matrix=1.00D-06.
 Requested convergence on             energy=1.00D-06.
 No special actions if energy rises.

 Cycle   1  Pass 1  IDiag  1:
 E= -942.218275781302    
 DIIS: error= 1.92D-04 at cycle   1 NSaved=   1.
 NSaved= 1 IEnMin= 1 EnMin= -942.218275781302     IErMin= 1 ErrMin= 1.92D-04
 ErrMax= 1.92D-04  0.00D+00 EMaxC= 1.00D-01 BMatC= 9.34D-06 BMatP= 9.34D-06
 IDIUse=3 WtCom= 9.98D-01 WtEn= 1.92D-03
 Coeff-Com:  0.100D+01
 Coeff-En:   0.100D+01
 Coeff:      0.100D+01
 Gap=     0.745 Goal=   None    Shift=    0.000
 RMSDP=1.93D-05 MaxDP=3.90D-04              OVMax= 9.30D-04

 Cycle   2  Pass 1  IDiag  1:
 E= -942.218286948934     Delta-E=       -0.000011167632 Rises=F Damp=F
 DIIS: error= 2.56D-05 at cycle   2 NSaved=   2.
 NSaved= 2 IEnMin= 2 EnMin= -942.218286948934     IErMin= 2 ErrMin= 2.56D-05
 ErrMax= 2.56D-05  0.00D+00 EMaxC= 1.00D-01 BMatC= 3.61D-07 BMatP= 9.34D-06
 IDIUse=1 WtCom= 1.00D+00 WtEn= 0.00D+00
 Coeff-Com: -0.102D+00 0.110D+01
 Coeff:     -0.102D+00 0.110D+01
 Gap=     0.470 Goal=   None    Shift=    0.000
 RMSDP=5.24D-06 MaxDP=1.15D-04 DE=-1.12D-05 OVMax= 2.86D-04

 Cycle   3  Pass 1  IDiag  1:
 E= -942.218287404754     Delta-E=       -0.000000455820 Rises=F Damp=F
 DIIS: error= 2.08D-05 at cycle   3 NSaved=   3.
 NSaved= 3 IEnMin= 3 EnMin= -942.218287404754     IErMin= 3 ErrMin= 2.08D-05
 ErrMax= 2.08D-05  0.00D+00 EMaxC= 1.00D-01 BMatC= 3.20D-07 BMatP= 3.61D-07
 IDIUse=1 WtCom= 1.00D+00 WtEn= 0.00D+00
 Coeff-Com: -0.808D-01 0.587D+00 0.494D+00
 Coeff:     -0.808D-01 0.587D+00 0.494D+00
 Gap=     0.470 Goal=   None    Shift=    0.000
 RMSDP=1.99D-06 MaxDP=7.60D-05 DE=-4.56D-07 OVMax= 1.01D-04

 Cycle   4  Pass 1  IDiag  1:
 E= -942.218287624891     Delta-E=       -0.000000220137 Rises=F Damp=F
 DIIS: error= 5.00D-06 at cycle   4 NSaved=   4.
 NSaved= 4 IEnMin= 4 EnMin= -942.218287624891     IErMin= 4 ErrMin= 5.00D-06
 ErrMax= 5.00D-06  0.00D+00 EMaxC= 1.00D-01 BMatC= 1.26D-08 BMatP= 3.20D-07
 IDIUse=1 WtCom= 1.00D+00 WtEn= 0.00D+00
 Coeff-Com: -0.136D-02-0.574D-01 0.116D+00 0.943D+00
 Coeff:     -0.136D-02-0.574D-01 0.116D+00 0.943D+00
 Gap=     0.470 Goal=   None    Shift=    0.000
 RMSDP=1.05D-06 MaxDP=3.52D-05 DE=-2.20D-07 OVMax= 4.93D-05

 Cycle   5  Pass 1  IDiag  1:
 E= -942.218287640158     Delta-E=       -0.000000015267 Rises=F Damp=F
 DIIS: error= 2.04D-06 at cycle   5 NSaved=   5.
 NSaved= 5 IEnMin= 5 EnMin= -942.218287640158     IErMin= 5 ErrMin= 2.04D-06
 ErrMax= 2.04D-06  0.00D+00 EMaxC= 1.00D-01 BMatC= 2.51D-09 BMatP= 1.26D-08
 IDIUse=1 WtCom= 1.00D+00 WtEn= 0.00D+00
 Coeff-Com:  0.636D-02-0.764D-01 0.112D-01 0.432D+00 0.627D+00
 Coeff:      0.636D-02-0.764D-01 0.112D-01 0.432D+00 0.627D+00
 Gap=     0.470 Goal=   None    Shift=    0.000
 RMSDP=3.31D-07 MaxDP=1.07D-05 DE=-1.53D-08 OVMax= 1.81D-05

 Cycle   6  Pass 1  IDiag  1:
 E= -942.218287642263     Delta-E=       -0.000000002105 Rises=F Damp=F
 DIIS: error= 5.81D-07 at cycle   6 NSaved=   6.
 NSaved= 6 IEnMin= 6 EnMin= -942.218287642263     IErMin= 6 ErrMin= 5.81D-07
 ErrMax= 5.81D-07  0.00D+00 EMaxC= 1.00D-01 BMatC= 2.29D-10 BMatP= 2.51D-09
 IDIUse=1 WtCom= 1.00D+00 WtEn= 0.00D+00
 Coeff-Com:  0.261D-02-0.235D-01-0.887D-02 0.640D-01 0.253D+00 0.713D+00
 Coeff:      0.261D-02-0.235D-01-0.887D-02 0.640D-01 0.253D+00 0.713D+00
 Gap=     0.470 Goal=   None    Shift=    0.000
 RMSDP=1.61D-07 MaxDP=6.29D-06 DE=-2.10D-09 OVMax= 5.65D-06

 Cycle   7  Pass 1  IDiag  1:
 E= -942.218287642507     Delta-E=       -0.000000000245 Rises=F Damp=F
 DIIS: error= 2.61D-07 at cycle   7 NSaved=   7.
 NSaved= 7 IEnMin= 7 EnMin= -942.218287642507     IErMin= 7 ErrMin= 2.61D-07
 ErrMax= 2.61D-07  0.00D+00 EMaxC= 1.00D-01 BMatC= 2.59D-11 BMatP= 2.29D-10
 IDIUse=1 WtCom= 1.00D+00 WtEn= 0.00D+00
 Coeff-Com: -0.193D-04 0.265D-02-0.490D-02-0.391D-01-0.271D-02 0.243D+00
 Coeff-Com:  0.801D+00
 Coeff:     -0.193D-04 0.265D-02-0.490D-02-0.391D-01-0.271D-02 0.243D+00
 Coeff:      0.801D+00
 Gap=     0.470 Goal=   None    Shift=    0.000
 RMSDP=7.44D-08 MaxDP=2.91D-06 DE=-2.45D-10 OVMax= 3.00D-06

 Cycle   8  Pass 1  IDiag  1:
 E= -942.218287642533     Delta-E=       -0.000000000025 Rises=F Damp=F
 DIIS: error= 1.10D-07 at cycle   8 NSaved=   8.
 NSaved= 8 IEnMin= 8 EnMin= -942.218287642533     IErMin= 8 ErrMin= 1.10D-07
 ErrMax= 1.10D-07  0.00D+00 EMaxC= 1.00D-01 BMatC= 7.29D-12 BMatP= 2.59D-11
 IDIUse=1 WtCom= 1.00D+00 WtEn= 0.00D+00
 Coeff-Com: -0.389D-03 0.483D-02-0.135D-02-0.303D-01-0.392D-01 0.241D-01
 Coeff-Com:  0.422D+00 0.620D+00
 Coeff:     -0.389D-03 0.483D-02-0.135D-02-0.303D-01-0.392D-01 0.241D-01
 Coeff:      0.422D+00 0.620D+00
 Gap=     0.470 Goal=   None    Shift=    0.000
 RMSDP=2.47D-08 MaxDP=9.71D-07 DE=-2.50D-11 OVMax= 8.82D-07

 Cycle   9  Pass 1  IDiag  1:
 E= -942.218287642544     Delta-E=       -0.000000000012 Rises=F Damp=F
 DIIS: error= 2.49D-08 at cycle   9 NSaved=   9.
 NSaved= 9 IEnMin= 9 EnMin= -942.218287642544     IErMin= 9 ErrMin= 2.49D-08
 ErrMax= 2.49D-08  0.00D+00 EMaxC= 1.00D-01 BMatC= 2.64D-13 BMatP= 7.29D-12
 IDIUse=1 WtCom= 1.00D+00 WtEn= 0.00D+00
 Coeff-Com: -0.127D-03 0.139D-02-0.268D-06-0.658D-02-0.131D-01-0.127D-01
 Coeff-Com:  0.747D-01 0.198D+00 0.759D+00
 Coeff:     -0.127D-03 0.139D-02-0.268D-06-0.658D-02-0.131D-01-0.127D-01
 Coeff:      0.747D-01 0.198D+00 0.759D+00
 Gap=     0.470 Goal=   None    Shift=    0.000
 RMSDP=6.08D-09 MaxDP=2.32D-07 DE=-1.18D-11 OVMax= 2.17D-07

 SCF Done:  E(RwB97XD) =  -942.218287643     A.U. after    9 cycles
            NFock=  9  Conv=0.61D-08     -V/T= 2.0021
 KE= 9.402502412066D+02 PE=-3.369996091189D+03 EE= 9.199740617167D+02
 Leave Link  502 at Fri Jan  2 11:48:22 2026, MaxMem=  6442450944 cpu:             290.8 elap:              16.5
 (Enter /applications/g16/g16/l701.exe)
 ... and contract with generalized density number  0.
 Compute integral first derivatives.
 R6Disp: Adding Grimme-D2 dispersion energy 1st derivatives to the gradient.
 Leave Link  701 at Fri Jan  2 11:48:23 2026, MaxMem=  6442450944 cpu:               4.8 elap:               0.2
 (Enter /applications/g16/g16/l702.exe)
 L702 exits ... SP integral derivatives will be done elsewhere.
 Leave Link  702 at Fri Jan  2 11:48:23 2026, MaxMem=  6442450944 cpu:               0.8 elap:               0.0
 (Enter /applications/g16/g16/l703.exe)
 Integral derivatives from FoFJK, PRISM(SPDF).
 Compute integral first derivatives, UseDBF=F ICtDFT=           0.
 Calling FoFJK, ICntrl=      2127 FMM=F ISym2X=0 I1Cent= 0 IOpClX= 0 NMat=1 NMatS=1 NMatT=0.
 FoFJK:  IHMeth= 1 ICntrl=    2127 DoSepK=T KAlg= 0 I1Cent=           0 FoldK=F
 IRaf=         1 NMat=       1 IRICut=       1 DoRegI=T DoRafI=F ISym2E= 0 IDoP0=0 IntGTp=1.
 FoFCou: FMM=F IPFlag=           0 FMFlag=      100000 FMFlg1=         800
         NFxFlg=           0 DoJE=F BraDBF=F KetDBF=F FulRan=T
         wScrn=  0.000000 ICntrl=      2527 IOpCl=  0 I1Cent=           0 NGrid=           0
         NMat0=    1 NMatS0=      1 NMatT0=    0 NMatD0=    1 NMtDS0=    0 NMtDT0=    0
 Symmetry not used in FoFCou.
 Leave Link  703 at Fri Jan  2 11:48:33 2026, MaxMem=  6442450944 cpu:             228.6 elap:               9.6
 (Enter /applications/g16/g16/l716.exe)
 Dipole        = 5.08928721D-01 1.32661246D+00-3.70512582D-04
 ***** Axes restored to original set *****
 -------------------------------------------------------------------
 Center     Atomic                   Forces (Hartrees/Bohr)
 Number     Number              X              Y              Z
 -------------------------------------------------------------------
      1        6          -0.000106398   -0.000170321    0.000026139
      2       16           0.000107230    0.000074353    0.000041724
      3        8          -0.000016478   -0.000010614   -0.000083540
      4        8          -0.000035429    0.000009064    0.000019053
      5        9          -0.000006274    0.000026301   -0.000021814
      6        9           0.000002864    0.000015044    0.000041770
      7        7           0.000059299   -0.000115475    0.000012028
      8        1          -0.000048542    0.000038437   -0.000007470
      9        1          -0.000028596    0.000030535    0.000009038
     10        9           0.000072324    0.000102676   -0.000036928
 -------------------------------------------------------------------
 Cartesian Forces:  Max     0.000170321 RMS     0.000061069
 Leave Link  716 at Fri Jan  2 11:48:33 2026, MaxMem=  6442450944 cpu:               0.8 elap:               0.0
 (Enter /applications/g16/g16/l103.exe)

 GradGradGradGradGradGradGradGradGradGradGradGradGradGradGradGradGradGrad
 Berny optimization.
 Using GEDIIS/GDIIS optimizer.
 FormGI is forming the generalized inverse of G from B-inverse, IUseBI=4.
 Internal  Forces:  Max     0.000124860 RMS     0.000034611
 Search for a local minimum.
 Step number   8 out of a maximum of   49
 All quantities printed in internal units (Hartrees-Bohrs-Radians)
 RMS Force = .34611D-04 SwitMx=.10000D-02 MixMth= 2
 Mixed Optimization -- En-DIIS/RFO-DIIS
 Swapping is turned off.
 Update second derivatives using D2CorX and points    1    2    3    4    5
                                                      6    7    8
 DE= -1.84D-06 DEPred=-1.29D-06 R= 1.43D+00
 TightC=F SS=  1.41D+00  RLast= 1.57D-02 DXNew= 1.1966D+00 4.7179D-02
 Trust test= 1.43D+00 RLast= 1.57D-02 DXMaxT set to 7.12D-01
 ITU=  1  1  1  1  1  1  1  0
     Eigenvalues ---    0.00238   0.00435   0.03397   0.08877   0.09297
     Eigenvalues ---    0.09668   0.10031   0.15296   0.15814   0.16449
     Eigenvalues ---    0.16901   0.19870   0.22230   0.25096   0.26546
     Eigenvalues ---    0.36875   0.45361   0.46375   0.46576   0.55426
     Eigenvalues ---    0.58198   0.59042   1.04455   1.06064
 En-DIIS/RFO-DIIS/Sim-DIIS IScMMF=       -3 using points:     8    7    6    5    4    3
 RFO step:  Lambda=-3.27448993D-07.
 NNeg= 0 NGDIIS= 6 SimSw=  2.50D-01 Rises=F DC= -1.84D-06 SmlDif=  1.00D-05
 NRisDI= 0 DoIntr=F SqrtH=F CThrHd= 10.0 CDAdj=  3.0
 RMS Error=  0.5730553788D-03 NUsed= 6 OKEnD=F EnDIS=F
 InvSVX:  RCond= 1.17D-07 Info=           0 Equed=N FErr=  1.73D-12 BErr=  3.43D-17
 DidBck=F Rises=F RFO-DIIS coefs:    1.03967    0.35123   -0.51321    0.04062    0.05562
                  RFO-DIIS coefs:    0.02607
 Iteration  1 RMS(Cart)=  0.00051803 RMS(Int)=  0.00000400
 Iteration  2 RMS(Cart)=  0.00000022 RMS(Int)=  0.00000399
 ITry= 1 IFail=0 DXMaxC= 1.44D-03 DCOld= 1.00D+10 DXMaxT= 7.12D-01 DXLimC= 3.00D+00 Rises=F
 Variable       Old X    -DE/DX   Delta X   Delta X   Delta X     New X
                                 (Linear)    (Quad)   (Total)
    R1        3.50850   0.00002  -0.00012   0.00021   0.00008   3.50859
    R2        2.50364   0.00001  -0.00008   0.00012   0.00004   2.50368
    R3        2.50387  -0.00004  -0.00016   0.00009  -0.00007   2.50380
    R4        2.49998  -0.00012  -0.00027  -0.00000  -0.00028   2.49970
    R5        2.69974  -0.00008  -0.00019   0.00006  -0.00013   2.69961
    R6        2.69964  -0.00002  -0.00006   0.00003  -0.00003   2.69961
    R7        3.08841  -0.00005   0.00002  -0.00013  -0.00010   3.08831
    R8        1.90554  -0.00002   0.00001  -0.00005  -0.00004   1.90550
    R9        1.90556  -0.00003  -0.00002  -0.00005  -0.00006   1.90550
    A1        1.92149   0.00002  -0.00062   0.00044  -0.00017   1.92132
    A2        1.92147   0.00000  -0.00050   0.00030  -0.00020   1.92127
    A3        1.89903   0.00007   0.00043   0.00008   0.00051   1.89954
    A4        1.90561  -0.00004   0.00014  -0.00030  -0.00016   1.90545
    A5        1.90810  -0.00003   0.00032  -0.00030   0.00002   1.90811
    A6        1.90803  -0.00002   0.00024  -0.00023   0.00001   1.90805
    A7        1.84508  -0.00001   0.00048  -0.00032   0.00016   1.84524
    A8        1.84509  -0.00003  -0.00012  -0.00005  -0.00018   1.84492
    A9        1.75156   0.00001  -0.00054   0.00040  -0.00014   1.75142
   A10        2.16566  -0.00001  -0.00030   0.00014  -0.00017   2.16549
   A11        1.90450   0.00001   0.00007   0.00003   0.00011   1.90460
   A12        1.90491   0.00002   0.00033  -0.00014   0.00019   1.90511
   A13        1.96932   0.00001  -0.00006   0.00028   0.00023   1.96955
   A14        1.96936   0.00003   0.00051  -0.00003   0.00049   1.96986
   A15        2.00944   0.00001   0.00015   0.00022   0.00038   2.00983
    D1        0.92781   0.00003   0.00059   0.00004   0.00063   0.92845
    D2       -3.03142   0.00000   0.00045  -0.00003   0.00042  -3.03100
    D3       -1.05157   0.00002   0.00057  -0.00005   0.00052  -1.05106
    D4        3.02959   0.00000   0.00005   0.00014   0.00019   3.02978
    D5       -0.92965  -0.00003  -0.00009   0.00007  -0.00002  -0.92967
    D6        1.05020  -0.00001   0.00003   0.00005   0.00008   1.05028
    D7       -1.16293   0.00002   0.00031   0.00009   0.00040  -1.16253
    D8        1.16101  -0.00002   0.00017   0.00002   0.00019   1.16120
    D9        3.14086   0.00000   0.00028   0.00000   0.00029   3.14115
   D10        1.98663  -0.00002  -0.00078  -0.00042  -0.00120   1.98543
   D11       -1.98164   0.00002  -0.00008   0.00014   0.00005  -1.98159
   D12        0.05316  -0.00003  -0.00110  -0.00026  -0.00135   0.05181
   D13        2.36808   0.00002  -0.00040   0.00030  -0.00010   2.36798
   D14       -2.36294  -0.00004  -0.00104  -0.00035  -0.00139  -2.36433
   D15       -0.04802   0.00000  -0.00034   0.00020  -0.00014  -0.04816
         Item               Value     Threshold  Converged?
 Maximum Force            0.000125     0.000450     YES
 RMS     Force            0.000035     0.000300     YES
 Maximum Displacement     0.001445     0.001800     YES
 RMS     Displacement     0.000518     0.001200     YES
 Predicted change in Energy=-1.586099D-07
 Optimization completed.
    -- Stationary point found.
                           ----------------------------
                           !   Optimized Parameters   !
                           ! (Angstroms and Degrees)  !
 --------------------------                            --------------------------
 ! Name  Definition              Value          Derivative Info.                !
 --------------------------------------------------------------------------------
 ! R1    R(1,2)                  1.8566         -DE/DX =    0.0                 !
 ! R2    R(1,5)                  1.3249         -DE/DX =    0.0                 !
 ! R3    R(1,6)                  1.325          -DE/DX =    0.0                 !
 ! R4    R(1,10)                 1.3229         -DE/DX =   -0.0001              !
 ! R5    R(2,3)                  1.4286         -DE/DX =   -0.0001              !
 ! R6    R(2,4)                  1.4286         -DE/DX =    0.0                 !
 ! R7    R(2,7)                  1.6343         -DE/DX =    0.0                 !
 ! R8    R(7,8)                  1.0084         -DE/DX =    0.0                 !
 ! R9    R(7,9)                  1.0084         -DE/DX =    0.0                 !
 ! A1    A(2,1,5)              110.093          -DE/DX =    0.0                 !
 ! A2    A(2,1,6)              110.0924         -DE/DX =    0.0                 !
 ! A3    A(2,1,10)             108.8064         -DE/DX =    0.0001              !
 ! A4    A(5,1,6)              109.1835         -DE/DX =    0.0                 !
 ! A5    A(5,1,10)             109.3258         -DE/DX =    0.0                 !
 ! A6    A(6,1,10)             109.3222         -DE/DX =    0.0                 !
 ! A7    A(1,2,3)              105.715          -DE/DX =    0.0                 !
 ! A8    A(1,2,4)              105.7161         -DE/DX =    0.0                 !
 ! A9    A(1,2,7)              100.357          -DE/DX =    0.0                 !
 ! A10   A(3,2,4)              124.0833         -DE/DX =    0.0                 !
 ! A11   A(3,2,7)              109.1196         -DE/DX =    0.0                 !
 ! A12   A(4,2,7)              109.1435         -DE/DX =    0.0                 !
 ! A13   A(2,7,8)              112.8335         -DE/DX =    0.0                 !
 ! A14   A(2,7,9)              112.8362         -DE/DX =    0.0                 !
 ! A15   A(8,7,9)              115.1326         -DE/DX =    0.0                 !
 ! D1    D(5,1,2,3)             53.1599         -DE/DX =    0.0                 !
 ! D2    D(5,1,2,4)           -173.6878         -DE/DX =    0.0                 !
 ! D3    D(5,1,2,7)            -60.2508         -DE/DX =    0.0                 !
 ! D4    D(6,1,2,3)            173.5826         -DE/DX =    0.0                 !
 ! D5    D(6,1,2,4)            -53.265          -DE/DX =    0.0                 !
 ! D6    D(6,1,2,7)             60.172          -DE/DX =    0.0                 !
 ! D7    D(10,1,2,3)           -66.6312         -DE/DX =    0.0                 !
 ! D8    D(10,1,2,4)            66.5212         -DE/DX =    0.0                 !
 ! D9    D(10,1,2,7)           179.9582         -DE/DX =    0.0                 !
 ! D10   D(1,2,7,8)            113.8254         -DE/DX =    0.0                 !
 ! D11   D(1,2,7,9)           -113.5396         -DE/DX =    0.0                 !
 ! D12   D(3,2,7,8)              3.0461         -DE/DX =    0.0                 !
 ! D13   D(3,2,7,9)            135.681          -DE/DX =    0.0                 !
 ! D14   D(4,2,7,8)           -135.3862         -DE/DX =    0.0                 !
 ! D15   D(4,2,7,9)             -2.7512         -DE/DX =    0.0                 !
 --------------------------------------------------------------------------------
 Lowest energy point so far.  Saving SCF results.
 Largest change from initial coordinates is atom    9       0.105 Angstoms.
 GradGradGradGradGradGradGradGradGradGradGradGradGradGradGradGradGradGrad

 Leave Link  103 at Fri Jan  2 11:48:33 2026, MaxMem=  6442450944 cpu:               1.6 elap:               0.1
 (Enter /applications/g16/g16/l202.exe)
                          Input orientation:                          
 ---------------------------------------------------------------------
 Center     Atomic      Atomic             Coordinates (Angstroms)
 Number     Number       Type             X           Y           Z
 ---------------------------------------------------------------------
      1          6           0        1.065871    0.577766   -0.185112
      2         16           0        2.632965   -0.380766    0.084091
      3          8           0        2.712964   -0.603802    1.492945
      4          8           0        2.621220   -1.423673   -0.892166
      5          9           0        1.051164    1.652768    0.589118
      6          9           0        0.973703    0.952770   -1.452581
      7          7           0        3.741123    0.741614   -0.343973
      8          1           0        4.312851    1.042228    0.430343
      9          1           0        4.248082    0.492363   -1.179254
     10          9           0        0.035852   -0.194787    0.118811
 ---------------------------------------------------------------------
                    Distance matrix (angstroms):
                    1          2          3          4          5
     1  C    0.000000
     2  S    1.856620   0.000000
     3  O    2.631520   1.428641   0.000000
     4  O    2.631500   1.428590   2.523759   0.000000
     5  F    1.324869   2.625339   2.944586   3.758159   0.000000
     6  F    1.324991   2.625420   3.758201   2.945481   2.159753
     7  N    2.684968   1.634317   2.498304   2.498633   2.989437
     8  H    3.337272   2.228637   2.529462   3.269757   3.322133
     9  H    3.334978   2.228676   3.270904   2.529879   3.833270
    10  F    1.322931   2.603995   3.036852   3.035847   2.159978
                    6          7          8          9         10
     6  F    0.000000
     7  N    2.988680   0.000000
     8  H    3.834490   1.008368   0.000000
     9  H    3.317866   1.008379   1.702161   0.000000
    10  F    2.160029   3.849681   4.463180   4.460945   0.000000
 Stoichiometry    CH2F3NO2S
 Framework group  C1[X(CH2F3NO2S)]
 Deg. of freedom    24
 Full point group                 C1      NOp   1
 RotChk:  IX=0 Diff= 8.74D-15
 Largest Abelian subgroup         C1      NOp   1
 Largest concise Abelian subgroup C1      NOp   1
                         Standard orientation:                         
 ---------------------------------------------------------------------
 Center     Atomic      Atomic             Coordinates (Angstroms)
 Number     Number       Type             X           Y           Z
 ---------------------------------------------------------------------
      1          6           0       -0.999928    0.042716    0.000125
      2         16           0        0.841811   -0.191882   -0.000181
      3          8           0        1.156726   -0.783608    1.261446
      4          8           0        1.156452   -0.782555   -1.262312
      5          9           0       -1.373328    0.711984    1.080832
      6          9           0       -1.373343    0.714897   -1.078918
      7          7           0        1.336420    1.365793    0.000770
      8          1           0        1.812722    1.624589    0.851045
      9          1           0        1.808542    1.627005   -0.851109
     10          9           0       -1.581223   -1.145661   -0.001497
 ---------------------------------------------------------------------
 Rotational constants (GHZ):           2.6198117           1.5584135           1.5559694
 Leave Link  202 at Fri Jan  2 11:48:33 2026, MaxMem=  6442450944 cpu:               0.0 elap:               0.0
 (Enter /applications/g16/g16/l601.exe)
 Copying SCF densities to generalized density rwf, IOpCl= 0 IROHF=0.

 **********************************************************************

            Population analysis using the SCF density.

 **********************************************************************

 Orbital symmetries:
       Occupied  (A) (A) (A) (A) (A) (A) (A) (A) (A) (A) (A) (A)
                 (A) (A) (A) (A) (A) (A) (A) (A) (A) (A) (A) (A)
                 (A) (A) (A) (A) (A) (A) (A) (A) (A) (A) (A) (A)
                 (A)
       Virtual   (A) (A) (A) (A) (A) (A) (A) (A) (A) (A) (A) (A)
                 (A) (A) (A) (A) (A) (A) (A) (A) (A) (A) (A) (A)
                 (A) (A) (A) (A) (A) (A) (A) (A) (A) (A) (A) (A)
                 (A) (A) (A) (A) (A) (A) (A) (A) (A) (A) (A) (A)
                 (A) (A) (A) (A) (A) (A) (A) (A) (A) (A) (A) (A)
                 (A) (A) (A) (A) (A) (A) (A) (A) (A) (A) (A) (A)
                 (A) (A) (A) (A) (A) (A) (A) (A) (A) (A) (A) (A)
                 (A) (A) (A) (A) (A) (A) (A) (A) (A) (A) (A) (A)
                 (A) (A) (A) (A) (A) (A) (A) (A) (A) (A) (A) (A)
                 (A) (A) (A) (A) (A) (A) (A) (A) (A) (A) (A) (A)
                 (A) (A) (A) (A) (A) (A) (A) (A) (A) (A) (A) (A)
                 (A) (A) (A) (A) (A) (A) (A) (A) (A) (A) (A) (A)
                 (A) (A) (A) (A) (A) (A) (A) (A) (A) (A) (A) (A)
                 (A) (A) (A) (A) (A) (A) (A) (A) (A) (A) (A) (A)
                 (A) (A) (A) (A) (A) (A) (A) (A) (A) (A) (A) (A)
                 (A) (A) (A) (A) (A) (A) (A) (A) (A) (A) (A) (A)
                 (A) (A) (A) (A) (A) (A) (A) (A) (A) (A) (A) (A)
                 (A)
 The electronic state is 1-A.
 Alpha  occ. eigenvalues --  -89.26068 -24.87740 -24.87740 -24.87636 -19.28135
 Alpha  occ. eigenvalues --  -19.28133 -14.50128 -10.57972  -8.27350  -6.22214
 Alpha  occ. eigenvalues --   -6.22080  -6.22078  -1.46667  -1.37422  -1.37402
 Alpha  occ. eigenvalues --   -1.27179  -1.16020  -1.05944  -0.87387  -0.78918
 Alpha  occ. eigenvalues --   -0.73091  -0.72856  -0.70994  -0.67123  -0.63469
 Alpha  occ. eigenvalues --   -0.59750  -0.59636  -0.57924  -0.57341  -0.55998
 Alpha  occ. eigenvalues --   -0.55972  -0.53618  -0.48758  -0.45607  -0.43705
 Alpha  occ. eigenvalues --   -0.43261  -0.42292
 Alpha virt. eigenvalues --    0.04686   0.08235   0.09017   0.09589   0.10592
 Alpha virt. eigenvalues --    0.11623   0.12154   0.12507   0.13098   0.13694
 Alpha virt. eigenvalues --    0.14574   0.16175   0.17331   0.19109   0.20365
 Alpha virt. eigenvalues --    0.21993   0.22759   0.25984   0.27607   0.27797
 Alpha virt. eigenvalues --    0.28826   0.29365   0.29870   0.30243   0.32490
 Alpha virt. eigenvalues --    0.34249   0.34544   0.35956   0.37020   0.37453
 Alpha virt. eigenvalues --    0.38231   0.38356   0.38801   0.40212   0.41221
 Alpha virt. eigenvalues --    0.41243   0.42475   0.44596   0.46072   0.47756
 Alpha virt. eigenvalues --    0.48012   0.50349   0.51788   0.52142   0.54977
 Alpha virt. eigenvalues --    0.57583   0.62846   0.64389   0.69398   0.72199
 Alpha virt. eigenvalues --    0.73771   0.74533   0.76661   0.77378   0.80913
 Alpha virt. eigenvalues --    0.88146   0.88422   0.90769   0.91360   0.96460
 Alpha virt. eigenvalues --    0.98115   0.98690   1.01929   1.07179   1.08557
 Alpha virt. eigenvalues --    1.11633   1.15494   1.15693   1.17764   1.19813
 Alpha virt. eigenvalues --    1.21727   1.27333   1.27838   1.28488   1.30768
 Alpha virt. eigenvalues --    1.37033   1.38277   1.39635   1.41687   1.43440
 Alpha virt. eigenvalues --    1.44287   1.45878   1.47105   1.48477   1.52436
 Alpha virt. eigenvalues --    1.52573   1.54899   1.56585   1.57399   1.60589
 Alpha virt. eigenvalues --    1.61344   1.62363   1.67012   1.68206   1.73980
 Alpha virt. eigenvalues --    1.75498   1.83712   1.84824   1.86799   1.97949
 Alpha virt. eigenvalues --    1.99810   2.03800   2.04217   2.04672   2.05672
 Alpha virt. eigenvalues --    2.08138   2.08254   2.14560   2.15347   2.17904
 Alpha virt. eigenvalues --    2.18959   2.19461   2.21245   2.26199   2.26923
 Alpha virt. eigenvalues --    2.38080   2.39328   2.42821   2.55437   2.64940
 Alpha virt. eigenvalues --    2.66087   2.67821   2.71206   2.72893   2.82264
 Alpha virt. eigenvalues --    2.85017   2.90463   3.01098   3.04743   3.07030
 Alpha virt. eigenvalues --    3.16316   3.43328   3.44589   3.52466   3.55298
 Alpha virt. eigenvalues --    3.56154   3.73544   3.83701   3.84960   3.93143
 Alpha virt. eigenvalues --    3.95641   3.99665   4.16373   4.23632   4.28178
 Alpha virt. eigenvalues --    4.28362   4.59670   4.94363   5.02254   5.05503
 Alpha virt. eigenvalues --    5.13796   5.15443   5.15474   5.22252   5.23925
 Alpha virt. eigenvalues --    5.34924   5.50651   5.59435   5.95537   6.38171
 Alpha virt. eigenvalues --    6.39578   6.43526   6.47135   6.47140   6.49681
 Alpha virt. eigenvalues --    6.51707   6.82069   6.83408   6.84193   6.84725
 Alpha virt. eigenvalues --    6.89121   6.90466   6.98180   7.04991   7.13098
 Alpha virt. eigenvalues --    7.22392   7.37510   7.43991   8.41981   9.07859
 Alpha virt. eigenvalues --    9.09648   9.10191   9.21277   9.21427   9.21492
 Alpha virt. eigenvalues --    9.24170   9.31453   9.31853   9.49343   9.66573
 Alpha virt. eigenvalues --    9.67827   9.68705   9.87502   9.87661  17.63998
 Alpha virt. eigenvalues --   17.71198  17.75862  24.00868  35.66674  49.99935
 Alpha virt. eigenvalues --   50.06548  66.93767  66.93818  66.97490 189.67364
          Condensed to atoms (all electrons):
               1          2          3          4          5          6
     1  C    4.375995   0.228180  -0.121186  -0.121239   0.258302   0.258073
     2  S    0.228180  13.542918   0.561177   0.561087  -0.018374  -0.018152
     3  O   -0.121186   0.561177   8.118571   0.000912   0.005686   0.003069
     4  O   -0.121239   0.561087   0.000912   8.118328   0.003051   0.005643
     5  F    0.258302  -0.018374   0.005686   0.003051   9.024072   0.008799
     6  F    0.258073  -0.018152   0.003069   0.005643   0.008799   9.024166
     7  N   -0.061119   0.227451  -0.108131  -0.108246   0.017645   0.017670
     8  H    0.003653   0.000708   0.014666  -0.004177  -0.003863   0.000293
     9  H    0.003584   0.000892  -0.004140   0.014644   0.000288  -0.003888
    10  F    0.291084  -0.055108   0.007256   0.007311  -0.004221  -0.004219
               7          8          9         10
     1  C   -0.061119   0.003653   0.003584   0.291084
     2  S    0.227451   0.000708   0.000892  -0.055108
     3  O   -0.108131   0.014666  -0.004140   0.007256
     4  O   -0.108246  -0.004177   0.014644   0.007311
     5  F    0.017645  -0.003863   0.000288  -0.004221
     6  F    0.017670   0.000293  -0.003888  -0.004219
     7  N    6.731237   0.363301   0.363189   0.003600
     8  H    0.363301   0.448323  -0.025557  -0.000182
     9  H    0.363189  -0.025557   0.448411  -0.000183
    10  F    0.003600  -0.000182  -0.000183   9.029522
 Mulliken charges:
               1
     1  C    0.884673
     2  S    0.969222
     3  O   -0.477880
     4  O   -0.477314
     5  F   -0.291385
     6  F   -0.291453
     7  N   -0.446596
     8  H    0.202833
     9  H    0.202760
    10  F   -0.274859
 Sum of Mulliken charges =  -0.00000
 Mulliken charges with hydrogens summed into heavy atoms:
               1
     1  C    0.884673
     2  S    0.969222
     3  O   -0.477880
     4  O   -0.477314
     5  F   -0.291385
     6  F   -0.291453
     7  N   -0.041003
    10  F   -0.274859
 Electronic spatial extent (au):  <R**2>=            868.2989
 Charge=              0.0000 electrons
 Dipole moment (field-independent basis, Debye):
    X=              1.2936    Y=              3.3719    Z=             -0.0009  Tot=              3.6115
 Quadrupole moment (field-independent basis, Debye-Ang):
   XX=            -47.1584   YY=            -49.3725   ZZ=            -53.5720
   XY=              7.5603   XZ=              0.0044   YZ=             -0.0064
 Traceless Quadrupole moment (field-independent basis, Debye-Ang):
   XX=              2.8759   YY=              0.6618   ZZ=             -3.5377
   XY=              7.5603   XZ=              0.0044   YZ=             -0.0064
 Octapole moment (field-independent basis, Debye-Ang**2):
  XXX=             -7.7326  YYY=              5.2751  ZZZ=              0.0041  XYY=              2.2241
  XXY=             13.8828  XXZ=              0.0254  XZZ=             -6.4156  YZZ=              7.7345
  YYZ=             -0.0220  XYZ=              0.0022
 Hexadecapole moment (field-independent basis, Debye-Ang**3):
 XXXX=           -459.6943 YYYY=           -228.5925 ZZZZ=           -226.4306 XXXY=             23.5590
 XXXZ=              0.0662 YYYX=             16.0996 YYYZ=             -0.0488 ZZZX=              0.0125
 ZZZY=             -0.0133 XXYY=           -103.3640 XXZZ=           -117.1940 YYZZ=            -72.0969
 XXYZ=              0.0291 YYXZ=             -0.0200 ZZXY=             13.3200
 N-N= 5.675535006234D+02 E-N=-3.369996089093D+03  KE= 9.402502412066D+02
 No NMR shielding tensors so no spin-rotation constants.
 Leave Link  601 at Fri Jan  2 11:48:33 2026, MaxMem=  6442450944 cpu:               4.4 elap:               0.2
 (Enter /applications/g16/g16/l9999.exe)
 1\1\GINC-CCLEARTI\FOpt\RwB97XD\6-311+G(2d,2p)\C1H2F3N1O2S1\RAPPE\02-Ja
 n-2026\0\\#p opt freq wb97xd/6-311+g(2d,2p)\\Title Card Required\\0,1\
 C,1.0658710857,0.5777662357,-0.1851118874\S,2.632965073,-0.3807664283,
 0.0840912312\O,2.7129644461,-0.6038022329,1.4929452633\O,2.6212201854,
 -1.423672608,-0.8921655635\F,1.0511644485,1.6527675567,0.589118435\F,0
 .9737032821,0.9527704583,-1.4525807677\N,3.7411227093,0.741614465,-0.3
 439727007\H,4.3128508884,1.0422283789,0.4303429589\H,4.2480815928,0.49
 23628411,-1.1792543623\F,0.0358519386,-0.1947865663,0.1188114531\\Vers
 ion=EM64M-G16RevA.03\State=1-A\HF=-942.2182876\RMSD=6.085e-09\RMSF=6.1
 07e-05\Dipole=1.0230828,0.9193789,-0.3563051\Quadrupole=6.1497326,-3.5
 044694,-2.6452632,2.696806,-1.2658005,0.1912412\PG=C01 [X(C1H2F3N1O2S1
 )]\\@


 WHEN IT COMES TO CASH FLOW, IT SEEMS LIKE THE TIDE IS ALWAYS GOING OUT.
 Leave Link 9999 at Fri Jan  2 11:48:33 2026, MaxMem=  6442450944 cpu:               1.3 elap:               0.1
 Job cpu time:       0 days  1 hours 17 minutes 24.4 seconds.
 Elapsed time:       0 days  0 hours  3 minutes 55.6 seconds.
 File lengths (MBytes):  RWF=     32 Int=      0 D2E=      0 Chk=      5 Scr=      1
 Normal termination of Gaussian 16 at Fri Jan  2 11:48:33 2026.
 (Enter /applications/g16/g16/l1.exe)
 Link1:  Proceeding to internal job step number  2.
 ----------------------------------------------------------------------
 #P Geom=AllCheck Guess=TCheck SCRF=Check GenChk RwB97XD/6-311+G(2d,2p)
  Freq
 ----------------------------------------------------------------------
 1/10=4,29=7,30=1,38=1,40=1/1,3;
 2/12=2,40=1/2;
 3/5=4,6=6,7=212,11=2,14=-4,25=1,30=1,70=2,71=2,74=-58,116=1,140=1/1,2,3;
 4/5=101/1;
 5/5=2,38=6,98=1/2;
 8/6=4,10=90,11=11/1;
 11/6=1,8=1,9=11,15=111,16=1/1,2,10;
 10/6=1/2;
 6/7=2,8=2,9=2,10=2,28=1/1;
 7/8=1,10=1,25=1/1,2,3,16;
 1/10=4,30=1/3;
 99//99;
 Leave Link    1 at Fri Jan  2 11:48:33 2026, MaxMem=  6442450944 cpu:               1.0 elap:               0.0
 (Enter /applications/g16/g16/l101.exe)
 Structure from the checkpoint file:  "triflate_amide.chk"
 -------------------
 Title Card Required
 -------------------
 Charge =  0 Multiplicity = 1
 Redundant internal coordinates found in file.  (old form).
 C,0,1.0658710857,0.5777662357,-0.1851118874
 S,0,2.632965073,-0.3807664283,0.0840912312
 O,0,2.7129644461,-0.6038022329,1.4929452633
 O,0,2.6212201854,-1.423672608,-0.8921655635
 F,0,1.0511644485,1.6527675567,0.589118435
 F,0,0.9737032821,0.9527704583,-1.4525807677
 N,0,3.7411227093,0.741614465,-0.3439727007
 H,0,4.3128508884,1.0422283789,0.4303429589
 H,0,4.2480815928,0.4923628411,-1.1792543623
 F,0,0.0358519386,-0.1947865663,0.1188114531
 Recover connectivity data from disk.
 ITRead=  0  0  0  0  0  0  0  0  0  0
 MicOpt= -1 -1 -1 -1 -1 -1 -1 -1 -1 -1
 NAtoms=     10 NQM=       10 NQMF=       0 NMMI=      0 NMMIF=      0
                NMic=       0 NMicF=      0.
                    Isotopes and Nuclear Properties:
 (Nuclear quadrupole moments (NQMom) in fm**2, nuclear magnetic moments (NMagM)
  in nuclear magnetons)

  Atom         1           2           3           4           5           6           7           8           9          10
 IAtWgt=          12          32          16          16          19          19          14           1           1          19
 AtmWgt=  12.0000000  31.9720718  15.9949146  15.9949146  18.9984033  18.9984033  14.0030740   1.0078250   1.0078250  18.9984033
 NucSpn=           0           0           0           0           1           1           2           1           1           1
 AtZEff=   3.6000000  13.6000000   5.6000000   5.6000000   6.7500000   6.7500000   4.5500000   1.0000000   1.0000000   6.7500000
 NQMom=    0.0000000   0.0000000   0.0000000   0.0000000   0.0000000   0.0000000   2.0440000   0.0000000   0.0000000   0.0000000
 NMagM=    0.0000000   0.0000000   0.0000000   0.0000000   2.6288670   2.6288670   0.4037610   2.7928460   2.7928460   2.6288670
 AtZNuc=   6.0000000  16.0000000   8.0000000   8.0000000   9.0000000   9.0000000   7.0000000   1.0000000   1.0000000   9.0000000
 Leave Link  101 at Fri Jan  2 11:48:34 2026, MaxMem=  6442450944 cpu:              16.7 elap:               0.7
 (Enter /applications/g16/g16/l103.exe)

 GradGradGradGradGradGradGradGradGradGradGradGradGradGradGradGradGradGrad
 Berny optimization.
 Initialization pass.
                           ----------------------------
                           !    Initial Parameters    !
                           ! (Angstroms and Degrees)  !
 --------------------------                            --------------------------
 ! Name  Definition              Value          Derivative Info.                !
 --------------------------------------------------------------------------------
 ! R1    R(1,2)                  1.8566         calculate D2E/DX2 analytically  !
 ! R2    R(1,5)                  1.3249         calculate D2E/DX2 analytically  !
 ! R3    R(1,6)                  1.325          calculate D2E/DX2 analytically  !
 ! R4    R(1,10)                 1.3229         calculate D2E/DX2 analytically  !
 ! R5    R(2,3)                  1.4286         calculate D2E/DX2 analytically  !
 ! R6    R(2,4)                  1.4286         calculate D2E/DX2 analytically  !
 ! R7    R(2,7)                  1.6343         calculate D2E/DX2 analytically  !
 ! R8    R(7,8)                  1.0084         calculate D2E/DX2 analytically  !
 ! R9    R(7,9)                  1.0084         calculate D2E/DX2 analytically  !
 ! A1    A(2,1,5)              110.093          calculate D2E/DX2 analytically  !
 ! A2    A(2,1,6)              110.0924         calculate D2E/DX2 analytically  !
 ! A3    A(2,1,10)             108.8064         calculate D2E/DX2 analytically  !
 ! A4    A(5,1,6)              109.1835         calculate D2E/DX2 analytically  !
 ! A5    A(5,1,10)             109.3258         calculate D2E/DX2 analytically  !
 ! A6    A(6,1,10)             109.3222         calculate D2E/DX2 analytically  !
 ! A7    A(1,2,3)              105.715          calculate D2E/DX2 analytically  !
 ! A8    A(1,2,4)              105.7161         calculate D2E/DX2 analytically  !
 ! A9    A(1,2,7)              100.357          calculate D2E/DX2 analytically  !
 ! A10   A(3,2,4)              124.0833         calculate D2E/DX2 analytically  !
 ! A11   A(3,2,7)              109.1196         calculate D2E/DX2 analytically  !
 ! A12   A(4,2,7)              109.1435         calculate D2E/DX2 analytically  !
 ! A13   A(2,7,8)              112.8335         calculate D2E/DX2 analytically  !
 ! A14   A(2,7,9)              112.8362         calculate D2E/DX2 analytically  !
 ! A15   A(8,7,9)              115.1326         calculate D2E/DX2 analytically  !
 ! D1    D(5,1,2,3)             53.1599         calculate D2E/DX2 analytically  !
 ! D2    D(5,1,2,4)           -173.6878         calculate D2E/DX2 analytically  !
 ! D3    D(5,1,2,7)            -60.2508         calculate D2E/DX2 analytically  !
 ! D4    D(6,1,2,3)            173.5826         calculate D2E/DX2 analytically  !
 ! D5    D(6,1,2,4)            -53.265          calculate D2E/DX2 analytically  !
 ! D6    D(6,1,2,7)             60.172          calculate D2E/DX2 analytically  !
 ! D7    D(10,1,2,3)           -66.6312         calculate D2E/DX2 analytically  !
 ! D8    D(10,1,2,4)            66.5212         calculate D2E/DX2 analytically  !
 ! D9    D(10,1,2,7)           179.9582         calculate D2E/DX2 analytically  !
 ! D10   D(1,2,7,8)            113.8254         calculate D2E/DX2 analytically  !
 ! D11   D(1,2,7,9)           -113.5396         calculate D2E/DX2 analytically  !
 ! D12   D(3,2,7,8)              3.0461         calculate D2E/DX2 analytically  !
 ! D13   D(3,2,7,9)            135.681          calculate D2E/DX2 analytically  !
 ! D14   D(4,2,7,8)           -135.3862         calculate D2E/DX2 analytically  !
 ! D15   D(4,2,7,9)             -2.7512         calculate D2E/DX2 analytically  !
 --------------------------------------------------------------------------------
 Trust Radius=3.00D-01 FncErr=1.00D-07 GrdErr=1.00D-07 EigMax=2.50D+02 EigMin=1.00D-04
 Number of steps in this run=      2 maximum allowed number of steps=      2.
 GradGradGradGradGradGradGradGradGradGradGradGradGradGradGradGradGradGrad

 Leave Link  103 at Fri Jan  2 11:48:34 2026, MaxMem=  6442450944 cpu:               0.2 elap:               0.0
 (Enter /applications/g16/g16/l202.exe)
                          Input orientation:                          
 ---------------------------------------------------------------------
 Center     Atomic      Atomic             Coordinates (Angstroms)
 Number     Number       Type             X           Y           Z
 ---------------------------------------------------------------------
      1          6           0        1.065871    0.577766   -0.185112
      2         16           0        2.632965   -0.380766    0.084091
      3          8           0        2.712964   -0.603802    1.492945
      4          8           0        2.621220   -1.423673   -0.892166
      5          9           0        1.051164    1.652768    0.589118
      6          9           0        0.973703    0.952770   -1.452581
      7          7           0        3.741123    0.741614   -0.343973
      8          1           0        4.312851    1.042228    0.430343
      9          1           0        4.248082    0.492363   -1.179254
     10          9           0        0.035852   -0.194787    0.118811
 ---------------------------------------------------------------------
                    Distance matrix (angstroms):
                    1          2          3          4          5
     1  C    0.000000
     2  S    1.856620   0.000000
     3  O    2.631520   1.428641   0.000000
     4  O    2.631500   1.428590   2.523759   0.000000
     5  F    1.324869   2.625339   2.944586   3.758159   0.000000
     6  F    1.324991   2.625420   3.758201   2.945481   2.159753
     7  N    2.684968   1.634317   2.498304   2.498633   2.989437
     8  H    3.337272   2.228637   2.529462   3.269757   3.322133
     9  H    3.334978   2.228676   3.270904   2.529879   3.833270
    10  F    1.322931   2.603995   3.036852   3.035847   2.159978
                    6          7          8          9         10
     6  F    0.000000
     7  N    2.988680   0.000000
     8  H    3.834490   1.008368   0.000000
     9  H    3.317866   1.008379   1.702161   0.000000
    10  F    2.160029   3.849681   4.463180   4.460945   0.000000
 Stoichiometry    CH2F3NO2S
 Framework group  C1[X(CH2F3NO2S)]
 Deg. of freedom    24
 Full point group                 C1      NOp   1
 RotChk:  IX=0 Diff= 2.93D-14
 Largest Abelian subgroup         C1      NOp   1
 Largest concise Abelian subgroup C1      NOp   1
                         Standard orientation:                         
 ---------------------------------------------------------------------
 Center     Atomic      Atomic             Coordinates (Angstroms)
 Number     Number       Type             X           Y           Z
 ---------------------------------------------------------------------
      1          6           0       -0.999928    0.042716    0.000125
      2         16           0        0.841811   -0.191882   -0.000181
      3          8           0        1.156726   -0.783608    1.261446
      4          8           0        1.156452   -0.782555   -1.262312
      5          9           0       -1.373328    0.711984    1.080832
      6          9           0       -1.373343    0.714897   -1.078918
      7          7           0        1.336420    1.365793    0.000770
      8          1           0        1.812722    1.624589    0.851045
      9          1           0        1.808542    1.627005   -0.851109
     10          9           0       -1.581223   -1.145661   -0.001497
 ---------------------------------------------------------------------
 Rotational constants (GHZ):           2.6198117           1.5584135           1.5559694
 Leave Link  202 at Fri Jan  2 11:48:34 2026, MaxMem=  6442450944 cpu:               0.1 elap:               0.0
 (Enter /applications/g16/g16/l301.exe)
 Standard basis: 6-311+G(2d,2p) (5D, 7F)
 Ernie: Thresh=  0.10000D-02 Tol=  0.10000D-05 Strict=F.
 There are   258 symmetry adapted cartesian basis functions of A   symmetry.
 There are   242 symmetry adapted basis functions of A   symmetry.
   242 basis functions,   372 primitive gaussians,   258 cartesian basis functions
    37 alpha electrons       37 beta electrons
       nuclear repulsion energy       567.5569392878 Hartrees.
 IExCor= 4639 DFT=T Ex+Corr=wB97XD ExCW=0 ScaHFX=  1.000000
 ScaDFX=  1.000000  1.000000  1.000000  1.000000 ScalE2=  1.000000  1.000000
 IRadAn=      5 IRanWt=     -1 IRanGd=            0 ICorTp=0 IEmpDi=121
 HFx  wShort=  0.000000 wLong=  0.200000 cFull=  0.222036 cShort=  0.000000 cLong=  0.777964
 DFx  wShort=  0.000000 wLong=  0.200000 cFull=  0.000000 cShort=  0.000000 cLong=  1.000000
 NAtoms=   10 NActive=   10 NUniq=   10 SFac= 1.00D+00 NAtFMM=   60 NAOKFM=F Big=F
 Integral buffers will be    131072 words long.
 Raffenetti 2 integral format.
 Two-electron integral symmetry is turned on.
 R6Disp:  Grimme-D2 Dispersion energy=       -0.0034386643 Hartrees.
 Nuclear repulsion after empirical dispersion term =      567.5535006234 Hartrees.
 Leave Link  301 at Fri Jan  2 11:48:34 2026, MaxMem=  6442450944 cpu:               1.3 elap:               0.1
 (Enter /applications/g16/g16/l302.exe)
 NPDir=0 NMtPBC=     1 NCelOv=     1 NCel=       1 NClECP=     1 NCelD=      1
         NCelK=      1 NCelE2=     1 NClLst=     1 CellRange=     0.0.
 One-electron integrals computed using PRISM.
 One-electron integral symmetry used in STVInt
 NBasis=   242 RedAO= T EigKep=  2.18D-04  NBF=   242
 NBsUse=   242 1.00D-06 EigRej= -1.00D+00 NBFU=   242
 Precomputing XC quadrature grid using
 IXCGrd= 4 IRadAn=           5 IRanWt=          -1 IRanGd=           0 AccXCQ= 0.00D+00.
 Generated NRdTot=       0 NPtTot=           0 NUsed=           0 NTot=          32
 NSgBfM=   258   258   258   258   258 MxSgAt=    10 MxSgA2=    10.
 Leave Link  302 at Fri Jan  2 11:48:34 2026, MaxMem=  6442450944 cpu:               7.0 elap:               0.3
 (Enter /applications/g16/g16/l303.exe)
 DipDrv:  MaxL=1.
 Leave Link  303 at Fri Jan  2 11:48:34 2026, MaxMem=  6442450944 cpu:               1.1 elap:               0.0
 (Enter /applications/g16/g16/l401.exe)
 Initial guess from the checkpoint file:  "triflate_amide.chk"
 B after Tr=     0.000000    0.000000   -0.000000
         Rot=    1.000000    0.000000    0.000000   -0.000000 Ang=   0.00 deg.
 Guess basis will be translated and rotated to current coordinates.
 JPrj=2 DoOrth=T DoCkMO=T.
 Leave Link  401 at Fri Jan  2 11:48:35 2026, MaxMem=  6442450944 cpu:               5.3 elap:               0.2
 (Enter /applications/g16/g16/l502.exe)
 Keep R1 ints in memory in canonical form, NReq=890653791.
 FoFCou: FMM=F IPFlag=           0 FMFlag=           0 FMFlg1=           0
         NFxFlg=           0 DoJE=F BraDBF=F KetDBF=F FulRan=T
         wScrn=  0.000000 ICntrl=       600 IOpCl=  0 I1Cent=           0 NGrid=           0
         NMat0=    1 NMatS0=  29403 NMatT0=    0 NMatD0=    1 NMtDS0=    0 NMtDT0=    0
 Symmetry not used in FoFCou.
 Two-electron integral symmetry not used.
 Closed shell SCF:
 Using DIIS extrapolation, IDIIS=  1040.
 NGot=  6442450944 LenX=  5577743467 LenY=  5577676462
 Requested convergence on RMS density matrix=1.00D-08 within 128 cycles.
 Requested convergence on MAX density matrix=1.00D-06.
 Requested convergence on             energy=1.00D-06.
 No special actions if energy rises.

 Cycle   1  Pass 1  IDiag  1:
 E= -942.218287642509    
 DIIS: error= 9.77D-09 at cycle   1 NSaved=   1.
 NSaved= 1 IEnMin= 1 EnMin= -942.218287642509     IErMin= 1 ErrMin= 9.77D-09
 ErrMax= 9.77D-09  0.00D+00 EMaxC= 1.00D-01 BMatC= 4.17D-14 BMatP= 4.17D-14
 IDIUse=1 WtCom= 1.00D+00 WtEn= 0.00D+00
 Coeff-Com:  0.100D+01
 Coeff:      0.100D+01
 Gap=     0.470 Goal=   None    Shift=    0.000
 RMSDP=1.99D-09 MaxDP=6.05D-08              OVMax= 7.75D-08

 SCF Done:  E(RwB97XD) =  -942.218287643     A.U. after    1 cycles
            NFock=  1  Conv=0.20D-08     -V/T= 2.0021
 KE= 9.402502426363D+02 PE=-3.369996090522D+03 EE= 9.199740596203D+02
 Leave Link  502 at Fri Jan  2 11:48:41 2026, MaxMem=  6442450944 cpu:             134.7 elap:               6.2
 (Enter /applications/g16/g16/l801.exe)
 DoSCS=F DFT=T ScalE2(SS,OS)=  1.000000  1.000000
 Range of M.O.s used for correlation:     1   242
 NBasis=   242 NAE=    37 NBE=    37 NFC=     0 NFV=     0
 NROrb=    242 NOA=    37 NOB=    37 NVA=   205 NVB=   205

 **** Warning!!: The largest alpha MO coefficient is  0.21750405D+02

 Leave Link  801 at Fri Jan  2 11:48:41 2026, MaxMem=  6442450944 cpu:               1.0 elap:               0.1
 (Enter /applications/g16/g16/l1101.exe)
 Using compressed storage, NAtomX=    10.
 Will process     11 centers per pass.
 R6Disp: Adding Grimme-D2 dispersion energy 1st derivatives to the gradient.
 Leave Link 1101 at Fri Jan  2 11:48:42 2026, MaxMem=  6442450944 cpu:               7.5 elap:               0.3
 (Enter /applications/g16/g16/l1102.exe)
 Symmetrizing basis deriv contribution to polar:
 IMax=3 JMax=2 DiffMx= 0.00D+00
 Leave Link 1102 at Fri Jan  2 11:48:42 2026, MaxMem=  6442450944 cpu:               1.4 elap:               0.1
 (Enter /applications/g16/g16/l1110.exe)
 Forming Gx(P) for the SCF density, NAtomX=    10.
 Integral derivatives from FoFJK, PRISM(SPDF).
 Do as many integral derivatives as possible in FoFJK.
 G2DrvN: MDV=    6442450088.
 G2DrvN: will do    11 centers at a time, making    1 passes.
 Calling FoFCou, ICntrl=  3107 FMM=F I1Cent=   0 AccDes= 0.00D+00.
 FoFJK:  IHMeth= 1 ICntrl=    3107 DoSepK=T KAlg= 0 I1Cent=           0 FoldK=F
 IRaf=         1 NMat=       1 IRICut=       1 DoRegI=T DoRafI=F ISym2E= 0 IDoP0=0 IntGTp=1.
 FoFCou: FMM=F IPFlag=           0 FMFlag=      100000 FMFlg1=           0
         NFxFlg=           0 DoJE=F BraDBF=F KetDBF=F FulRan=T
         wScrn=  0.000000 ICntrl=      3507 IOpCl=  0 I1Cent=           0 NGrid=           0
         NMat0=    1 NMatS0=      1 NMatT0=    0 NMatD0=    1 NMtDS0=    0 NMtDT0=    0
 Symmetry not used in FoFCou.
 End of G2Drv F.D. properties file   721 does not exist.
 End of G2Drv F.D. properties file   722 does not exist.
 End of G2Drv F.D. properties file   788 does not exist.
 Leave Link 1110 at Fri Jan  2 11:49:13 2026, MaxMem=  6442450944 cpu:             746.2 elap:              31.3
 (Enter /applications/g16/g16/l1002.exe)
 Minotr:  Closed shell wavefunction.
          IDoAtm=1111111111
          Direct CPHF calculation.
          Differentiating once with respect to electric field.
                with respect to dipole field.
          Differentiating once with respect to nuclear coordinates.
          Requested convergence is 1.0D-08 RMS, and 1.0D-07 maximum.
          Secondary convergence is 1.0D-12 RMS, and 1.0D-12 maximum.
          NewPWx=T KeepS1=F KeepF1=F KeepIn=T MapXYZ=F SortEE=F KeepMc=T.
         3051 words used for storage of precomputed grid.
 Keep R1 ints in memory in canonical form, NReq=890579722.
 FoFCou: FMM=F IPFlag=           0 FMFlag=           0 FMFlg1=           0
         NFxFlg=           0 DoJE=F BraDBF=F KetDBF=F FulRan=T
         wScrn=  0.000000 ICntrl=       600 IOpCl=  0 I1Cent=           0 NGrid=           0
         NMat0=    1 NMatS0=  29403 NMatT0=    0 NMatD0=    1 NMtDS0=    0 NMtDT0=    0
 Symmetry not used in FoFCou.
 Two-electron integral symmetry not used.
          MDV=    6442450944 using IRadAn=       1.
          Solving linear equations simultaneously, MaxMat=       0.
          There are    33 degrees of freedom in the 1st order CPHF.  IDoFFX=6 NUNeed=     3.
     30 vectors produced by pass  0 Test12= 2.30D-14 3.03D-09 XBig12= 1.97D+01 9.89D-01.
 AX will form    30 AO Fock derivatives at one time.
     30 vectors produced by pass  1 Test12= 2.30D-14 3.03D-09 XBig12= 4.58D+00 3.18D-01.
     30 vectors produced by pass  2 Test12= 2.30D-14 3.03D-09 XBig12= 1.03D-01 4.62D-02.
     30 vectors produced by pass  3 Test12= 2.30D-14 3.03D-09 XBig12= 1.90D-03 6.94D-03.
     30 vectors produced by pass  4 Test12= 2.30D-14 3.03D-09 XBig12= 2.41D-05 7.58D-04.
     30 vectors produced by pass  5 Test12= 2.30D-14 3.03D-09 XBig12= 2.41D-07 1.07D-04.
     30 vectors produced by pass  6 Test12= 2.30D-14 3.03D-09 XBig12= 2.60D-09 1.22D-05.
     16 vectors produced by pass  7 Test12= 2.30D-14 3.03D-09 XBig12= 1.87D-11 7.07D-07.
      5 vectors produced by pass  8 Test12= 2.30D-14 3.03D-09 XBig12= 1.20D-13 5.07D-08.
      2 vectors produced by pass  9 Test12= 2.30D-14 3.03D-09 XBig12= 9.97D-16 5.53D-09.
 InvSVY:  IOpt=1 It=  1 EMax= 8.88D-16
 Solved reduced A of dimension   233 with    33 vectors.
 FullF1:  Do perturbations      1 to       3.
 Isotropic polarizability for W=    0.000000       48.52 Bohr**3.
 End of Minotr F.D. properties file   721 does not exist.
 End of Minotr F.D. properties file   722 does not exist.
 End of Minotr F.D. properties file   788 does not exist.
 Leave Link 1002 at Fri Jan  2 11:49:55 2026, MaxMem=  6442450944 cpu:             995.2 elap:              42.0
 (Enter /applications/g16/g16/l601.exe)
 Copying SCF densities to generalized density rwf, IOpCl= 0 IROHF=0.

 **********************************************************************

            Population analysis using the SCF density.

 **********************************************************************

 Orbital symmetries:
       Occupied  (A) (A) (A) (A) (A) (A) (A) (A) (A) (A) (A) (A)
                 (A) (A) (A) (A) (A) (A) (A) (A) (A) (A) (A) (A)
                 (A) (A) (A) (A) (A) (A) (A) (A) (A) (A) (A) (A)
                 (A)
       Virtual   (A) (A) (A) (A) (A) (A) (A) (A) (A) (A) (A) (A)
                 (A) (A) (A) (A) (A) (A) (A) (A) (A) (A) (A) (A)
                 (A) (A) (A) (A) (A) (A) (A) (A) (A) (A) (A) (A)
                 (A) (A) (A) (A) (A) (A) (A) (A) (A) (A) (A) (A)
                 (A) (A) (A) (A) (A) (A) (A) (A) (A) (A) (A) (A)
                 (A) (A) (A) (A) (A) (A) (A) (A) (A) (A) (A) (A)
                 (A) (A) (A) (A) (A) (A) (A) (A) (A) (A) (A) (A)
                 (A) (A) (A) (A) (A) (A) (A) (A) (A) (A) (A) (A)
                 (A) (A) (A) (A) (A) (A) (A) (A) (A) (A) (A) (A)
                 (A) (A) (A) (A) (A) (A) (A) (A) (A) (A) (A) (A)
                 (A) (A) (A) (A) (A) (A) (A) (A) (A) (A) (A) (A)
                 (A) (A) (A) (A) (A) (A) (A) (A) (A) (A) (A) (A)
                 (A) (A) (A) (A) (A) (A) (A) (A) (A) (A) (A) (A)
                 (A) (A) (A) (A) (A) (A) (A) (A) (A) (A) (A) (A)
                 (A) (A) (A) (A) (A) (A) (A) (A) (A) (A) (A) (A)
                 (A) (A) (A) (A) (A) (A) (A) (A) (A) (A) (A) (A)
                 (A) (A) (A) (A) (A) (A) (A) (A) (A) (A) (A) (A)
                 (A)
 The electronic state is 1-A.
 Alpha  occ. eigenvalues --  -89.26068 -24.87740 -24.87740 -24.87636 -19.28135
 Alpha  occ. eigenvalues --  -19.28133 -14.50128 -10.57972  -8.27350  -6.22214
 Alpha  occ. eigenvalues --   -6.22080  -6.22078  -1.46667  -1.37422  -1.37402
 Alpha  occ. eigenvalues --   -1.27179  -1.16020  -1.05944  -0.87387  -0.78918
 Alpha  occ. eigenvalues --   -0.73091  -0.72856  -0.70994  -0.67123  -0.63469
 Alpha  occ. eigenvalues --   -0.59750  -0.59636  -0.57924  -0.57341  -0.55998
 Alpha  occ. eigenvalues --   -0.55972  -0.53618  -0.48758  -0.45607  -0.43705
 Alpha  occ. eigenvalues --   -0.43261  -0.42292
 Alpha virt. eigenvalues --    0.04686   0.08235   0.09017   0.09589   0.10592
 Alpha virt. eigenvalues --    0.11623   0.12154   0.12507   0.13098   0.13694
 Alpha virt. eigenvalues --    0.14574   0.16175   0.17331   0.19109   0.20365
 Alpha virt. eigenvalues --    0.21993   0.22759   0.25984   0.27607   0.27797
 Alpha virt. eigenvalues --    0.28826   0.29365   0.29870   0.30243   0.32490
 Alpha virt. eigenvalues --    0.34249   0.34544   0.35956   0.37020   0.37453
 Alpha virt. eigenvalues --    0.38231   0.38356   0.38801   0.40212   0.41221
 Alpha virt. eigenvalues --    0.41243   0.42475   0.44596   0.46072   0.47756
 Alpha virt. eigenvalues --    0.48012   0.50349   0.51788   0.52142   0.54977
 Alpha virt. eigenvalues --    0.57583   0.62846   0.64389   0.69398   0.72199
 Alpha virt. eigenvalues --    0.73771   0.74533   0.76661   0.77378   0.80913
 Alpha virt. eigenvalues --    0.88146   0.88422   0.90769   0.91360   0.96460
 Alpha virt. eigenvalues --    0.98115   0.98690   1.01929   1.07179   1.08557
 Alpha virt. eigenvalues --    1.11633   1.15494   1.15693   1.17764   1.19813
 Alpha virt. eigenvalues --    1.21727   1.27333   1.27838   1.28488   1.30768
 Alpha virt. eigenvalues --    1.37033   1.38277   1.39635   1.41687   1.43440
 Alpha virt. eigenvalues --    1.44287   1.45878   1.47105   1.48477   1.52436
 Alpha virt. eigenvalues --    1.52573   1.54899   1.56585   1.57399   1.60589
 Alpha virt. eigenvalues --    1.61344   1.62363   1.67012   1.68206   1.73980
 Alpha virt. eigenvalues --    1.75498   1.83712   1.84824   1.86799   1.97949
 Alpha virt. eigenvalues --    1.99810   2.03800   2.04217   2.04672   2.05672
 Alpha virt. eigenvalues --    2.08138   2.08254   2.14560   2.15347   2.17904
 Alpha virt. eigenvalues --    2.18959   2.19461   2.21245   2.26199   2.26923
 Alpha virt. eigenvalues --    2.38080   2.39328   2.42821   2.55437   2.64940
 Alpha virt. eigenvalues --    2.66087   2.67821   2.71206   2.72893   2.82264
 Alpha virt. eigenvalues --    2.85017   2.90463   3.01098   3.04743   3.07030
 Alpha virt. eigenvalues --    3.16316   3.43328   3.44589   3.52466   3.55298
 Alpha virt. eigenvalues --    3.56154   3.73544   3.83701   3.84960   3.93143
 Alpha virt. eigenvalues --    3.95641   3.99665   4.16373   4.23632   4.28178
 Alpha virt. eigenvalues --    4.28362   4.59670   4.94363   5.02254   5.05503
 Alpha virt. eigenvalues --    5.13796   5.15443   5.15474   5.22252   5.23925
 Alpha virt. eigenvalues --    5.34924   5.50651   5.59435   5.95537   6.38171
 Alpha virt. eigenvalues --    6.39578   6.43526   6.47135   6.47140   6.49681
 Alpha virt. eigenvalues --    6.51707   6.82069   6.83408   6.84193   6.84725
 Alpha virt. eigenvalues --    6.89121   6.90466   6.98180   7.04991   7.13098
 Alpha virt. eigenvalues --    7.22392   7.37510   7.43991   8.41981   9.07859
 Alpha virt. eigenvalues --    9.09648   9.10191   9.21277   9.21427   9.21492
 Alpha virt. eigenvalues --    9.24170   9.31453   9.31853   9.49343   9.66573
 Alpha virt. eigenvalues --    9.67827   9.68705   9.87502   9.87661  17.63998
 Alpha virt. eigenvalues --   17.71198  17.75862  24.00868  35.66674  49.99935
 Alpha virt. eigenvalues --   50.06548  66.93767  66.93818  66.97490 189.67364
          Condensed to atoms (all electrons):
               1          2          3          4          5          6
     1  C    4.375995   0.228180  -0.121186  -0.121239   0.258302   0.258073
     2  S    0.228180  13.542917   0.561177   0.561087  -0.018374  -0.018152
     3  O   -0.121186   0.561177   8.118571   0.000912   0.005686   0.003069
     4  O   -0.121239   0.561087   0.000912   8.118328   0.003051   0.005643
     5  F    0.258302  -0.018374   0.005686   0.003051   9.024072   0.008799
     6  F    0.258073  -0.018152   0.003069   0.005643   0.008799   9.024166
     7  N   -0.061120   0.227451  -0.108131  -0.108246   0.017645   0.017670
     8  H    0.003653   0.000708   0.014666  -0.004177  -0.003862   0.000293
     9  H    0.003584   0.000892  -0.004140   0.014644   0.000288  -0.003888
    10  F    0.291084  -0.055108   0.007256   0.007311  -0.004221  -0.004219
               7          8          9         10
     1  C   -0.061120   0.003653   0.003584   0.291084
     2  S    0.227451   0.000708   0.000892  -0.055108
     3  O   -0.108131   0.014666  -0.004140   0.007256
     4  O   -0.108246  -0.004177   0.014644   0.007311
     5  F    0.017645  -0.003862   0.000288  -0.004221
     6  F    0.017670   0.000293  -0.003888  -0.004219
     7  N    6.731237   0.363301   0.363189   0.003600
     8  H    0.363301   0.448324  -0.025557  -0.000182
     9  H    0.363189  -0.025557   0.448411  -0.000183
    10  F    0.003600  -0.000182  -0.000183   9.029522
 Mulliken charges:
               1
     1  C    0.884673
     2  S    0.969222
     3  O   -0.477880
     4  O   -0.477314
     5  F   -0.291385
     6  F   -0.291453
     7  N   -0.446596
     8  H    0.202832
     9  H    0.202760
    10  F   -0.274859
 Sum of Mulliken charges =  -0.00000
 Mulliken charges with hydrogens summed into heavy atoms:
               1
     1  C    0.884673
     2  S    0.969222
     3  O   -0.477880
     4  O   -0.477314
     5  F   -0.291385
     6  F   -0.291453
     7  N   -0.041003
    10  F   -0.274859
 APT charges:
               1
     1  C    1.528956
     2  S    1.943410
     3  O   -0.778483
     4  O   -0.778633
     5  F   -0.546044
     6  F   -0.546103
     7  N   -0.730114
     8  H    0.223999
     9  H    0.223930
    10  F   -0.540918
 Sum of APT charges =  -0.00000
 APT charges with hydrogens summed into heavy atoms:
               1
     1  C    1.528956
     2  S    1.943410
     3  O   -0.778483
     4  O   -0.778633
     5  F   -0.546044
     6  F   -0.546103
     7  N   -0.282184
    10  F   -0.540918
 Electronic spatial extent (au):  <R**2>=            868.2989
 Charge=              0.0000 electrons
 Dipole moment (field-independent basis, Debye):
    X=              1.2936    Y=              3.3719    Z=             -0.0009  Tot=              3.6115
 Quadrupole moment (field-independent basis, Debye-Ang):
   XX=            -47.1585   YY=            -49.3725   ZZ=            -53.5720
   XY=              7.5603   XZ=              0.0044   YZ=             -0.0064
 Traceless Quadrupole moment (field-independent basis, Debye-Ang):
   XX=              2.8759   YY=              0.6618   ZZ=             -3.5377
   XY=              7.5603   XZ=              0.0044   YZ=             -0.0064
 Octapole moment (field-independent basis, Debye-Ang**2):
  XXX=             -7.7326  YYY=              5.2751  ZZZ=              0.0041  XYY=              2.2241
  XXY=             13.8828  XXZ=              0.0254  XZZ=             -6.4156  YZZ=              7.7345
  YYZ=             -0.0220  XYZ=              0.0022
 Hexadecapole moment (field-independent basis, Debye-Ang**3):
 XXXX=           -459.6943 YYYY=           -228.5925 ZZZZ=           -226.4307 XXXY=             23.5590
 XXXZ=              0.0662 YYYX=             16.0996 YYYZ=             -0.0488 ZZZX=              0.0125
 ZZZY=             -0.0133 XXYY=           -103.3640 XXZZ=           -117.1940 YYZZ=            -72.0969
 XXYZ=              0.0291 YYXZ=             -0.0200 ZZXY=             13.3200
 N-N= 5.675535006234D+02 E-N=-3.369996090596D+03  KE= 9.402502426363D+02
  Exact polarizability:  49.107   1.257  48.053   0.003  -0.001  48.407
 Approx polarizability:  49.573   0.100  54.442   0.005  -0.004  60.241
 No NMR shielding tensors so no spin-rotation constants.
 Leave Link  601 at Fri Jan  2 11:49:56 2026, MaxMem=  6442450944 cpu:               6.6 elap:               0.3
 (Enter /applications/g16/g16/l701.exe)
 ... and contract with generalized density number  0.
 Compute integral second derivatives.
 R6Disp: Adding Grimme-D2 dispersion energy 2nd derivatives to the Hessian.
 Leave Link  701 at Fri Jan  2 11:49:57 2026, MaxMem=  6442450944 cpu:               7.0 elap:               0.3
 (Enter /applications/g16/g16/l702.exe)
 L702 exits ... SP integral derivatives will be done elsewhere.
 Leave Link  702 at Fri Jan  2 11:49:57 2026, MaxMem=  6442450944 cpu:               0.8 elap:               0.0
 (Enter /applications/g16/g16/l703.exe)
 Integral derivatives from FoFJK, PRISM(SPDF).
 Compute integral second derivatives, UseDBF=F ICtDFT=           0.
 Calling FoFJK, ICntrl=    100127 FMM=F ISym2X=0 I1Cent= 0 IOpClX= 0 NMat=1 NMatS=1 NMatT=0.
 FoFJK:  IHMeth= 1 ICntrl=  100127 DoSepK=T KAlg= 0 I1Cent=           0 FoldK=F
 IRaf=         1 NMat=       1 IRICut=       1 DoRegI=T DoRafI=F ISym2E= 0 IDoP0=0 IntGTp=1.
 FoFCou: FMM=F IPFlag=           0 FMFlag=      100000 FMFlg1=         800
         NFxFlg=           0 DoJE=F BraDBF=F KetDBF=F FulRan=T
         wScrn=  0.000000 ICntrl=    100527 IOpCl=  0 I1Cent=           0 NGrid=           0
         NMat0=    1 NMatS0=      1 NMatT0=    0 NMatD0=    1 NMtDS0=    0 NMtDT0=    0
 Symmetry not used in FoFCou.
 Leave Link  703 at Fri Jan  2 11:51:57 2026, MaxMem=  6442450944 cpu:            2857.4 elap:             120.5
 (Enter /applications/g16/g16/l716.exe)
 Dipole        = 5.08928818D-01 1.32661245D+00-3.70236186D-04
 Polarizability= 4.91069602D+01 1.25695258D+00 4.80531396D+01
                 3.11338447D-03-8.69425481D-04 4.84068225D+01
 Full mass-weighted force constant matrix:
 Low frequencies ---    0.0027    0.0028    0.0028    4.9234    6.4406   11.0054
 Low frequencies ---   63.5205  187.1776  188.6501
 Diagonal vibrational polarizability:
       23.2916194      26.8145051      33.1810662
 Harmonic frequencies (cm**-1), IR intensities (KM/Mole), Raman scattering
 activities (A**4/AMU), depolarization ratios for plane and unpolarized
 incident light, reduced masses (AMU), force constants (mDyne/A),
 and normal coordinates:
                      1                      2                      3
                      A                      A                      A
 Frequencies --     63.5094               187.1752               188.6499
 Red. masses --     10.5056                 7.4522                 7.5580
 Frc consts  --      0.0250                 0.1538                 0.1585
 IR Inten    --      2.7979                 0.0137                 5.8060
  Atom  AN      X      Y      Z        X      Y      Z        X      Y      Z
     1   6     0.00   0.00  -0.01     0.00  -0.00   0.07    -0.01   0.07   0.00
     2  16    -0.00   0.00  -0.03     0.00  -0.00   0.06    -0.01   0.08   0.00
     3   8    -0.05  -0.27  -0.14     0.35  -0.03  -0.04    -0.16   0.01   0.01
     4   8     0.05   0.27  -0.14    -0.33   0.02  -0.04    -0.19   0.01  -0.01
     5   9     0.05   0.27  -0.15    -0.26   0.04  -0.06    -0.19  -0.01  -0.01
     6   9    -0.05  -0.27  -0.15     0.27  -0.04  -0.06    -0.17  -0.02   0.01
     7   7     0.00  -0.00   0.30    -0.02   0.00   0.08     0.43  -0.08   0.00
     8   1    -0.14  -0.13   0.42     0.47  -0.18  -0.15     0.51  -0.22  -0.00
     9   1     0.14   0.12   0.42    -0.52   0.20  -0.14     0.47  -0.20  -0.01
    10   9     0.00  -0.00   0.32    -0.01   0.00  -0.01     0.30  -0.09  -0.00
                      4                      5                      6
                      A                      A                      A
 Frequencies --    290.9633               301.6177               331.6884
 Red. masses --      1.9434                12.1227                15.7227
 Frc consts  --      0.0969                 0.6498                 1.0191
 IR Inten    --     13.3698                 0.8524                 0.4425
  Atom  AN      X      Y      Z        X      Y      Z        X      Y      Z
     1   6     0.00   0.00  -0.05     0.20   0.04   0.00    -0.03   0.20   0.00
     2  16    -0.00  -0.00  -0.02    -0.15  -0.01   0.00     0.05  -0.12  -0.00
     3   8     0.02   0.07   0.02    -0.30  -0.05   0.01     0.24  -0.28  -0.13
     4   8    -0.02  -0.07   0.02    -0.30  -0.05  -0.02     0.25  -0.28   0.12
     5   9     0.10   0.01  -0.03     0.25   0.04   0.01    -0.29   0.24  -0.10
     6   9    -0.10  -0.00  -0.02     0.25   0.05  -0.01    -0.28   0.24   0.10
     7   7    -0.00   0.00   0.16    -0.34   0.05  -0.00    -0.32   0.05  -0.00
     8   1     0.59  -0.35  -0.06    -0.38   0.14  -0.01    -0.22   0.03  -0.05
     9   1    -0.59   0.35  -0.06    -0.37   0.13   0.01    -0.21   0.02   0.04
    10   9     0.00  -0.00  -0.03     0.42  -0.07   0.00     0.35   0.03   0.00
                      7                      8                      9
                      A                      A                      A
 Frequencies --    361.1059               425.2776               482.4328
 Red. masses --      2.9604                 3.0225                 6.5558
 Frc consts  --      0.2274                 0.3221                 0.8990
 IR Inten    --     12.6008                 0.0010                 2.6040
  Atom  AN      X      Y      Z        X      Y      Z        X      Y      Z
     1   6     0.00   0.00  -0.06    -0.00   0.00  -0.01    -0.01   0.06   0.00
     2  16     0.00  -0.00   0.06    -0.00   0.00   0.12    -0.03   0.14  -0.00
     3   8     0.16   0.01   0.03    -0.00  -0.17   0.04    -0.01  -0.21  -0.18
     4   8    -0.16  -0.01   0.03     0.00   0.17   0.04    -0.01  -0.21   0.18
     5   9     0.13   0.03  -0.03     0.07   0.04  -0.01     0.03  -0.12   0.13
     6   9    -0.13  -0.03  -0.03    -0.07  -0.04  -0.01     0.03  -0.12  -0.13
     7   7    -0.00  -0.00   0.04     0.00   0.00  -0.16    -0.00   0.31   0.00
     8   1    -0.57   0.19   0.30     0.44   0.19  -0.46     0.51  -0.23  -0.09
     9   1     0.56  -0.18   0.30    -0.43  -0.20  -0.46     0.52  -0.23   0.09
    10   9     0.00   0.00  -0.12    -0.00   0.00  -0.09    -0.03   0.10   0.00
                     10                     11                     12
                      A                      A                      A
 Frequencies --    532.4603               560.1076               567.1625
 Red. masses --      1.5397                15.9993                14.3497
 Frc consts  --      0.2572                 2.9573                 2.7196
 IR Inten    --    169.1038                 0.0011                 9.0135
  Atom  AN      X      Y      Z        X      Y      Z        X      Y      Z
     1   6     0.03   0.01  -0.00    -0.00   0.00  -0.35     0.03   0.31   0.00
     2  16     0.06   0.04   0.00     0.00  -0.00   0.11    -0.02  -0.18  -0.00
     3   8    -0.04  -0.05  -0.03     0.09  -0.08   0.06     0.07   0.14   0.15
     4   8    -0.04  -0.05   0.03    -0.09   0.08   0.06     0.07   0.14  -0.15
     5   9    -0.02  -0.03   0.03     0.07  -0.42  -0.24    -0.09  -0.18   0.35
     6   9    -0.02  -0.03  -0.03    -0.07   0.42  -0.24    -0.09  -0.18  -0.35
     7   7     0.06  -0.05  -0.00    -0.00   0.00  -0.04    -0.15  -0.19   0.00
     8   1    -0.46   0.52   0.09     0.04   0.21  -0.12     0.00  -0.32  -0.04
     9   1    -0.46   0.52  -0.09    -0.04  -0.21  -0.12     0.01  -0.32   0.04
    10   9    -0.01   0.05   0.00    -0.00  -0.00   0.47     0.18   0.40   0.00
                     13                     14                     15
                      A                      A                      A
 Frequencies --    614.6442               771.7230               901.6698
 Red. masses --     11.8273                14.9103                 4.9903
 Frc consts  --      2.6326                 5.2319                 2.3904
 IR Inten    --    153.6086                 2.9138               166.5928
  Atom  AN      X      Y      Z        X      Y      Z        X      Y      Z
     1   6     0.15  -0.02   0.00     0.39  -0.05  -0.00    -0.07   0.04  -0.00
     2  16     0.36  -0.11  -0.00    -0.12   0.07   0.00    -0.15  -0.17  -0.00
     3   8    -0.22  -0.04   0.23     0.02   0.04  -0.11     0.05  -0.01   0.09
     4   8    -0.22  -0.04  -0.23     0.02   0.04   0.11     0.05  -0.01  -0.09
     5   9    -0.09  -0.03  -0.10    -0.04  -0.22  -0.39     0.02  -0.04  -0.05
     6   9    -0.09  -0.03   0.10    -0.04  -0.22   0.39     0.02  -0.04   0.05
     7   7    -0.17   0.36   0.00    -0.05  -0.16  -0.00     0.20   0.31  -0.00
     8   1     0.41  -0.14  -0.13     0.02  -0.29  -0.00    -0.06   0.62   0.04
     9   1     0.42  -0.14   0.13     0.02  -0.29   0.00    -0.06   0.62  -0.04
    10   9    -0.08   0.09   0.00     0.03   0.44   0.00     0.04   0.06   0.00
                     16                     17                     18
                      A                      A                      A
 Frequencies --   1094.8437              1151.1157              1225.6810
 Red. masses --      1.2744                14.3103                12.4303
 Frc consts  --      0.9000                11.1721                11.0024
 IR Inten    --      0.1417               225.8562               208.0481
  Atom  AN      X      Y      Z        X      Y      Z        X      Y      Z
     1   6    -0.00   0.00  -0.02     0.61   0.04   0.00     0.03  -0.10   0.88
     2  16    -0.00  -0.00  -0.00     0.00  -0.27  -0.00    -0.01   0.01  -0.04
     3   8    -0.01   0.04  -0.04    -0.08   0.20  -0.36    -0.00  -0.01   0.03
     4   8     0.01  -0.04  -0.04    -0.08   0.20   0.36     0.01  -0.00   0.00
     5   9    -0.00   0.00   0.01    -0.09   0.06   0.10     0.07  -0.10  -0.22
     6   9     0.00  -0.00   0.01    -0.09   0.06  -0.10    -0.09   0.13  -0.25
     7   7     0.00  -0.00   0.11     0.05   0.12   0.00     0.01   0.01   0.02
     8   1     0.12   0.67  -0.16     0.12   0.18  -0.05    -0.02   0.17  -0.01
     9   1    -0.12  -0.67  -0.17     0.12   0.18   0.05     0.02  -0.18  -0.03
    10   9     0.00  -0.00   0.00    -0.13  -0.15  -0.00     0.01   0.03  -0.05
                     19                     20                     21
                      A                      A                      A
 Frequencies --   1227.1966              1247.7095              1429.9052
 Red. masses --     13.2551                14.4507                14.0411
 Frc consts  --     11.7615                13.2546                16.9147
 IR Inten    --    175.2933               188.9985               285.3702
  Atom  AN      X      Y      Z        X      Y      Z        X      Y      Z
     1   6    -0.25   0.84   0.11     0.64   0.34  -0.00    -0.00   0.00   0.06
     2  16     0.09  -0.05  -0.01    -0.17   0.18  -0.00     0.00  -0.00   0.45
     3   8    -0.04   0.05  -0.10     0.11  -0.16   0.31    -0.10   0.18  -0.42
     4   8    -0.03   0.05   0.10     0.11  -0.16  -0.31     0.10  -0.18  -0.42
     5   9     0.10  -0.16  -0.18    -0.06   0.01   0.04     0.01  -0.01  -0.02
     6   9     0.08  -0.13   0.12    -0.06   0.01  -0.04    -0.01   0.01  -0.02
     7   7    -0.05  -0.06   0.00     0.02  -0.01   0.00    -0.00   0.00  -0.07
     8   1     0.00   0.07  -0.07    -0.10  -0.08   0.08    -0.08  -0.40   0.10
     9   1     0.01   0.03   0.06    -0.10  -0.08  -0.09     0.08   0.39   0.10
    10   9    -0.08  -0.21  -0.01    -0.18  -0.24  -0.00    -0.00  -0.00  -0.00
                     22                     23                     24
                      A                      A                      A
 Frequencies --   1593.0030              3594.4751              3713.4011
 Red. masses --      1.1129                 1.0449                 1.1018
 Frc consts  --      1.6640                 7.9544                 8.9515
 IR Inten    --     50.8983                65.1162                84.4313
  Atom  AN      X      Y      Z        X      Y      Z        X      Y      Z
     1   6     0.01  -0.01   0.00     0.00  -0.00   0.00     0.00   0.00  -0.00
     2  16    -0.01   0.01   0.00     0.00  -0.00  -0.00    -0.00   0.00  -0.00
     3   8     0.00  -0.00   0.01    -0.00  -0.00   0.00     0.00  -0.00   0.00
     4   8     0.00  -0.00  -0.01    -0.00  -0.00  -0.00    -0.00   0.00   0.00
     5   9    -0.00   0.00   0.00    -0.00  -0.00   0.00     0.00  -0.00  -0.00
     6   9    -0.00   0.00  -0.00    -0.00  -0.00  -0.00    -0.00   0.00  -0.00
     7   7    -0.05  -0.07  -0.00     0.04   0.03  -0.00    -0.00   0.00  -0.09
     8   1     0.40   0.42  -0.39    -0.32  -0.19  -0.60     0.33   0.19   0.59
     9   1     0.40   0.42   0.39    -0.31  -0.19   0.60    -0.33  -0.19   0.59
    10   9    -0.00   0.00  -0.00    -0.00  -0.00  -0.00     0.00   0.00   0.00

 -------------------
 - Thermochemistry -
 -------------------
 Temperature   298.150 Kelvin.  Pressure   1.00000 Atm.
 Atom     1 has atomic number  6 and mass  12.00000
 Atom     2 has atomic number 16 and mass  31.97207
 Atom     3 has atomic number  8 and mass  15.99491
 Atom     4 has atomic number  8 and mass  15.99491
 Atom     5 has atomic number  9 and mass  18.99840
 Atom     6 has atomic number  9 and mass  18.99840
 Atom     7 has atomic number  7 and mass  14.00307
 Atom     8 has atomic number  1 and mass   1.00783
 Atom     9 has atomic number  1 and mass   1.00783
 Atom    10 has atomic number  9 and mass  18.99840
 Molecular mass:   148.97583 amu.
 Principal axes and moments of inertia in atomic units:
                           1         2         3
     Eigenvalues --   688.882031158.063101159.88219
           X            0.99892   0.00020   0.04650
           Y           -0.04650   0.00377   0.99891
           Z           -0.00003   0.99999  -0.00378
 This molecule is an asymmetric top.
 Rotational symmetry number  1.
 Warning -- assumption of classical behavior for rotation
           may cause significant error
 Rotational temperatures (Kelvin)      0.12573     0.07479     0.07467
 Rotational constants (GHZ):           2.61981     1.55841     1.55597
 Zero-point vibrational energy     136718.3 (Joules/Mol)
                                   32.67646 (Kcal/Mol)
 Warning -- explicit consideration of  13 degrees of freedom as
           vibrations may cause significant error
 Vibrational temperatures:     91.38   269.30   271.43   418.63   433.96
          (Kelvin)            477.23   519.55   611.88   694.11   766.09
                              805.87   816.02   884.34  1110.34  1297.30
                             1575.24  1656.20  1763.48  1765.66  1795.18
                             2057.31  2291.98  5171.65  5342.76
 
 Zero-point correction=                           0.052073 (Hartree/Particle)
 Thermal correction to Energy=                    0.059932
 Thermal correction to Enthalpy=                  0.060876
 Thermal correction to Gibbs Free Energy=         0.019281
 Sum of electronic and zero-point Energies=           -942.166214
 Sum of electronic and thermal Energies=              -942.158355
 Sum of electronic and thermal Enthalpies=            -942.157411
 Sum of electronic and thermal Free Energies=         -942.199006
 
                     E (Thermal)             CV                S
                      KCal/Mol        Cal/Mol-Kelvin    Cal/Mol-Kelvin
 Total                   37.608             27.697             87.544
 Electronic               0.000              0.000              0.000
 Translational            0.889              2.981             40.906
 Rotational               0.889              2.981             28.316
 Vibrational             35.831             21.735             18.322
 Vibration     1          0.597              1.972              4.345
 Vibration     2          0.632              1.857              2.256
 Vibration     3          0.633              1.855              2.241
 Vibration     4          0.687              1.691              1.468
 Vibration     5          0.694              1.671              1.408
 Vibration     6          0.714              1.612              1.252
 Vibration     7          0.735              1.552              1.117
 Vibration     8          0.787              1.415              0.874
 Vibration     9          0.839              1.289              0.704
 Vibration    10          0.887              1.178              0.582
 Vibration    11          0.916              1.118              0.524
 Vibration    12          0.923              1.102              0.510
 Vibration    13          0.974              1.001              0.425
                       Q            Log10(Q)             Ln(Q)
 Total Bot       0.135269D-08         -8.868803        -20.421174
 Total V=0       0.121119D+16         15.083212         34.730379
 Vib (Bot)       0.549640D-22        -22.259922        -51.255364
 Vib (Bot)    1  0.325016D+01          0.511905          1.178706
 Vib (Bot)    2  0.107036D+01          0.029529          0.067993
 Vib (Bot)    3  0.106143D+01          0.025890          0.059614
 Vib (Bot)    4  0.656896D+00         -0.182504         -0.420230
 Vib (Bot)    5  0.629946D+00         -0.200696         -0.462120
 Vib (Bot)    6  0.562732D+00         -0.249698         -0.574952
 Vib (Bot)    7  0.507207D+00         -0.294815         -0.678837
 Vib (Bot)    8  0.411210D+00         -0.385936         -0.888651
 Vib (Bot)    9  0.345949D+00         -0.460988         -1.061465
 Vib (Bot)   10  0.299669D+00         -0.523358         -1.205076
 Vib (Bot)   11  0.277457D+00         -0.556804         -1.282089
 Vib (Bot)   12  0.272120D+00         -0.565240         -1.301512
 Vib (Bot)   13  0.239271D+00         -0.621110         -1.430160
 Vib (V=0)       0.492145D+02          1.692093          3.896188
 Vib (V=0)    1  0.378840D+01          0.578456          1.331943
 Vib (V=0)    2  0.168138D+01          0.225667          0.519616
 Vib (V=0)    3  0.167330D+01          0.223573          0.514796
 Vib (V=0)    4  0.132554D+01          0.122392          0.281818
 Vib (V=0)    5  0.130426D+01          0.115364          0.265635
 Vib (V=0)    6  0.125277D+01          0.097872          0.225360
 Vib (V=0)    7  0.121222D+01          0.083582          0.192454
 Vib (V=0)    8  0.114737D+01          0.059705          0.137476
 Vib (V=0)    9  0.110801D+01          0.044545          0.102569
 Vib (V=0)   10  0.108293D+01          0.034598          0.079666
 Vib (V=0)   11  0.107182D+01          0.030123          0.069362
 Vib (V=0)   12  0.106925D+01          0.029081          0.066961
 Vib (V=0)   13  0.105430D+01          0.022965          0.052879
 Electronic      0.100000D+01          0.000000          0.000000
 Translational   0.714706D+08          7.854128         18.084797
 Rotational      0.344343D+06          5.536991         12.749393
 
                                                         Title Card Required
                                                             IR Spectrum
 
     3    3                                                                   1     1    111 1 1                                     
     7    5                                                                   5     4    222 1 0      9   7    6555 4 4 3332 11      
     1    9                                                                   9     3    422 5 9      0   7    1663 8 2 6309 88   6  
     3    4                                                                   3     0    876 1 5      2   2    5702 2 5 1221 97   4  
 
     X    X                                                                   X     X    XXX X X      X   X    XX X X   XXXX X    X  
     X    X                                                                   X     X    XXX X        X        X  X                  
     X    X                                                                   X     X    XXX X        X        X  X                  
     X    X                                                                   X     X    XXX X        X        X  X                  
     X    X                                                                         X    XXX X        X        X  X                  
     X                                                                              X    XXX X        X        X  X                  
                                                                                    X    XXX X        X        X  X                  
                                                                                    X    XXX X        X        X  X                  
                                                                                    X    XXX X        X        X  X                  
                                                                                    X    XXX X        X        X  X                  
                                                                                    X    XXX X        X        X  X                  
                                                                                    X    XXX X        X           X                  
                                                                                    X    X X X                                       
                                                                                    X      X X                                       
                                                                                    X      X X                                       
                                                                                    X        X                                       
                                                                                    X                                                
                                                                                    X                                                
                                                                                    X                                                
                                                                                    X                                                
 
 ***** Axes restored to original set *****
 -------------------------------------------------------------------
 Center     Atomic                   Forces (Hartrees/Bohr)
 Number     Number              X              Y              Z
 -------------------------------------------------------------------
      1        6          -0.000106403   -0.000170422    0.000026135
      2       16           0.000107284    0.000074401    0.000041764
      3        8          -0.000016496   -0.000010608   -0.000083586
      4        8          -0.000035447    0.000009067    0.000019058
      5        9          -0.000006280    0.000026335   -0.000021798
      6        9           0.000002857    0.000015066    0.000041756
      7        7           0.000059325   -0.000115475    0.000012039
      8        1          -0.000048573    0.000038417   -0.000007503
      9        1          -0.000028609    0.000030527    0.000009064
     10        9           0.000072340    0.000102693   -0.000036931
 -------------------------------------------------------------------
 Cartesian Forces:  Max     0.000170422 RMS     0.000061091
 Force constants in Cartesian coordinates: 
                1             2             3             4             5 
      1  0.518957D+00
      2  0.805415D-02  0.526687D+00
      3 -0.228430D-02  0.165866D-02  0.531421D+00
      4 -0.136507D+00  0.752690D-01 -0.214030D-01  0.528755D+00
      5  0.672286D-01 -0.620684D-01  0.116438D-01  0.332731D-01  0.731331D+00
      6 -0.186442D-01  0.113596D-01 -0.238755D-01  0.145119D-01  0.160307D+00
      7  0.137195D-01 -0.419619D-02 -0.150737D-01 -0.976862D-01  0.831667D-02
      8 -0.848412D-02  0.355883D-02  0.114231D-01  0.752263D-02 -0.104791D+00
      9  0.224849D-01 -0.102857D-01 -0.191205D-01 -0.398155D-01  0.874594D-01
     10  0.133447D-01  0.547108D-02  0.123468D-01 -0.948232D-01  0.495196D-02
     11 -0.224479D-01 -0.517505D-02 -0.208462D-01  0.422222D-02 -0.391308D+00
     12 -0.141464D-01 -0.366683D-03 -0.998900D-02  0.304191D-02 -0.276323D+00
     13 -0.805109D-01  0.267155D-01  0.140304D-01  0.729896D-02  0.158502D-01
     14  0.245596D-01 -0.227608D+00 -0.985781D-01 -0.140813D-01 -0.242472D-01
     15  0.125169D-01 -0.985309D-01 -0.135971D+00 -0.627159D-02 -0.853558D-02
     16 -0.841394D-01  0.167809D-01 -0.382046D-01  0.650453D-02  0.307842D-02
     17  0.160080D-01 -0.982451D-01  0.685164D-01 -0.607121D-02 -0.173353D-02
     18 -0.356679D-01  0.683419D-01 -0.261413D+00  0.109914D-01  0.167410D-02
     19  0.276600D-03 -0.257191D-01  0.885957D-02 -0.165428D+00 -0.108482D+00
     20  0.506954D-02 -0.120166D-01  0.426056D-02 -0.638641D-01 -0.134536D+00
     21 -0.171876D-02  0.539480D-02 -0.810479D-03  0.243316D-01  0.158395D-01
     22 -0.108208D-02 -0.543120D-02  0.671925D-03 -0.153584D-01 -0.221530D-03
     23 -0.512446D-03  0.301560D-02  0.172528D-02 -0.190235D-01 -0.145827D-01
     24 -0.319430D-03  0.216592D-02 -0.959653D-03  0.515847D-02  0.155406D-02
     25 -0.961161D-03 -0.483621D-02  0.299008D-02 -0.136922D-01  0.127935D-01
     26 -0.341522D-03 -0.227519D-03 -0.224071D-02 -0.157959D-01  0.475396D-02
     27  0.742886D-03 -0.228954D-02  0.217465D-02  0.817435D-02  0.348837D-02
     28 -0.243097D+00 -0.921079D-01  0.380668D-01 -0.190633D-01 -0.367895D-01
     29 -0.891339D-01 -0.127921D+00  0.224371D-01 -0.145094D-02 -0.281931D-02
     30  0.370362D-01  0.225519D-01 -0.814568D-01  0.128038D-02  0.289190D-02
                6             7             8             9            10 
      6  0.114554D+01
      7 -0.395616D-01  0.619732D-01
      8  0.916430D-01 -0.289774D-02  0.803374D-01
      9 -0.630388D+00  0.327383D-01 -0.105329D+00  0.666850D+00
     10  0.224448D-02  0.199125D-01 -0.315852D-02 -0.756107D-03  0.601350D-01
     11 -0.280482D+00 -0.129934D-02  0.158856D-01  0.120958D-01  0.708282D-02
     12 -0.346963D+00 -0.125431D-03 -0.307008D-01 -0.821798D-02  0.279559D-02
     13  0.152425D-01 -0.149649D-02  0.121572D-03 -0.351186D-02 -0.581347D-02
     14 -0.266850D-01  0.339896D-02  0.242162D-02  0.728194D-02  0.992457D-02
     15 -0.100054D-01  0.144056D-02  0.153029D-02  0.692859D-02  0.329569D-02
     16 -0.239247D-01 -0.660681D-02  0.486334D-02 -0.655297D-02 -0.138076D-02
     17  0.213062D-01  0.622853D-02 -0.319275D-02  0.483796D-02  0.170170D-02
     18 -0.317057D-01 -0.839005D-02  0.509417D-02 -0.298912D-02 -0.239396D-02
     19  0.396156D-01  0.600559D-02 -0.544692D-02  0.299697D-02  0.427507D-02
     20  0.140378D-01 -0.111701D-01  0.769221D-02 -0.146708D-03 -0.259562D-01
     21 -0.107287D+00  0.271619D-01  0.272570D-01 -0.152309D-01 -0.150305D-01
     22 -0.199602D-01  0.264978D-02  0.273505D-02  0.705244D-03  0.180298D-02
     23 -0.202314D-01  0.507687D-02  0.199352D-02  0.761704D-03 -0.403963D-02
     24  0.125757D-01  0.356995D-03 -0.143498D-03 -0.296031D-02  0.162326D-02
     25  0.170695D-01  0.173745D-02 -0.129899D-02 -0.581084D-04  0.234595D-02
     26  0.271959D-01 -0.404864D-02 -0.566823D-02  0.511216D-02  0.351439D-02
     27 -0.841400D-02  0.118382D-02  0.939758D-03  0.130765D-02 -0.366403D-02
     28  0.134067D-01 -0.208576D-03  0.604370D-02 -0.823099D-02  0.201169D-03
     29  0.154827D-02  0.590961D-03  0.176247D-02 -0.178761D-02  0.507814D-03
     30  0.521591D-03  0.269232D-03 -0.171411D-02  0.382054D-02 -0.461177D-03
               11            12            13            14            15 
     11  0.404631D+00
     12  0.311017D+00  0.344543D+00
     13  0.772172D-02  0.268207D-02  0.703820D-01
     14 -0.835470D-02 -0.172675D-02  0.427103D-02  0.296706D+00
     15 -0.185828D-02  0.137394D-02 -0.315201D-02  0.160851D+00  0.196377D+00
     16  0.255398D-02  0.340132D-02  0.132970D-01 -0.168334D-02  0.140407D-02
     17 -0.249712D-03 -0.197279D-02 -0.502493D-02  0.119941D-01 -0.411913D-01
     18  0.389020D-02  0.947446D-02 -0.641566D-02 -0.237482D-01 -0.718509D-01
     19 -0.854074D-02  0.113286D-02 -0.200246D-02  0.460690D-02  0.147927D-02
     20 -0.132532D-01  0.102431D-02 -0.508820D-03  0.674228D-02  0.133248D-02
     21 -0.272130D-01  0.753140D-02 -0.385050D-03  0.229990D-02  0.157830D-02
     22 -0.806157D-03  0.842513D-03  0.212565D-03  0.178071D-02  0.710255D-03
     23 -0.588919D-02  0.811680D-03 -0.396167D-03 -0.104133D-02 -0.538209D-03
     24  0.473151D-02  0.142834D-02  0.453877D-03 -0.823133D-03 -0.410022D-03
     25  0.151589D-02 -0.252038D-02  0.388267D-03  0.238279D-05 -0.433843D-03
     26 -0.288121D-03 -0.313600D-02  0.695115D-03  0.225896D-04  0.250863D-03
     27 -0.206707D-02 -0.366901D-03 -0.529695D-03  0.118310D-03 -0.168573D-03
     28  0.999753D-02  0.289599D-02 -0.175548D-02 -0.327795D-01 -0.109893D-01
     29  0.400092D-02  0.137296D-02 -0.494453D-01 -0.566354D-01 -0.133105D-01
     30  0.731897D-03  0.118614D-02 -0.184146D-01 -0.189901D-01  0.121474D-01
               16            17            18            19            20 
     16  0.718090D-01
     17  0.527267D-04  0.102899D+00
     18  0.194285D-01 -0.886524D-01  0.388430D+00
     19 -0.214303D-02  0.260057D-02 -0.353486D-02  0.508572D+00
     20 -0.212387D-03  0.298274D-02 -0.237120D-02  0.172721D+00  0.229085D+00
     21  0.104565D-02 -0.363421D-02  0.548325D-02 -0.476680D-01  0.184432D+00
     22  0.437690D-03  0.246944D-03  0.307821D-03 -0.183138D+00 -0.100037D+00
     23  0.843204D-03 -0.251825D-03 -0.273392D-03 -0.717024D-01 -0.408328D-01
     24 -0.350007D-04 -0.910006D-04  0.632406D-04 -0.165520D+00 -0.106894D+00
     25  0.947970D-04  0.100588D-02 -0.175170D-02 -0.155255D+00  0.253040D-01
     26 -0.574481D-03 -0.158727D-03  0.417323D-03  0.390909D-01 -0.479770D-01
     27 -0.198944D-03  0.550761D-03 -0.118019D-02  0.162501D+00 -0.951324D-01
     28  0.212701D-02 -0.167482D-01  0.274263D-01 -0.111625D-01 -0.134583D-02
     29 -0.257023D-01 -0.140441D-01  0.356275D-01  0.871760D-03  0.211360D-02
     30  0.436367D-01  0.403303D-01 -0.343111D-01  0.137800D-03 -0.543584D-03
               21            22            23            24            25 
     21  0.727994D+00
     22 -0.176599D+00  0.182125D+00
     23 -0.821188D-01  0.919545D-01  0.619188D-01
     24 -0.299506D+00  0.177309D+00  0.103944D+00  0.303872D+00
     25  0.187982D+00  0.142154D-01 -0.308325D-02 -0.204873D-01  0.153109D+00
     26 -0.121631D+00  0.935632D-02 -0.396744D-02 -0.426553D-02 -0.317594D-01
     27 -0.320310D+00  0.159494D-01 -0.394434D-02 -0.141162D-01 -0.182601D+00
     28  0.879673D-03 -0.186518D-02  0.882844D-03  0.145985D-02 -0.198250D-02
     29 -0.626321D-03  0.422145D-03 -0.362640D-03 -0.179182D-03  0.356149D-03
     30  0.558031D-03  0.627342D-04 -0.136856D-03  0.128481D-04 -0.190049D-03
               26            27            28            29            30 
     26  0.535850D-01
     27  0.980796D-01  0.341228D+00
     28 -0.136718D-03 -0.155776D-02  0.276807D+00
     29 -0.745847D-04  0.256533D-03  0.162984D+00  0.193980D+00
     30  0.217433D-03 -0.154260D-03 -0.633573D-01 -0.453388D-01  0.976756D-01
 FormGI is forming the generalized inverse of G from B-inverse, IUseBI=4.
 Force constants in internal coordinates: 
                1             2             3             4             5 
      1  0.184843D+00
      2  0.143498D-01  0.414927D+00
      3  0.143531D-01  0.545428D-01  0.414619D+00
      4  0.137451D-01  0.548803D-01  0.548689D-01  0.422156D+00
      5 -0.139810D-02  0.962343D-02  0.614544D-02  0.916033D-02  0.686724D+00
      6 -0.140419D-02  0.614802D-02  0.962055D-02  0.916810D-02 -0.454938D-02
      7 -0.217871D-03  0.732579D-02  0.733648D-02  0.691238D-02  0.113904D-01
      8 -0.388322D-03  0.702286D-05 -0.166952D-03 -0.250028D-03 -0.174060D-02
      9 -0.383647D-03 -0.167721D-03  0.517336D-05 -0.252138D-03 -0.230318D-02
     10  0.162124D-01  0.757108D-02 -0.299805D-01 -0.284568D-01  0.464941D-03
     11  0.161649D-01 -0.299769D-01  0.759068D-02 -0.284496D-01  0.146668D-01
     12  0.947991D-02 -0.287220D-01 -0.287180D-01  0.880451D-02  0.234412D-02
     13 -0.154156D-01  0.238641D-01  0.238596D-01  0.406947D-02 -0.609041D-02
     14 -0.133825D-01  0.230775D-01  0.437456D-02  0.223655D-01 -0.534011D-02
     15 -0.133680D-01  0.437399D-02  0.230636D-01  0.223587D-01 -0.618969D-02
     16  0.234817D-03 -0.192988D-02  0.131193D-01 -0.374844D-02  0.851752D-02
     17  0.223149D-03  0.131307D-01 -0.190817D-02 -0.377520D-02 -0.362844D-02
     18  0.754619D-02 -0.220487D-02 -0.219771D-02  0.193922D-01 -0.121149D-01
     19 -0.140996D-02 -0.151610D-02 -0.151580D-02 -0.165793D-02 -0.166291D-02
     20 -0.208688D-02 -0.381007D-02 -0.291987D-02 -0.259364D-02  0.127016D-01
     21 -0.208865D-02 -0.291634D-02 -0.381842D-02 -0.258488D-02 -0.659253D-02
     22  0.329854D-03  0.922143D-03 -0.547503D-03  0.723289D-03  0.186082D-02
     23  0.342521D-03 -0.554152D-03  0.923202D-03  0.716686D-03  0.700656D-02
     24 -0.516112D-03 -0.800833D-03 -0.808091D-03 -0.156287D-02 -0.400690D-02
     25 -0.514263D-04 -0.407605D-02 -0.166661D-01  0.191150D-01  0.123337D-02
     26 -0.148140D-02  0.134125D-02 -0.112416D-01  0.121973D-01  0.237151D-02
     27 -0.768606D-03  0.153654D-02 -0.168545D-01  0.156579D-01 -0.106376D-01
     28  0.149473D-02  0.112413D-01 -0.134373D-02 -0.121959D-01  0.333962D-02
     29  0.647568D-04  0.166586D-01  0.408075D-02 -0.191136D-01  0.447775D-02
     30  0.777553D-03  0.168539D-01 -0.153221D-02 -0.156530D-01 -0.853138D-02
     31  0.715564D-03 -0.191526D-01  0.137308D-01  0.345782D-02  0.604006D-02
     32 -0.714411D-03 -0.137353D-01  0.191553D-01 -0.345993D-02  0.717819D-02
     33 -0.161526D-05 -0.135400D-01  0.135423D-01  0.000000D+00 -0.583094D-02
     34  0.540967D-04 -0.452832D-02  0.532315D-02  0.450129D-03  0.587079D-02
     35 -0.481338D-04 -0.533525D-02  0.451306D-02 -0.431708D-03  0.857861D-02
     36 -0.284488D-02 -0.174100D-03 -0.728764D-02 -0.308446D-02 -0.238603D-02
     37 -0.294711D-02 -0.981032D-03 -0.809773D-02 -0.396629D-02  0.321792D-03
     38  0.294329D-02  0.809406D-02  0.990801D-03  0.396722D-02 -0.564579D-02
     39  0.284106D-02  0.728713D-02  0.180719D-03  0.308539D-02 -0.293797D-02
                6             7             8             9            10 
      6  0.686949D+00
      7  0.113797D-01  0.322231D+00
      8 -0.230227D-02  0.230529D-02  0.476298D+00
      9 -0.174048D-02  0.230904D-02 -0.206355D-02  0.476246D+00
     10  0.146750D-01  0.388227D-03 -0.381028D-03 -0.585902D-03  0.173267D+00
     11  0.475446D-03  0.385802D-03 -0.586520D-03 -0.381794D-03  0.468199D-02
     12  0.233000D-02  0.155667D-01 -0.108783D-03 -0.111549D-03  0.774466D-02
     13 -0.609528D-02 -0.434259D-02  0.255862D-03  0.256658D-03 -0.879121D-01
     14 -0.619027D-02 -0.603339D-02  0.374181D-03  0.457867D-03 -0.859619D-01
     15 -0.534003D-02 -0.603396D-02  0.457257D-03  0.375708D-03 -0.131167D-01
     16 -0.362870D-02 -0.121078D-01  0.149645D-02  0.261161D-03 -0.407720D-02
     17  0.851529D-02 -0.121315D-01  0.263137D-03  0.149372D-02  0.175820D-01
     18 -0.121064D-01  0.316899D-01  0.279224D-02  0.278728D-02 -0.716559D-02
     19 -0.165021D-02  0.137862D-03  0.629310D-03  0.628836D-03 -0.336220D-02
     20 -0.658893D-02 -0.507358D-03 -0.420794D-02 -0.345744D-04  0.500396D-03
     21  0.126766D-01 -0.501357D-03 -0.534247D-04 -0.421850D-02 -0.368310D-02
     22  0.700280D-02  0.241556D-01  0.979303D-02 -0.569485D-02  0.186954D-02
     23  0.186337D-02  0.241351D-01 -0.569446D-02  0.977166D-02 -0.280365D-02
     24 -0.399631D-02 -0.191961D-01  0.283894D-02  0.284965D-02  0.636439D-03
     25 -0.448095D-02  0.102369D-01 -0.148661D-02 -0.120445D-03 -0.320609D-02
     26 -0.332899D-02 -0.533744D-02  0.427232D-03  0.178975D-02  0.144580D-02
     27  0.851772D-02  0.245083D-02  0.153123D-02 -0.124184D-02  0.322550D-03
     28 -0.236889D-02  0.533869D-02 -0.178716D-02 -0.420097D-03  0.133417D-02
     29 -0.121693D-02 -0.102356D-01  0.126685D-03  0.149010D-02  0.598606D-02
     30  0.106298D-01 -0.244734D-02  0.123069D-02 -0.154149D-02  0.486281D-02
     31 -0.717786D-02  0.778621D-02 -0.164790D-02 -0.259087D-03 -0.711731D-02
     32 -0.602590D-02 -0.778809D-02  0.265944D-03  0.165111D-02 -0.246542D-02
     33  0.582081D-02  0.000000D+00  0.136995D-02 -0.138048D-02 -0.358867D-02
     34 -0.858183D-02 -0.927560D-02 -0.403886D-02 -0.400625D-02 -0.795174D-02
     35 -0.585971D-02  0.927422D-02  0.400910D-02  0.403598D-02 -0.792639D-02
     36  0.292096D-02 -0.964490D-02 -0.554944D-02 -0.551101D-02 -0.445053D-03
     37  0.564307D-02  0.890491D-02  0.249852D-02  0.253122D-02 -0.419713D-03
     38 -0.333593D-03 -0.891574D-02 -0.253430D-02 -0.250352D-02  0.716547D-02
     39  0.238852D-02  0.963407D-02  0.551367D-02  0.553871D-02  0.719081D-02
               11            12            13            14            15 
     11  0.173206D+00
     12  0.777409D-02  0.167321D+00
     13 -0.878869D-01 -0.135681D-01  0.119455D+00
     14 -0.131166D-01 -0.853202D-01  0.353719D-01  0.116220D+00
     15 -0.859498D-01 -0.853069D-01  0.353662D-01  0.343836D-01  0.116200D+00
     16  0.175929D-01 -0.764173D-02 -0.524450D-02  0.270346D-02 -0.338688D-02
     17 -0.407774D-02 -0.764146D-02 -0.523841D-02 -0.338645D-02  0.270736D-02
     18 -0.718309D-02  0.294960D-01  0.309244D-02 -0.915562D-02 -0.915957D-02
     19 -0.335884D-02  0.212882D-02  0.262896D-02  0.100263D-02  0.100073D-02
     20 -0.368162D-02 -0.484585D-02  0.210057D-02  0.234919D-02  0.362994D-02
     21  0.501875D-03 -0.484363D-02  0.209981D-02  0.362887D-02  0.234896D-02
     22 -0.281176D-02  0.122973D-02  0.159372D-03 -0.986526D-03  0.540927D-03
     23  0.187249D-02  0.121524D-02  0.158370D-03  0.543038D-03 -0.984050D-03
     24  0.641328D-03 -0.321721D-02  0.143105D-03  0.900891D-03  0.900487D-03
     25 -0.598331D-02  0.712435D-02 -0.162114D-01  0.189656D-01 -0.365071D-03
     26 -0.132036D-02 -0.193796D-03 -0.197991D-01  0.197505D-01  0.419610D-03
     27 -0.485643D-02  0.346829D-02 -0.180048D-01  0.190753D-01  0.308437D-03
     28 -0.144921D-02  0.191758D-03  0.197933D-01 -0.421391D-03 -0.197521D-01
     29  0.321373D-02 -0.712639D-02  0.162057D-01  0.363418D-03 -0.189674D-01
     30 -0.322330D-03 -0.346430D-02  0.179999D-01 -0.311713D-03 -0.190785D-01
     31  0.244947D-02  0.367016D-02  0.179786D-02 -0.188526D-01  0.180639D-01
     32  0.711242D-02 -0.364799D-02 -0.178979D-02 -0.180678D-01  0.188486D-01
     33  0.357635D-02  0.141035D-04  0.441625D-05 -0.187429D-01  0.187374D-01
     34  0.793056D-02  0.115588D-02 -0.258507D-03  0.177179D-02 -0.265265D-02
     35  0.795791D-02 -0.115791D-02  0.253865D-03  0.265120D-02 -0.177343D-02
     36 -0.719257D-02 -0.177637D-02  0.350310D-02  0.203846D-02  0.394353D-02
     37 -0.716522D-02 -0.409016D-02  0.401547D-02  0.291788D-02  0.482274D-02
     38  0.411296D-03  0.410263D-02 -0.401253D-02 -0.482745D-02 -0.292072D-02
     39  0.438645D-03  0.178884D-02 -0.350016D-02 -0.394803D-02 -0.204150D-02
               16            17            18            19            20 
     16  0.683148D-01
     17 -0.132748D-03  0.683304D-01
     18 -0.370117D-01 -0.370644D-01  0.177078D+00
     19 -0.205680D-01 -0.205671D-01  0.293646D-01  0.408743D-01
     20 -0.206063D-01  0.921779D-02 -0.463309D-01 -0.151012D-01  0.632141D-01
     21  0.919282D-02 -0.206192D-01 -0.463044D-01 -0.150762D-01 -0.315308D-02
     22  0.217392D-02 -0.234294D-02  0.366552D-02 -0.686664D-03 -0.132466D-01
     23 -0.236201D-02  0.216374D-02  0.359249D-02 -0.678879D-03  0.116183D-01
     24  0.109091D-02  0.109225D-02 -0.900446D-02 -0.524366D-03  0.250995D-02
     25 -0.128087D-01 -0.839890D-02  0.872842D-02 -0.111704D-01  0.229997D-01
     26  0.627611D-02  0.106965D-01 -0.340702D-02  0.121902D-01 -0.289853D-02
     27  0.194574D-02 -0.408157D-02  0.267760D-02  0.523792D-03 -0.212465D-01
     28 -0.106846D-01 -0.627473D-02  0.339959D-02 -0.122005D-01  0.235754D-01
     29  0.840022D-02  0.128207D-01 -0.873586D-02  0.111601D-01 -0.232285D-02
     30  0.406985D-02 -0.195740D-02 -0.265123D-02 -0.506362D-03 -0.206708D-01
     31 -0.895057D-02 -0.101275D-01  0.605564D-02 -0.116856D-01  0.228126D-01
     32  0.101343D-01  0.896791D-02 -0.607980D-02  0.116750D-01 -0.308565D-02
     33  0.580388D-02 -0.581020D-02  0.482663D-05  0.857929D-05 -0.214336D-01
     34  0.202857D-01 -0.216951D-01  0.304909D-02  0.103833D-02 -0.288135D-02
     35  0.216857D-01 -0.202848D-01 -0.302849D-02 -0.103234D-02 -0.808478D-03
     36 -0.323615D-01 -0.824926D-02 -0.187376D-01  0.158367D-01  0.196649D-01
     37 -0.309616D-01 -0.683892D-02 -0.248152D-01  0.137660D-01  0.217378D-01
     38  0.683660D-02  0.309314D-01  0.248647D-01 -0.137429D-01 -0.141176D-01
     39  0.823658D-02  0.323417D-01  0.187871D-01 -0.158135D-01 -0.120447D-01
               21            22            23            24            25 
     21  0.632022D-01
     22  0.115695D-01  0.103645D+00
     23 -0.132256D-01 -0.343923D-01  0.103700D+00
     24  0.252251D-02 -0.445633D-01 -0.445955D-01  0.611420D-01
     25  0.232288D-02 -0.364186D-02  0.500379D-02 -0.887301D-03  0.348000D-01
     26 -0.235691D-01 -0.459289D-02  0.404326D-02 -0.111796D-03  0.734038D-02
     27  0.206618D-01  0.864930D-02 -0.825628D-02 -0.493134D-03  0.105371D-01
     28  0.289764D-02 -0.404607D-02  0.460544D-02  0.106934D-03  0.879582D-02
     29 -0.229943D-01 -0.499709D-02  0.364491D-02  0.882440D-03 -0.186638D-01
     30  0.212366D-01  0.824510D-02 -0.865463D-02  0.501101D-03 -0.154671D-01
     31  0.308697D-02 -0.431849D-02  0.527776D-02 -0.388878D-03  0.914024D-02
     32 -0.228050D-01 -0.526951D-02  0.431723D-02  0.386627D-03 -0.183194D-01
     33  0.214259D-01  0.797268D-02 -0.798231D-02  0.528899D-05 -0.151227D-01
     34  0.809165D-03 -0.213853D-02  0.213115D-03 -0.149222D-02  0.124969D-02
     35  0.287409D-02 -0.214059D-03  0.213980D-02  0.149378D-02  0.127157D-02
     36  0.120369D-01 -0.182814D-02 -0.255091D-02  0.441667D-03  0.407564D-02
     37  0.141018D-01  0.963292D-04 -0.624227D-03  0.342766D-02  0.409752D-02
     38 -0.217580D-01  0.667220D-03 -0.134682D-03 -0.342464D-02 -0.344938D-02
     39 -0.196931D-01  0.259169D-02  0.179200D-02 -0.438644D-03 -0.342749D-02
               26            27            28            29            30 
     26  0.332989D-01
     27  0.979166D-02  0.319808D-01
     28 -0.171667D-01 -0.147193D-01  0.333024D-01
     29  0.879180D-02 -0.154647D-01  0.733986D-02  0.347955D-01
     30 -0.147154D-01  0.672442D-02  0.978729D-02  0.105390D-01  0.319788D-01
     31 -0.175675D-01 -0.151266D-01  0.839007D-02 -0.183177D-01 -0.158768D-01
     32  0.839100D-02 -0.158720D-01 -0.175725D-01  0.913795D-02 -0.151251D-01
     33 -0.151162D-01  0.631709D-02 -0.151250D-01 -0.151186D-01  0.631473D-02
     34  0.160660D-02 -0.330482D-02  0.915195D-03  0.127211D-02 -0.363931D-02
     35  0.916867D-03 -0.364174D-02  0.160703D-02  0.125233D-02 -0.330628D-02
     36 -0.289837D-02  0.309254D-03  0.354528D-02 -0.342874D-02 -0.221106D-03
     37 -0.358811D-02 -0.276719D-04  0.423712D-02 -0.344852D-02  0.111921D-03
     38  0.424326D-02  0.114856D-03 -0.359059D-02  0.410204D-02 -0.263550D-04
     39  0.355352D-02 -0.222070D-03 -0.289875D-02  0.408226D-02  0.306672D-03
               31            32            33            34            35 
     31  0.342201D-01
     32  0.751238D-02  0.342228D-01
     33  0.995327D-02  0.995973D-02  0.313930D-01
     34  0.315565D-02  0.351257D-02 -0.139885D-02  0.174683D-01
     35  0.351307D-02  0.315836D-02 -0.140025D-02  0.134579D-01  0.174708D-01
     36  0.294530D-02 -0.402871D-02 -0.821085D-03 -0.540304D-02 -0.896720D-02
     37  0.330271D-02 -0.438292D-02 -0.822482D-03 -0.941344D-02 -0.495429D-02
     38 -0.438647D-02  0.330616D-02 -0.822240D-03 -0.496083D-02 -0.941113D-02
     39 -0.402906D-02  0.295195D-02 -0.823638D-03 -0.897123D-02 -0.539822D-02
               36            37            38            39 
     36  0.322618D-01
     37  0.286976D-01  0.331568D-01
     38 -0.188611D-01 -0.233114D-01  0.331471D-01
     39 -0.224253D-01 -0.188523D-01  0.286968D-01  0.322698D-01
 Leave Link  716 at Fri Jan  2 11:51:57 2026, MaxMem=  6442450944 cpu:               1.7 elap:               0.1
 (Enter /applications/g16/g16/l103.exe)

 GradGradGradGradGradGradGradGradGradGradGradGradGradGradGradGradGradGrad
 Berny optimization.
 Red2BG is reusing G-inverse.
 Internal  Forces:  Max     0.000124883 RMS     0.000034621
 Search for a local minimum.
 Step number   1 out of a maximum of    2
 All quantities printed in internal units (Hartrees-Bohrs-Radians)
 Second derivative matrix not updated -- analytic derivatives used.
 ITU=  0
     Eigenvalues ---    0.00248   0.00410   0.01076   0.08349   0.09528
     Eigenvalues ---    0.09712   0.10509   0.11833   0.12051   0.16158
     Eigenvalues ---    0.17343   0.17633   0.20286   0.21733   0.24056
     Eigenvalues ---    0.33262   0.36700   0.37802   0.38878   0.47501
     Eigenvalues ---    0.47921   0.55432   0.68729   0.69442
 Angle between quadratic step and forces=  68.00 degrees.
 Linear search not attempted -- first point.
 Iteration  1 RMS(Cart)=  0.00128066 RMS(Int)=  0.00000339
 Iteration  2 RMS(Cart)=  0.00000278 RMS(Int)=  0.00000147
 Iteration  3 RMS(Cart)=  0.00000000 RMS(Int)=  0.00000147
 ITry= 1 IFail=0 DXMaxC= 4.85D-03 DCOld= 1.00D+10 DXMaxT= 3.00D-01 DXLimC= 3.00D+00 Rises=F
 Variable       Old X    -DE/DX   Delta X   Delta X   Delta X     New X
                                 (Linear)    (Quad)   (Total)
    R1        3.50850   0.00002   0.00000   0.00006   0.00006   3.50856
    R2        2.50364   0.00001   0.00000   0.00024   0.00024   2.50388
    R3        2.50387  -0.00004   0.00000   0.00001   0.00001   2.50388
    R4        2.49998  -0.00012   0.00000  -0.00041  -0.00041   2.49957
    R5        2.69974  -0.00008   0.00000  -0.00014  -0.00014   2.69960
    R6        2.69964  -0.00002   0.00000  -0.00004  -0.00004   2.69960
    R7        3.08841  -0.00005   0.00000  -0.00079  -0.00079   3.08762
    R8        1.90554  -0.00002   0.00000  -0.00019  -0.00019   1.90535
    R9        1.90556  -0.00003   0.00000  -0.00021  -0.00021   1.90535
    A1        1.92149   0.00002   0.00000  -0.00012  -0.00012   1.92136
    A2        1.92147   0.00000   0.00000  -0.00011  -0.00011   1.92137
    A3        1.89903   0.00007   0.00000   0.00055   0.00055   1.89958
    A4        1.90561  -0.00004   0.00000  -0.00032  -0.00032   1.90529
    A5        1.90810  -0.00003   0.00000  -0.00003  -0.00003   1.90806
    A6        1.90803  -0.00002   0.00000   0.00003   0.00003   1.90806
    A7        1.84508  -0.00001   0.00000  -0.00018  -0.00018   1.84490
    A8        1.84509  -0.00003   0.00000  -0.00019  -0.00019   1.84490
    A9        1.75156   0.00001   0.00000   0.00036   0.00036   1.75192
   A10        2.16566  -0.00001   0.00000  -0.00002  -0.00002   2.16564
   A11        1.90450   0.00001   0.00000   0.00026   0.00026   1.90475
   A12        1.90491   0.00002   0.00000  -0.00016  -0.00016   1.90475
   A13        1.96932   0.00001   0.00000   0.00140   0.00139   1.97071
   A14        1.96936   0.00003   0.00000   0.00135   0.00134   1.97071
   A15        2.00944   0.00001   0.00000   0.00161   0.00160   2.01105
    D1        0.92781   0.00003   0.00000   0.00131   0.00131   0.92913
    D2       -3.03142   0.00000   0.00000   0.00105   0.00105  -3.03038
    D3       -1.05157   0.00002   0.00000   0.00095   0.00095  -1.05062
    D4        3.02959   0.00000   0.00000   0.00078   0.00078   3.03036
    D5       -0.92965  -0.00003   0.00000   0.00051   0.00051  -0.92914
    D6        1.05020  -0.00001   0.00000   0.00041   0.00041   1.05061
    D7       -1.16293   0.00002   0.00000   0.00109   0.00109  -1.16184
    D8        1.16101  -0.00002   0.00000   0.00082   0.00082   1.16184
    D9        3.14086   0.00000   0.00000   0.00073   0.00073   3.14159
   D10        1.98663  -0.00002   0.00000  -0.00500  -0.00500   1.98163
   D11       -1.98164   0.00002   0.00000  -0.00003  -0.00003  -1.98167
   D12        0.05316  -0.00003   0.00000  -0.00504  -0.00505   0.04812
   D13        2.36808   0.00002   0.00000  -0.00008  -0.00008   2.36800
   D14       -2.36294  -0.00004   0.00000  -0.00510  -0.00510  -2.36804
   D15       -0.04802   0.00000   0.00000  -0.00013  -0.00013  -0.04815
         Item               Value     Threshold  Converged?
 Maximum Force            0.000125     0.000450     YES
 RMS     Force            0.000035     0.000300     YES
 Maximum Displacement     0.004853     0.001800     NO 
 RMS     Displacement     0.001281     0.001200     NO 
 Predicted change in Energy=-3.875929D-07
                           ----------------------------
                           ! Non-Optimized Parameters !
                           ! (Angstroms and Degrees)  !
 --------------------------                            --------------------------
 ! Name  Definition              Value          Derivative Info.                !
 --------------------------------------------------------------------------------
 ! R1    R(1,2)                  1.8567         -DE/DX =    0.0                 !
 ! R2    R(1,5)                  1.325          -DE/DX =    0.0                 !
 ! R3    R(1,6)                  1.325          -DE/DX =    0.0                 !
 ! R4    R(1,10)                 1.3227         -DE/DX =   -0.0001              !
 ! R5    R(2,3)                  1.4286         -DE/DX =   -0.0001              !
 ! R6    R(2,4)                  1.4286         -DE/DX =    0.0                 !
 ! R7    R(2,7)                  1.6339         -DE/DX =    0.0                 !
 ! R8    R(7,8)                  1.0083         -DE/DX =    0.0                 !
 ! R9    R(7,9)                  1.0083         -DE/DX =    0.0                 !
 ! A1    A(2,1,5)              110.086          -DE/DX =    0.0                 !
 ! A2    A(2,1,6)              110.0863         -DE/DX =    0.0                 !
 ! A3    A(2,1,10)             108.8376         -DE/DX =    0.0001              !
 ! A4    A(5,1,6)              109.1654         -DE/DX =    0.0                 !
 ! A5    A(5,1,10)             109.324          -DE/DX =    0.0                 !
 ! A6    A(6,1,10)             109.324          -DE/DX =    0.0                 !
 ! A7    A(1,2,3)              105.7048         -DE/DX =    0.0                 !
 ! A8    A(1,2,4)              105.7052         -DE/DX =    0.0                 !
 ! A9    A(1,2,7)              100.3778         -DE/DX =    0.0                 !
 ! A10   A(3,2,4)              124.082          -DE/DX =    0.0                 !
 ! A11   A(3,2,7)              109.1344         -DE/DX =    0.0                 !
 ! A12   A(4,2,7)              109.1343         -DE/DX =    0.0                 !
 ! A13   A(2,7,8)              112.9133         -DE/DX =    0.0                 !
 ! A14   A(2,7,9)              112.9132         -DE/DX =    0.0                 !
 ! A15   A(8,7,9)              115.2244         -DE/DX =    0.0                 !
 ! D1    D(5,1,2,3)             53.2352         -DE/DX =    0.0                 !
 ! D2    D(5,1,2,4)           -173.6278         -DE/DX =    0.0                 !
 ! D3    D(5,1,2,7)            -60.1963         -DE/DX =    0.0                 !
 ! D4    D(6,1,2,3)            173.6271         -DE/DX =    0.0                 !
 ! D5    D(6,1,2,4)            -53.2358         -DE/DX =    0.0                 !
 ! D6    D(6,1,2,7)             60.1957         -DE/DX =    0.0                 !
 ! D7    D(10,1,2,3)           -66.5688         -DE/DX =    0.0                 !
 ! D8    D(10,1,2,4)            66.5683         -DE/DX =    0.0                 !
 ! D9    D(10,1,2,7)           179.9998         -DE/DX =    0.0                 !
 ! D10   D(1,2,7,8)            113.539          -DE/DX =    0.0                 !
 ! D11   D(1,2,7,9)           -113.5413         -DE/DX =    0.0                 !
 ! D12   D(3,2,7,8)              2.757          -DE/DX =    0.0                 !
 ! D13   D(3,2,7,9)            135.6766         -DE/DX =    0.0                 !
 ! D14   D(4,2,7,8)           -135.6785         -DE/DX =    0.0                 !
 ! D15   D(4,2,7,9)             -2.7589         -DE/DX =    0.0                 !
 --------------------------------------------------------------------------------
 GradGradGradGradGradGradGradGradGradGradGradGradGradGradGradGradGradGrad

 Leave Link  103 at Fri Jan  2 11:51:57 2026, MaxMem=  6442450944 cpu:               2.0 elap:               0.1
 (Enter /applications/g16/g16/l9999.exe)

 ----------------------------------------------------------------------

 Electric dipole moment (input orientation):
 (Debye = 10**-18 statcoulomb cm , SI units = C m)
                  (au)            (Debye)         (10**-30 SI)
   Tot        0.142088D+01      0.361152D+01      0.120468D+02
   x          0.102308D+01      0.260042D+01      0.867406D+01
   y          0.919379D+00      0.233683D+01      0.779482D+01
   z         -0.356305D+00     -0.905637D+00     -0.302088D+01

 Dipole polarizability, Alpha (input orientation).
 (esu units = cm**3 , SI units = C**2 m**2 J**-1)
 Alpha(0;0):
               (au)            (10**-24 esu)      (10**-40 SI)
   iso        0.485223D+02      0.719026D+01      0.800025D+01
   aniso      0.236701D+01      0.350755D+00      0.390267D+00
   xx         0.498814D+02      0.739166D+01      0.822433D+01
   yx         0.360587D+00      0.534335D-01      0.594528D-01
   yy         0.473866D+02      0.702197D+01      0.781299D+01
   zx        -0.178381D+00     -0.264333D-01     -0.294110D-01
   zy         0.335146D+00      0.496635D-01      0.552581D-01
   zz         0.482990D+02      0.715717D+01      0.796342D+01

 ----------------------------------------------------------------------

 Dipole orientation:
     6          0.52074019          0.25026049          2.24447259
    16          3.29562101          2.22921815          3.07715612
     8          5.45810843          0.84325911          2.24567492
     8          2.68837163          4.72577636          2.24859153
     9          0.80124070         -2.05823984          3.17202454
     9         -1.56980375          1.26372574          3.17821623
     7          3.14921616          2.12163650          6.16021850
     1          4.62377210          1.19936459          6.93879508
     1          2.74903829          3.81317314          6.94106688
     9          0.33844082          0.12484111         -0.24569289

 Electric dipole moment (dipole orientation):
 (Debye = 10**-18 statcoulomb cm , SI units = C m)
                  (au)            (Debye)         (10**-30 SI)
   Tot        0.142088D+01      0.361152D+01      0.120468D+02
   x          0.000000D+00      0.000000D+00      0.000000D+00
   y          0.000000D+00      0.000000D+00      0.000000D+00
   z          0.142088D+01      0.361152D+01      0.120468D+02

 Dipole polarizability, Alpha (dipole orientation).
 (esu units = cm**3 , SI units = C**2 m**2 J**-1)
 Alpha(0;0):
               (au)            (10**-24 esu)      (10**-40 SI)
   iso        0.485223D+02      0.719026D+01      0.800025D+01
   aniso      0.236701D+01      0.350755D+00      0.390267D+00
   xx         0.482274D+02      0.714656D+01      0.795162D+01
   yx        -0.131502D+00     -0.194865D-01     -0.216817D-01
   yy         0.483105D+02      0.715888D+01      0.796533D+01
   zx         0.104806D+01      0.155306D+00      0.172801D+00
   zy         0.746702D+00      0.110650D+00      0.123115D+00
   zz         0.490290D+02      0.726535D+01      0.808379D+01

 ----------------------------------------------------------------------
 1\1\GINC-CCLEARTI\Freq\RwB97XD\6-311+G(2d,2p)\C1H2F3N1O2S1\RAPPE\02-Ja
 n-2026\0\\#P Geom=AllCheck Guess=TCheck SCRF=Check GenChk RwB97XD/6-31
 1+G(2d,2p) Freq\\Title Card Required\\0,1\C,1.0658710857,0.5777662357,
 -0.1851118874\S,2.632965073,-0.3807664283,0.0840912312\O,2.7129644461,
 -0.6038022329,1.4929452633\O,2.6212201854,-1.423672608,-0.8921655635\F
 ,1.0511644485,1.6527675567,0.589118435\F,0.9737032821,0.9527704583,-1.
 4525807677\N,3.7411227093,0.741614465,-0.3439727007\H,4.3128508884,1.0
 422283789,0.4303429589\H,4.2480815928,0.4923628411,-1.1792543623\F,0.0
 358519386,-0.1947865663,0.1188114531\\Version=EM64M-G16RevA.03\State=1
 -A\HF=-942.2182876\RMSD=1.985e-09\RMSF=6.109e-05\ZeroPoint=0.0520733\T
 hermal=0.0599322\Dipole=1.0230829,0.9193789,-0.3563048\DipoleDeriv=1.6
 241675,-0.0096275,-0.0019636,-0.0253811,1.4770717,0.0044604,0.0034062,
 0.0038119,1.4856288,1.8660091,0.2712921,-0.0856683,0.2661871,1.9152831
 ,0.0394038,-0.0839047,0.0391217,2.0489375,-0.631638,0.0089888,-0.07121
 76,0.0324409,-0.570182,0.0839305,-0.0912487,0.2343877,-1.1336294,-0.62
 33852,0.0164894,0.0351144,0.0578834,-0.9402031,-0.2427174,0.0328863,-0
 .3906437,-0.7723111,-0.3956223,0.1610238,0.044312,0.1509096,-0.7906498
 ,-0.3294063,0.0340436,-0.3068198,-0.4518597,-0.4097112,0.1165651,-0.16
 01647,0.1164362,-0.3598666,0.2501004,-0.1464046,0.2271083,-0.868731,-0
 .8718402,-0.2072206,0.087839,-0.3782354,-0.8264715,0.1476551,0.1463031
 ,0.1411133,-0.4920291,0.1796592,-0.037503,0.0249472,0.0217057,0.304234
 ,0.0193624,0.0571057,0.0414955,0.1881036,0.174468,-0.0488159,0.0081593
 ,-0.0203021,0.2328875,-0.051512,-0.0538053,-0.07017,0.2644351,-0.91210
 69,-0.2711922,0.1186424,-0.2216444,-0.4421032,0.0787231,0.1016184,0.08
 0595,-0.2685448\Polar=49.8813731,0.3605872,47.3865761,-0.1783808,0.335
 1459,48.298973\Quadrupole=6.1497339,-3.5044703,-2.6452636,2.6968074,-1
 .2658001,0.1912404\PG=C01 [X(C1H2F3N1O2S1)]\NImag=0\\0.51895691,0.0080
 5415,0.52668731,-0.00228430,0.00165866,0.53142149,-0.13650693,0.075268
 99,-0.02140298,0.52875511,0.06722863,-0.06206845,0.01164384,0.03327309
 ,0.73133136,-0.01864418,0.01135959,-0.02387546,0.01451190,0.16030734,1
 .14554108,0.01371954,-0.00419619,-0.01507371,-0.09768616,0.00831667,-0
 .03956164,0.06197318,-0.00848412,0.00355883,0.01142311,0.00752263,-0.1
 0479064,0.09164298,-0.00289774,0.08033742,0.02248494,-0.01028570,-0.01
 912049,-0.03981546,0.08745941,-0.63038751,0.03273833,-0.10532893,0.666
 84951,0.01334474,0.00547108,0.01234680,-0.09482322,0.00495196,0.002244
 48,0.01991251,-0.00315852,-0.00075611,0.06013503,-0.02244794,-0.005175
 05,-0.02084622,0.00422222,-0.39130760,-0.28048178,-0.00129934,0.015885
 56,0.01209577,0.00708282,0.40463108,-0.01414644,-0.00036668,-0.0099890
 0,0.00304191,-0.27632288,-0.34696304,-0.00012543,-0.03070079,-0.008217
 98,0.00279559,0.31101696,0.34454264,-0.08051088,0.02671552,0.01403038,
 0.00729896,0.01585024,0.01524250,-0.00149649,0.00012157,-0.00351186,-0
 .00581347,0.00772172,0.00268207,0.07038202,0.02455957,-0.22760796,-0.0
 9857808,-0.01408128,-0.02424719,-0.02668495,0.00339896,0.00242162,0.00
 728194,0.00992457,-0.00835470,-0.00172675,0.00427103,0.29670604,0.0125
 1693,-0.09853086,-0.13597083,-0.00627159,-0.00853558,-0.01000542,0.001
 44056,0.00153029,0.00692859,0.00329569,-0.00185828,0.00137394,-0.00315
 201,0.16085109,0.19637747,-0.08413943,0.01678086,-0.03820462,0.0065045
 3,0.00307842,-0.02392474,-0.00660681,0.00486334,-0.00655297,-0.0013807
 6,0.00255398,0.00340132,0.01329697,-0.00168334,0.00140407,0.07180905,0
 .01600799,-0.09824515,0.06851644,-0.00607121,-0.00173353,0.02130622,0.
 00622853,-0.00319275,0.00483796,0.00170170,-0.00024971,-0.00197279,-0.
 00502493,0.01199406,-0.04119131,0.00005273,0.10289896,-0.03566785,0.06
 834188,-0.26141345,0.01099144,0.00167410,-0.03170574,-0.00839005,0.005
 09417,-0.00298912,-0.00239396,0.00389020,0.00947446,-0.00641566,-0.023
 74819,-0.07185087,0.01942853,-0.08865240,0.38842956,0.00027660,-0.0257
 1907,0.00885957,-0.16542833,-0.10848153,0.03961559,0.00600559,-0.00544
 692,0.00299697,0.00427507,-0.00854074,0.00113286,-0.00200246,0.0046069
 0,0.00147927,-0.00214303,0.00260057,-0.00353486,0.50857159,0.00506954,
 -0.01201659,0.00426056,-0.06386412,-0.13453593,0.01403784,-0.01117009,
 0.00769221,-0.00014671,-0.02595618,-0.01325319,0.00102431,-0.00050882,
 0.00674228,0.00133248,-0.00021239,0.00298274,-0.00237120,0.17272061,0.
 22908467,-0.00171876,0.00539480,-0.00081048,0.02433158,0.01583945,-0.1
 0728723,0.02716190,0.02725702,-0.01523088,-0.01503055,-0.02721298,0.00
 753140,-0.00038505,0.00229990,0.00157830,0.00104565,-0.00363421,0.0054
 8325,-0.04766804,0.18443220,0.72799383,-0.00108208,-0.00543120,0.00067
 192,-0.01535839,-0.00022153,-0.01996016,0.00264978,0.00273505,0.000705
 24,0.00180298,-0.00080616,0.00084251,0.00021257,0.00178071,0.00071026,
 0.00043769,0.00024694,0.00030782,-0.18313758,-0.10003675,-0.17659867,0
 .18212481,-0.00051245,0.00301560,0.00172528,-0.01902346,-0.01458268,-0
 .02023143,0.00507687,0.00199352,0.00076170,-0.00403963,-0.00588919,0.0
 0081168,-0.00039617,-0.00104133,-0.00053821,0.00084320,-0.00025183,-0.
 00027339,-0.07170244,-0.04083283,-0.08211880,0.09195448,0.06191880,-0.
 00031943,0.00216592,-0.00095965,0.00515847,0.00155406,0.01257572,0.000
 35700,-0.00014350,-0.00296031,0.00162326,0.00473151,0.00142834,0.00045
 388,-0.00082313,-0.00041002,-0.00003500,-0.00009100,0.00006324,-0.1655
 1972,-0.10689351,-0.29950630,0.17730896,0.10394436,0.30387234,-0.00096
 116,-0.00483621,0.00299008,-0.01369224,0.01279353,0.01706954,0.0017374
 5,-0.00129899,-0.00005811,0.00234595,0.00151589,-0.00252038,0.00038827
 ,0.00000238,-0.00043384,0.00009480,0.00100588,-0.00175170,-0.15525492,
 0.02530402,0.18798225,0.01421540,-0.00308325,-0.02048726,0.15310897,-0
 .00034152,-0.00022752,-0.00224071,-0.01579592,0.00475396,0.02719594,-0
 .00404864,-0.00566823,0.00511216,0.00351439,-0.00028812,-0.00313600,0.
 00069512,0.00002259,0.00025086,-0.00057448,-0.00015873,0.00041732,0.03
 909086,-0.04797696,-0.12163107,0.00935632,-0.00396744,-0.00426553,-0.0
 3175940,0.05358503,0.00074289,-0.00228954,0.00217465,0.00817435,0.0034
 8837,-0.00841400,0.00118382,0.00093976,0.00130765,-0.00366403,-0.00206
 707,-0.00036690,-0.00052969,0.00011831,-0.00016857,-0.00019894,0.00055
 076,-0.00118019,0.16250055,-0.09513238,-0.32030992,0.01594937,-0.00394
 434,-0.01411621,-0.18260055,0.09807961,0.34122773,-0.24309732,-0.09210
 793,0.03806685,-0.01906332,-0.03678948,0.01340670,-0.00020858,0.006043
 70,-0.00823099,0.00020117,0.00999753,0.00289599,-0.00175548,-0.0327794
 8,-0.01098933,0.00212701,-0.01674820,0.02742629,-0.01116252,-0.0013458
 3,0.00087967,-0.00186518,0.00088284,0.00145985,-0.00198250,-0.00013672
 ,-0.00155776,0.27680672,-0.08913385,-0.12792104,0.02243712,-0.00145094
 ,-0.00281931,0.00154827,0.00059096,0.00176247,-0.00178761,0.00050781,0
 .00400092,0.00137296,-0.04944527,-0.05663541,-0.01331049,-0.02570232,-
 0.01404407,0.03562752,0.00087176,0.00211360,-0.00062632,0.00042215,-0.
 00036264,-0.00017918,0.00035615,-0.00007458,0.00025653,0.16298356,0.19
 398007,0.03703620,0.02255193,-0.08145679,0.00128038,0.00289190,0.00052
 159,0.00026923,-0.00171411,0.00382054,-0.00046118,0.00073190,0.0011861
 4,-0.01841456,-0.01899014,0.01214741,0.04363671,0.04033033,-0.03431115
 ,0.00013780,-0.00054358,0.00055803,0.00006273,-0.00013686,0.00001285,-
 0.00019005,0.00021743,-0.00015426,-0.06335726,-0.04533881,0.09767564\\
 0.00010640,0.00017042,-0.00002614,-0.00010728,-0.00007440,-0.00004176,
 0.00001650,0.00001061,0.00008359,0.00003545,-0.00000907,-0.00001906,0.
 00000628,-0.00002633,0.00002180,-0.00000286,-0.00001507,-0.00004176,-0
 .00005933,0.00011548,-0.00001204,0.00004857,-0.00003842,0.00000750,0.0
 0002861,-0.00003053,-0.00000906,-0.00007234,-0.00010269,0.00003693\\\@


 WE HAVE LEFT UNDONE THOSE THINGS WHICH WE OUGHT TO HAVE DONE,
 AND WE HAVE DONE THOSE THINGS WHICH WE OUGHT NOT TO HAVE DONE.
                   BOOK OF COMMON PRAYER                      
 Job cpu time:       0 days  1 hours 19 minutes 56.6 seconds.
 Elapsed time:       0 days  0 hours  3 minutes 22.8 seconds.
 File lengths (MBytes):  RWF=     69 Int=      0 D2E=      0 Chk=      6 Scr=      1
 Normal termination of Gaussian 16 at Fri Jan  2 11:51:58 2026.
